3
Properties=species:S:1:pos:R:3 config_type=qcd gap_pre_relax_energy=-4.817139843971095 gap_pred_energy=-4.887274526003246 gap_fmax_final=0.0004882126467549867 gap_converged=1 pbc="F F F"
Al      13.62987768      15.15293611      14.33683308
Al      15.69181281      16.21753491      15.61602742
Al      15.67830952      13.62952898      15.04713950
4
Properties=species:S:1:pos:R:3 config_type=qcd gap_pre_relax_energy=-7.426714606267529 gap_pred_energy=-7.505982650853936 gap_fmax_final=0.00026683282799293045 gap_converged=1 pbc="F F F"
Al       9.58759723       9.38769121       7.63510772
Al       6.81472794       7.30612344       8.54399952
Al       9.24864755       6.83731422       7.82782147
Al       7.56407622       9.68392008       9.20812026
5
Properties=species:S:1:pos:R:3 config_type=qcd gap_pre_relax_energy=-9.918074972390713 gap_pred_energy=-10.54459602857649 gap_fmax_final=0.0009464127117818988 gap_converged=1 pbc="F F F"
Al       9.98062156       9.18141155      10.22342750
Al       9.10084829       7.07708126       8.97219022
Al       7.57389328       8.71706491       7.65065610
Al       7.57893756      10.03483386       9.86204534
Al      10.10287958       9.32678870       7.62886110
6
Properties=species:S:1:pos:R:3 config_type=qcd gap_pre_relax_energy=-13.621415593347797 gap_pred_energy=-13.74394057252594 gap_fmax_final=0.0009231087661755467 gap_converged=1 pbc="F F F"
Al       9.99626655       9.49776972       8.47431751
Al       7.52688304       9.75297128       9.43186202
Al       9.35431757       7.12828051       7.44934866
Al       6.88515620       7.38325976       8.40676075
Al       8.97417028       7.60500877      10.03926335
Al       7.90697028       9.27647386       6.84221162
6
Properties=species:S:1:pos:R:3 config_type=qcd gap_pre_relax_energy=-13.309292386912803 gap_pred_energy=-13.751470618067758 gap_fmax_final=0.0006633289675924566 gap_converged=1 pbc="F F F"
Al      10.87083698      10.53469895       9.91867604
Al      10.74579109       8.55985605       8.02741667
Al       9.92476486       8.07559460      10.43801485
Al       9.10500072      10.58713104       7.99735622
Al       7.70590552       8.92233106       9.35506221
Al       8.68484527      10.35753273      11.30061845
7
Properties=species:S:1:pos:R:3 config_type=qcd gap_pre_relax_energy=-16.652291976306284 gap_pred_energy=-16.79730807840834 gap_fmax_final=0.0002517900752934331 gap_converged=1 pbc="F F F"
Al       9.86151947       6.59821008       7.58413985
Al      10.20695346       9.13943949       7.80225146
Al       8.16582572      10.71665448       8.30572626
Al       9.12948991       8.90471866      10.16172814
Al       7.90388980       6.79807323       9.24315668
Al       7.75447163       8.34232412       7.05046701
Al       6.48377783       9.00650776       9.35845844
7
Properties=species:S:1:pos:R:3 config_type=qcd gap_pre_relax_energy=-16.67815637912788 gap_pred_energy=-16.83213867809646 gap_fmax_final=0.0009926157442560052 gap_converged=1 pbc="F F F"
Al       9.92566115       9.77848190       7.69009299
Al       7.69511815      10.99225955       8.24417229
Al      10.29277457      10.09120640      10.24545223
Al       7.72882697       9.71929811      10.50194819
Al      11.31603445       7.89033072       8.81106621
Al       7.96520794       8.18664992       8.31104523
Al       9.32862192       7.59401855      10.44846802
8
Properties=species:S:1:pos:R:3 config_type=qcd gap_pre_relax_energy=-19.55840291555738 gap_pred_energy=-19.745783947508354 gap_fmax_final=0.0008245402386799832 gap_converged=1 pbc="F F F"
Al       8.08003304      11.31580637       7.61947448
Al       7.52610499      10.01297129       9.82120275
Al      10.47613260      10.61738762       8.32758435
Al       9.90381869       9.29463558      10.54074367
Al      10.46544430       7.97792411       8.17034628
Al       8.08819141       8.69706497       7.45053064
Al       7.51493297       7.37382220       9.66319624
Al       9.91085287       6.67589873      10.37243248
8
Properties=species:S:1:pos:R:3 config_type=qcd gap_pre_relax_energy=-19.69395952780106 gap_pred_energy=-19.962597145024638 gap_fmax_final=0.0006604751318225798 gap_converged=1 pbc="F F F"
Al      10.69285506      11.00228210      10.29353467
Al      10.26920175       8.28135969      10.33555605
Al       8.21837708       9.93429318      10.52887955
Al       7.78149511       7.26349394      10.02763729
Al      11.55799072       9.51090197       8.23784187
Al       9.04615913      10.63132880       8.11952973
Al       9.33118204       8.01655900       7.88076748
Al       6.83163825       9.08868046       8.30515251
9
Properties=species:S:1:pos:R:3 config_type=qcd gap_pre_relax_energy=-22.935934791172276 gap_pred_energy=-23.100525461101178 gap_fmax_final=0.000976655434936294 gap_converged=1 pbc="F F F"
Al      10.69268818       8.65021096       6.67000820
Al       8.99044145       6.76461720       7.16155064
Al      10.46355941      10.70726802       8.22209468
Al      10.20002382       8.12743304       9.29276770
Al       8.20098927       9.26694248       7.83869484
Al       8.62517444      10.76353134      10.03915629
Al       7.23690636       7.05597205       9.03935324
Al       8.38084410       8.31267035      11.12854554
Al       6.32182961       9.46381121       9.72028551
9
Properties=species:S:1:pos:R:3 config_type=qcd gap_pre_relax_energy=-22.920110509947417 gap_pred_energy=-23.06640103583343 gap_fmax_final=0.0009083961076374678 gap_converged=1 pbc="F F F"
Al      10.01174429       6.74647186       8.68692411
Al      11.27187411       8.57532414      10.17492551
Al       8.94717130       7.56522870      10.98390043
Al       9.88291827       9.31362796       8.04297624
Al       7.66399080       7.47901964       7.86525588
Al       9.92540138      10.76189773      10.53691620
Al       7.42485693       9.93730198       7.03042111
Al       7.73994302       9.42477637       9.72006322
Al       8.64570801      11.70995973       8.47222540
10
Properties=species:S:1:pos:R:3 config_type=qcd gap_pre_relax_energy=-25.80791500289238 gap_pred_energy=-26.03719680948706 gap_fmax_final=0.000970462609342986 gap_converged=1 pbc="F F F"
Al       9.37565997       8.32836373      11.95877725
Al      10.62684920      10.16778063      10.67360700
Al       8.09630855       9.48267017       9.85530246
Al      10.04630246      11.42227317       6.52413708
Al       9.26357463      11.72016390       9.02756151
Al      11.00238498       9.52648698       8.12830642
Al       8.40301319       9.42561252       7.20348243
Al       9.89605926       7.48253558       9.29472706
Al       7.69214305       6.79037787      10.75352571
Al       7.28698737       7.34301810       8.26985574
10
Properties=species:S:1:pos:R:3 config_type=qcd gap_pre_relax_energy=-25.887755639620686 gap_pred_energy=-26.221224227926527 gap_fmax_final=0.0009121873023753961 gap_converged=1 pbc="F F F"
Al      11.21683656      10.05033756       9.19196742
Al       9.59515491       7.97445094       8.68270810
Al      11.92932903       7.76697792      10.37004046
Al       9.43568220       7.84584480      11.33234643
Al      11.52726458      12.21323679      10.67312557
Al      10.89349011       9.97478872      11.94045594
Al       8.65936524      10.15266853      10.31330499
Al       8.95514636      10.22786601       7.49422493
Al       9.48336055      12.32950940       8.97840843
Al       9.12507162      12.28502047      11.84411888
11
Properties=species:S:1:pos:R:3 config_type=qcd gap_pre_relax_energy=-29.433653428201715 gap_pred_energy=-29.539425523687257 gap_fmax_final=0.0009690909418765867 gap_converged=1 pbc="F F F"
Al      10.61463800      10.33723560       9.67014267
Al      10.07484285      10.27344731       6.98547244
Al      11.76719920       8.49030200       8.08774452
Al       9.84325009       9.35325394      12.05316536
Al       9.94997086       7.71887010       9.91678601
Al       9.38578061       7.55817495       7.24115908
Al       8.72776789      12.10374289       8.36885588
Al       7.39721007       6.85740195       8.86405453
Al       8.11401824       9.46977263       8.64145241
Al       7.54177262       8.38659263      11.03634502
Al       8.22881746      11.09647390      10.78008998
11
Properties=species:S:1:pos:R:3 config_type=qcd gap_pre_relax_energy=-29.229792293101667 gap_pred_energy=-29.53969065124293 gap_fmax_final=0.0007808989667124244 gap_converged=1 pbc="F F F"
Al      11.44750264       8.31527146      10.99516570
Al       8.96772145      11.02634115       7.28489176
Al       9.99257033      10.55988403      11.44385878
Al      10.93906763       9.99319881       8.94796225
Al       9.33195794      12.31890514       9.57554318
Al       8.79867617       8.10396554      11.54045549
Al       9.75014667       7.55083818       9.04482515
Al       8.18378084       9.84620680       9.56021175
Al      10.21451864       8.74379777       6.69225728
Al       6.94885333       7.42523532       9.76865745
Al       7.66888691       8.36003835       7.38985377
12
Properties=species:S:1:pos:R:3 config_type=qcd gap_pre_relax_energy=-32.4241696895335 gap_pred_energy=-32.72205552647635 gap_fmax_final=0.0009811256941801233 gap_converged=1 pbc="F F F"
Al      10.25081524       6.69108915       8.94586339
Al       8.98344895       6.97790328      11.45032352
Al      11.79666169       8.87177672       8.23579001
Al      10.91716630       8.61143045      10.80724269
Al       9.15922637       9.03844346       8.57953680
Al       7.50099288       7.07055428       9.28791794
Al      10.44276113      10.94457542       7.24345106
Al       6.50115042       9.39812840       8.69363840
Al       8.23725733       9.50083181      11.02885419
Al      10.54273753      11.01258404       9.93203238
Al       7.87846860      10.63012046       6.77892646
Al       8.06548469      11.52873363       9.29259425
12
Properties=species:S:1:pos:R:3 config_type=qcd gap_pre_relax_energy=-32.571605874536 gap_pred_energy=-32.838767745389504 gap_fmax_final=0.0008140584487098722 gap_converged=1 pbc="F F F"
Al       9.26935156      12.66947447       9.32708355
Al       9.75858690      12.63587598      12.02793737
Al       8.63548679      10.12367131       8.48836427
Al      11.12874959       8.14789423      11.50589207
Al      12.05818104      12.55985514      10.58226726
Al      11.82964624      10.58822668      12.75755730
Al      12.85887258       9.95416292      10.27406391
Al      11.37566784      11.38841533       8.16309084
Al       8.59333396       8.51741649      10.67644767
Al       9.16349496      10.07840467      12.86513163
Al      10.96115095       8.69532760       8.71090078
Al      10.26958344      10.54338102      10.52336920
12
Properties=species:S:1:pos:R:3 config_type=qcd gap_pre_relax_energy=-32.41695220659115 gap_pred_energy=-32.69032073073642 gap_fmax_final=0.0009605417077570797 gap_converged=1 pbc="F F F"
Al      11.00216776      11.10837084       9.41170077
Al      11.33626358       7.19725587      11.45698670
Al       9.71999905      11.44023509      11.87000270
Al      10.83586030       8.48798714       9.11901521
Al       9.19874269      13.19197768      10.02803404
Al       9.12146766       8.93476480      11.23647735
Al       8.10540610       8.19100388       8.62023836
Al       9.63525506       9.84722774       7.18246793
Al       9.20864778       6.43384564      10.17882219
Al       9.48768723      12.40903534       7.56898291
Al      11.77198293       9.75325569      11.55848508
Al       8.27224715      10.70076758       9.46451405
12
Properties=species:S:1:pos:R:3 config_type=qcd gap_pre_relax_energy=-32.50532621750403 gap_pred_energy=-32.70437663592427 gap_fmax_final=0.0008975954566246042 gap_converged=1 pbc="F F F"
Al      10.23242242      10.34947138       7.45181493
Al      10.14789018       7.94592448       8.69179068
Al      12.01401329       7.67716310      10.60427840
Al      11.72597580      10.06751564      11.74186873
Al       9.57577309       7.94387879      11.61719204
Al      11.12343170      12.22640448       9.59161422
Al      10.67892172      12.41234425      12.20865923
Al       8.30847029      12.24708918      11.00034376
Al       8.61895649      12.12666676       8.42074253
Al       9.01065298      10.27944214      12.71416560
Al      12.22596020       9.84573233       9.10712506
Al       9.56126865      10.10210428      10.07414167
13
Properties=species:S:1:pos:R:3 config_type=qcd gap_pre_relax_energy=-36.35088420371679 gap_pred_energy=-36.430071059804746 gap_fmax_final=0.0009590076601335045 gap_converged=1 pbc="F F F"
Al      10.16453229      11.94322558       8.48596253
Al       8.53239541       9.96184782      12.01796019
Al      12.19626266       9.95556800       9.16068418
Al       9.23629086       7.32102070      10.99342177
Al       8.51407955       7.57927160       8.04075175
Al       7.05374342       8.71977489      10.04504783
Al      10.47289031       9.61708718       7.03100830
Al      11.31632385       8.94630980      11.53933167
Al      11.06840483       7.44994950       8.89329045
Al       7.85425180      10.18560310       7.55224332
Al      10.57038589      11.54096908      11.12063962
Al       7.78232784      11.54115113       9.88173173
Al       9.56357878       9.56368912       9.56339413
13
Properties=species:S:1:pos:R:3 config_type=qcd gap_pre_relax_energy=-35.69560532995558 gap_pred_energy=-35.96819354490816 gap_fmax_final=0.000908590951589367 gap_converged=1 pbc="F F F"
Al       6.57668571       8.16705837       7.58313329
Al       8.36367978       6.46013829       9.21722148
Al       6.58701930       8.07323767      10.22714054
Al       9.01894256       7.40367918       6.78064857
Al      10.78345503       7.33111286       8.85575411
Al       9.56348758       8.12348368      11.15776404
Al       8.12901382      10.03954866       6.49349645
Al       8.68553792       9.21111409       8.93823071
Al       7.61083131       9.79107366      11.85143445
Al       9.65521847      11.58289528       8.04005388
Al      10.78603455       9.36540245       7.04163857
Al       9.40279210      11.19457062      10.64480349
Al      11.32301538       9.74239869       9.65439390
14
Properties=species:S:1:pos:R:3 config_type=qcd gap_pre_relax_energy=-39.31092536398495 gap_pred_energy=-39.50484957796544 gap_fmax_final=0.0008627775459412376 gap_converged=1 pbc="F F F"
Al      10.06484525      12.22282823       8.34893727
Al      12.13765166      10.07728352       8.27470196
Al       8.81898026      12.27066877      10.79089599
Al       9.67548197       9.76648881       7.20872373
Al      11.76154032      11.76287005      10.39869284
Al       7.62874892      11.03286603       8.63203247
Al       9.84910687       9.98951525       9.80686861
Al       9.56002958       8.09821586      11.65893413
Al      12.02088396       9.14046503      11.01236654
Al      10.18667169      10.60802706      12.39335895
Al      10.95947434       7.76646563       8.88632395
Al       7.57518349       9.88632395      11.13458705
Al       7.96171838       8.39017520       8.84064500
Al       9.05688944       6.24501274       9.87013761
14
Properties=species:S:1:pos:R:3 config_type=qcd gap_pre_relax_energy=-39.3787187238441 gap_pred_energy=-39.5484161358674 gap_fmax_final=0.000679468401658592 gap_converged=1 pbc="F F F"
Al       8.70894436       9.15040299       8.80030285
Al       7.87754257       9.77777518      11.22486044
Al       9.90165349       9.22970820      12.95640199
Al      11.58383919       9.13323579       8.62303547
Al      10.43988176      10.39621355      10.57692612
Al      12.30788897       8.59731430      11.32647743
Al       9.85325996      10.74261907       7.07186914
Al       8.76762029      11.97128024       9.37555206
Al       8.97279660      11.95805744      12.21837691
Al      11.54317077      12.01312866       8.60892500
Al      11.06790663      13.00154182      11.00886988
Al      11.75488115      11.10360968      12.83142625
Al      13.09252316      10.96129998      10.46802746
Al       9.90199909       7.73772109      10.68285701
15
Properties=species:S:1:pos:R:3 config_type=qcd gap_pre_relax_energy=-42.48290648447943 gap_pred_energy=-42.572666391193124 gap_fmax_final=0.000986801253322832 gap_converged=1 pbc="F F F"
Al       8.52979434       9.86706195       7.57947502
Al      12.34731522       7.97935206       7.51697089
Al       9.64698592      12.20023212       8.63886080
Al      11.21280227      10.33877939       7.60202775
Al       7.73779250       8.29312635       9.75715064
Al       9.89322068       7.64512590       8.36935476
Al       7.44713581      11.00109544       9.70844802
Al       9.86511977       9.86437986       9.86529718
Al      11.99128917      11.43679930       9.97041632
Al      12.28305885       8.72863275      10.02565015
Al       9.83423634      12.08824464      11.35431545
Al      10.08022532       7.52578109      11.08476683
Al       7.38562755      11.74657961      12.21877325
Al       8.51734200       9.38635679      12.12778574
Al      11.19836620       9.86876471      12.15101915
15
Properties=species:S:1:pos:R:3 config_type=qcd gap_pre_relax_energy=-42.6849497087684 gap_pred_energy=-42.81341436889242 gap_fmax_final=0.0009048594795134056 gap_converged=1 pbc="F F F"
Al      11.78655915       8.72580701      11.20291266
Al      12.02823747      10.38474533       9.07454020
Al       9.30772632       8.09795054       6.62935989
Al       9.37315404       7.53194116      11.22003528
Al       9.87357625       9.68988768      12.83718557
Al      11.45516695      11.43682465      11.43702799
Al      11.68052398       9.18798792       6.78964410
Al       9.53981496      10.59414160       7.62510002
Al      10.70943138       7.84124463       8.91561533
Al       9.87998842      12.45262090       9.52831467
Al       8.46835953      11.71167516      11.76019302
Al       9.67073083       9.92338656      10.18730976
Al       7.33630360       9.26560547      11.26136404
Al       7.90975861       8.53454465       8.78089758
Al       7.52573442      11.16670268       9.29556585
16
Properties=species:S:1:pos:R:3 config_type=qcd gap_pre_relax_energy=-45.64606708592153 gap_pred_energy=-45.868794834740015 gap_fmax_final=0.0008451793261566151 gap_converged=1 pbc="F F F"
Al      10.07385555       6.99792468       9.67441734
Al      10.63348902      10.82104215       7.52849772
Al      11.91613567       8.41133729      11.20814378
Al      10.05399821       9.63268731       9.77632094
Al      10.71788396      10.66753179      12.07524451
Al      13.84622933       9.26322993       9.65078782
Al       9.38437194       8.23729781      11.96216285
Al       7.16288337      12.58182145      10.01803428
Al       8.14495783      10.53798680      11.46978424
Al      12.14421135      11.24085183       9.78462647
Al       8.10147152      10.74537304       8.28158844
Al       9.25799565       8.46022334       7.51844559
Al      11.82628814       8.47900889       8.17792286
Al       9.75520696      12.25889816      10.01592862
Al       7.75029926       8.25164614       9.77696714
Al       6.03001024      10.21242738       9.88041541
16
Properties=species:S:1:pos:R:3 config_type=qcd gap_pre_relax_energy=-45.667566894261796 gap_pred_energy=-45.86879457173986 gap_fmax_final=0.0009049855285190784 gap_converged=1 pbc="F F F"
Al      12.27997070      10.51687239      12.25918528
Al      12.64471994      11.11870338       9.71237167
Al      12.31436150       8.50748021      10.41250031
Al      10.61027122       8.35165824      12.43780605
Al      11.03532935      12.68516475      11.26202149
Al      12.12709167      11.43042379       7.17284829
Al       9.67469051      11.18591671      12.96800365
Al       8.39525682       9.00856566      13.67353047
Al      10.27049626      10.21073128      10.57950175
Al       9.73192960       7.73781331       9.95143315
Al       7.84471861       9.34141919      11.14153704
Al       8.39600715      12.01519380      10.74191646
Al      11.02219035       9.21931085       8.18403163
Al      10.16729547      12.23867700       8.78844908
Al       8.38535299      10.12178599       8.71360275
Al       9.64078464      10.85075022       6.54172773
17
Properties=species:S:1:pos:R:3 config_type=qcd gap_pre_relax_energy=-48.731595752776215 gap_pred_energy=-49.08196434214644 gap_fmax_final=0.0007641680088710996 gap_converged=1 pbc="F F F"
Al      12.79089024       9.75182278       9.71607508
Al      11.89520922      12.33048485       9.89276477
Al      11.19982529      10.65528307       7.84618466
Al      13.56628541       8.93884093      12.08829807
Al       8.99731103      11.52646805       6.71548323
Al      11.98554946      11.06798345      12.19974560
Al      10.77892102       8.13355081       8.81689321
Al       9.38395367      12.54249988       9.13655271
Al       8.56857321       9.48606789       8.35828446
Al      10.27826692      10.27655554      10.27835458
Al       9.77899420      12.42400740      11.73496858
Al      11.17195211       8.01023943      11.41631784
Al       6.98886288      11.61643243       8.46632478
Al      11.55637261       9.02509756      13.83878246
Al       7.76521063      10.80466868      10.83845544
Al       9.35591386       9.90459496      12.71053417
Al       8.65851781       8.22601185      10.66658994
17
Properties=species:S:1:pos:R:3 config_type=qcd gap_pre_relax_energy=-48.74514144310564 gap_pred_energy=-48.87735802812566 gap_fmax_final=0.0009047941508147083 gap_converged=1 pbc="F F F"
Al      12.54682052      12.98239865       9.27355670
Al      11.73316429      11.37217552      11.36068087
Al      11.49826121       8.88030626      10.36142071
Al       9.63272227       9.75881971      11.86147596
Al      10.69409754      13.85713885      10.77513076
Al      12.63835752      10.52266209       8.66169952
Al       9.69422643       7.04001120      11.36308934
Al      12.88220121       7.98552298       7.98887385
Al      10.54964276       9.20658790       7.59864660
Al      10.06340043      11.36842938       9.28834645
Al      10.81109178       6.70735047       8.99748389
Al       8.91735505      12.27512799      11.65483954
Al       7.41175263       8.30773412      11.73309629
Al       8.69579247       8.40892961       9.32167657
Al       8.23407167      10.47124293       7.53975053
Al       7.48464704      10.65031792      10.06365834
Al       7.04267367      10.73552293      12.68685256
18
Properties=species:S:1:pos:R:3 config_type=qcd gap_pre_relax_energy=-51.69333781671496 gap_pred_energy=-51.984073098622204 gap_fmax_final=0.0009742684892302542 gap_converged=1 pbc="F F F"
Al       9.55720997       8.56103860       8.80593558
Al      12.96955320       7.12227083      11.14754784
Al      12.18900568       8.50037799       9.00610381
Al      10.43544417       7.80140381      11.29658003
Al      14.48406698       9.12263669      10.20624342
Al      11.10741323      10.60828955       7.84134901
Al       8.70605264      11.05590023       8.83258106
Al       8.34470362       9.36087707      11.06600290
Al      12.69929102       9.58660613      12.13503963
Al      10.78121921      10.24097243      10.43838124
Al      10.22566016       9.94462955      12.99868859
Al       6.80487487      11.41101793      10.64957719
Al      13.05538116      11.26082858       9.66610267
Al      11.84936107      12.08658296      11.98917808
Al       7.00987895      13.74466398      11.80997538
Al       9.21052693      12.05727399      11.76520631
Al      10.89307636      12.72611443       9.48068018
Al       8.44212719      13.57336163       9.62967347
18
Properties=species:S:1:pos:R:3 config_type=qcd gap_pre_relax_energy=-52.11665299674186 gap_pred_energy=-52.338770821090336 gap_fmax_final=0.0006716198941890107 gap_converged=1 pbc="F F F"
Al      12.36743415      13.42292584       9.35160646
Al      12.91606388      10.84210617       9.33649843
Al      11.11257449       8.79414641       8.03489085
Al      10.48100632      11.41361603       8.55966921
Al       9.75541526      13.71881555       9.65390440
Al      13.51703370       8.34431860       9.08183069
Al      11.35329086      11.99997462      11.36401104
Al       8.64846898       9.63952461       8.63643572
Al      10.98309892       9.44265107      10.59159904
Al       8.77913956      11.50968646      10.98481181
Al      11.77936649       6.87809019      10.35068486
Al       7.77338142      12.30970748       8.65533066
Al       9.32130385       7.30144452       9.65728841
Al      10.20604571      10.23198804      12.99570694
Al       6.45926245      10.40865593       9.92529186
Al      10.28951068       7.60331757      12.48191513
Al       8.21787107       9.00261016      11.48264086
Al       6.70534935       7.80203788       9.52150076
19
Properties=species:S:1:pos:R:3 config_type=qcd gap_pre_relax_energy=-54.95109411615437 gap_pred_energy=-55.40919123092804 gap_fmax_final=0.0009917379438202933 gap_converged=1 pbc="F F F"
Al      13.41469932      12.89614435      10.53065480
Al      11.23853039      12.46618940       9.14662877
Al      11.04104331      14.30923651      11.08013760
Al      12.84235098      10.38857181      10.11742610
Al      11.17018744      11.92677509      12.13828259
Al      11.33446661      10.11850374       7.94484939
Al       7.53898934      10.42606360      10.35576181
Al      11.59656063       8.10522902       9.86279867
Al       8.98599712      11.41635421       8.27649760
Al      13.61553259      11.11916093      12.62963796
Al       7.28076369       7.80753117      10.11061661
Al       9.56510398       6.45988911       9.66019052
Al      10.13993594      10.21086837      10.31323985
Al       9.10727266       8.76094980       8.39326881
Al      12.96854011      13.76750505      12.93939698
Al      11.68461601       9.31566812      12.29314469
Al       9.37701437       8.14522568      11.74120094
Al       9.01006170      12.61418374      10.69552554
Al       8.95705589      10.61467238      12.63946281
19
Properties=species:S:1:pos:R:3 config_type=qcd gap_pre_relax_energy=-55.28027178020263 gap_pred_energy=-55.507150042886 gap_fmax_final=0.0008263151762251974 gap_converged=1 pbc="F F F"
Al      12.60046205       8.84627828       9.31878675
Al      10.02443138       9.13207262       9.78459496
Al      11.93449466      11.54586052       9.63126030
Al      11.11772863      10.14577142       7.53711333
Al      11.49654317       7.48582485      11.34733073
Al       8.81559013       7.18936845      11.17056518
Al      10.90897421      13.05880119       7.60188439
Al       8.34993342       9.62214576       7.71625304
Al       9.30121837      11.52514935       6.15524800
Al       7.24526851       7.82016148       9.19721244
Al      12.16004958      10.06743523      11.72244119
Al       9.10350828      11.74364940       9.04589925
Al      11.66297565       8.43490170      13.83791033
Al       7.68996034      10.00693921      10.66025864
Al       9.45997486       9.26626733      12.59720959
Al      10.65176227      13.80802925      10.12379809
Al       9.64632127      11.62432164      11.54734177
Al      11.92157291      12.78210187      12.18631441
Al      11.03344552      11.01913568      13.94279284
20
Properties=species:S:1:pos:R:3 config_type=qcd gap_pre_relax_energy=-58.68530562777647 gap_pred_energy=-59.06907749359248 gap_fmax_final=0.0008596419406889886 gap_converged=1 pbc="F F F"
Al      12.39428966       7.39521548      11.37787669
Al       9.46195387       6.61436234      10.83122928
Al       9.91048896       8.23878874      12.87398420
Al      11.19378223       6.86115308       8.82345776
Al      13.01132841       8.80305081       8.73162889
Al      12.10209583       9.57506284      13.15939186
Al      13.17835006      10.27764807      10.92579940
Al      10.74763454       9.07968652      10.38993185
Al       8.12669782       9.42719136      11.36238350
Al       8.56514391       8.29741168       8.91614918
Al       8.01297978      10.24904976       7.11473934
Al      11.60695313      11.54047382       9.24592281
Al      10.61957310       9.53202500       7.68710272
Al       9.03086306      10.99789013       9.43490630
Al      10.33055283      11.20090350      11.87152788
Al       6.39629979      10.39662187       9.53258482
Al       9.88564221      12.42307441       7.28628874
Al       9.81554285      13.52507974      10.00317561
Al       7.36797811      12.82482692       8.53837933
Al       7.77361554      12.27224961      11.42530552
20
Properties=species:S:1:pos:R:3 config_type=qcd gap_pre_relax_energy=-58.418528551499605 gap_pred_energy=-58.84781433653339 gap_fmax_final=0.0009566612127003118 gap_converged=1 pbc="F F F"
Al      12.53112808      12.84886478       8.98469627
Al      14.07497890       8.33210649      10.08901055
Al      13.17674342      13.30388421      11.74050109
Al       8.86811684      13.53231410      11.73396598
Al      10.92232550      10.75540430       8.78048375
Al      11.02859588      14.74191894       9.94725446
Al       8.67596212       8.54126700      11.86321210
Al       9.23341641       8.48699714       9.22121137
Al      11.08520841       9.30647961      11.08455848
Al       8.72291033      10.86632306      10.42134333
Al       9.48991676      10.84322000      12.93822381
Al      11.85859656       8.31967438       8.69077186
Al      13.27181674      10.81190459      10.51454687
Al       9.41436759      12.92618806       8.98734972
Al      10.97276211      12.20961242      11.09099199
Al      12.30767520      10.87159533      13.01046608
Al      11.16529520      15.01666433      12.48074018
Al      10.72425975       8.53025425      13.65272154
Al      13.18078470       8.45169632      12.54676633
Al      10.85690885      12.86540000      13.78295357
21
Properties=species:S:1:pos:R:3 config_type=qcd gap_pre_relax_energy=-62.03684519644041 gap_pred_energy=-62.30869452790952 gap_fmax_final=0.0009501543224071193 gap_converged=1 pbc="F F F"
Al      11.86851472       7.43350607       8.53891688
Al      10.19225862       8.64521221       6.81959972
Al      12.91698671       9.99309763       7.21455212
Al       9.20986316       7.83648856       9.31182806
Al      13.41737534       9.25416587       9.85037870
Al      10.50978736      11.35227173       6.87468236
Al       8.47646307      10.29713239       8.25873218
Al      11.01434683       9.85539478       8.97404330
Al       6.44143451       9.73902035       9.84169083
Al      12.53330079      11.98560722       8.99065798
Al      11.27156621       8.27993137      11.11897014
Al       7.18316091       7.64789734      11.16254863
Al       9.10776336       9.91760052      10.88165971
Al      11.62610005      13.51091440      10.95376386
Al       9.84739904      12.27233552       9.38851125
Al       9.24692410       7.71481864      12.71257818
Al      11.78554300      10.87481739      11.37024319
Al       7.41658152      12.05852652      10.59373570
Al       7.33599047      10.08726221      12.73392065
Al      10.16817647      10.07388436      13.40691838
Al       9.55080475      12.29045592      12.12240917
21
Properties=species:S:1:pos:R:3 config_type=qcd gap_pre_relax_energy=-62.09036668682296 gap_pred_energy=-62.38931097780349 gap_fmax_final=0.0009687758224141749 gap_converged=1 pbc="F F F"
Al      13.41017438       9.23769107      10.30939102
Al      13.03583957      11.67100942       9.38159218
Al      12.61579544      11.29499277      12.29993759
Al      12.01636076       8.38556875      12.37194217
Al      11.26632029      13.25246436      10.51753850
Al      11.73862867       9.55450436       8.08421331
Al      10.74440138      10.38080134      10.65750312
Al      11.15108072       7.65995245       9.80864955
Al      10.24690543       9.96680917      13.50787298
Al       9.87254924      12.40024877      12.57987141
Al      10.50175835      11.87030997       8.20430638
Al       9.32651600       8.07990826      11.65316290
Al       9.98556854       7.53017608       7.26279255
Al       8.67779400      12.29059237      10.04934391
Al       8.08984875      10.39582288      11.77346249
Al       8.86355513       9.46164235       9.00647172
Al       9.60168925       9.99768527       6.32527789
Al       8.57184913       6.66648632       9.35341240
Al       7.80831852      11.60187687       7.47699882
Al       6.77693986       8.26681940      10.50798286
Al       6.39732132      10.73385250       9.56749098
22
Properties=species:S:1:pos:R:3 config_type=qcd gap_pre_relax_energy=-65.1766263766176 gap_pred_energy=-65.30012702592464 gap_fmax_final=0.0009593921956512204 gap_converged=1 pbc="F F F"
Al      12.07508349       8.28806869      12.52778125
Al      12.47124376       6.47969195      10.33615538
Al      13.05807335      10.76005072      12.11875690
Al       9.49256733       8.47116615      13.43445590
Al      10.04819673       7.65781585      10.80896814
Al      12.24202205       9.13637335      10.00792536
Al      10.41115524      10.42341866      11.71899165
Al      12.12130920      13.27313123      11.81543138
Al       8.05375832      10.72107914      13.36402780
Al      10.92689709       7.65830387       8.22373567
Al       7.84444778       8.99334976      11.19988857
Al       9.72324614      10.04596499       9.13540735
Al      12.26810724      14.19380098       9.26535294
Al      12.73904732      11.60638152       9.51458225
Al       9.63210857      12.79261780      12.74089832
Al       8.22490178       7.77693401       8.68093360
Al      11.80632234      10.07234355       7.42072157
Al       7.97598806      11.59563630      10.78514969
Al       6.84923555      10.06194833       8.83618487
Al      10.15774929      12.71790283      10.04077455
Al       8.38119135      12.10540551       8.03016631
Al      10.96561277      12.63687953       7.46197528
22
Properties=species:S:1:pos:R:3 config_type=qcd gap_pre_relax_energy=-65.45065110452241 gap_pred_energy=-65.57521553459098 gap_fmax_final=0.000859717034006728 gap_converged=1 pbc="F F F"
Al       9.12661974       8.10552113      11.65129608
Al      11.95610256      10.62165827      14.30934184
Al       9.54468245       9.60791250      13.80408772
Al      11.67429152       8.98352172      12.18189397
Al      11.29525316       7.55612511      10.05880345
Al       8.76595240       6.67370853       9.44093252
Al      10.78830498       6.22283630       7.76675649
Al      12.80739855       9.83738100       9.83051078
Al      13.14434651      11.30082774      12.02419441
Al       8.05308640      10.57161051      11.82548195
Al      10.45962462      11.77353467      12.37980123
Al      12.36496333       8.36732401       7.66001040
Al      10.12026568      10.11938804      10.12044131
Al       9.05109706      12.71260421      10.42441080
Al       9.63399791       8.66344506       7.75393162
Al       7.65867242       9.08445078       9.61340379
Al       6.64990560      11.53832554       9.78421830
Al      11.73445466      12.30345048      10.00594071
Al      11.33965882      10.81641718       7.79359901
Al       7.61570964      13.51684736       8.28331348
Al       8.60556258      11.03069128       7.92137772
Al      10.24976710      13.23213628       8.00597011
22
Properties=species:S:1:pos:R:3 config_type=qcd gap_pre_relax_energy=-65.05360830892101 gap_pred_energy=-65.45203526123672 gap_fmax_final=0.0006820667969734065 gap_converged=1 pbc="F F F"
Al       9.89164376       9.43301275       5.87864807
Al       8.71084323       7.17324283       6.63513767
Al       7.08618495       8.48911242       5.03254348
Al       7.60037935      10.10167049       7.05099323
Al       9.81618846      11.54268287       7.49869765
Al       9.60328089       8.95312053       8.48486033
Al       7.36049413       5.05526029       7.60452556
Al       5.29367036      10.50418906       8.37738309
Al      11.35988802       7.47306814       6.91930272
Al      10.04385821       5.28314222       7.94775811
Al       6.39272122       7.83582570       7.77948105
Al       7.49179435      12.00771683       8.90254572
Al      11.99788350       9.94202434       7.91480924
Al       5.84706272       5.92742464       9.61279462
Al      11.14473180       7.07640781       9.61219322
Al       8.37421017       6.76035638       9.41858793
Al       9.64182312      11.03023204      10.17473578
Al       7.33510953       9.49922503       9.80763109
Al       4.90782887       8.40305656       9.96442052
Al       9.35695019       8.48603208      11.11623599
Al      11.73317566       9.46716547      10.56425933
Al       6.95351169       7.49926572      11.64568980
23
Properties=species:S:1:pos:R:3 config_type=qcd gap_pre_relax_energy=-68.34433484463152 gap_pred_energy=-68.42497458464605 gap_fmax_final=0.0009128256643434982 gap_converged=1 pbc="F F F"
Al       9.08575636      13.33834782      11.82240124
Al      11.07296336      11.87694840      12.88972514
Al      11.00303815      11.11880522      10.29677593
Al      13.07235922      10.30280513      12.04212684
Al       6.60236741      12.26062093      12.08849602
Al      10.14432504      13.47004327       9.34707807
Al      11.91905161      12.17299806       7.75964106
Al      13.61148717      10.92648882       9.45901766
Al       8.16580075      11.59584215       9.99512342
Al      10.68696205       9.17141845      12.30841389
Al       8.61088628      10.63115956      12.65217948
Al      12.77806811       7.52998759      12.67770727
Al       9.46306634      11.13520947       7.88003879
Al      12.29607826       8.48460140      10.18482537
Al      11.72137174       9.45639679       7.88933589
Al      10.84022701      10.64384604       5.63339755
Al       9.42821075       9.00107054       9.79404973
Al       6.44740692       9.78148314      10.98042473
Al       8.18203541       7.97941262      11.96445299
Al      10.45143283       6.77224433      11.19988562
Al       7.19438124       9.50216043       8.40538286
Al       9.29973755       8.64908459       6.92348582
Al      10.61457952       6.89061836       8.49762774
23
Properties=species:S:1:pos:R:3 config_type=qcd gap_pre_relax_energy=-68.6654050913119 gap_pred_energy=-68.83858588237538 gap_fmax_final=0.0009191489307936003 gap_converged=1 pbc="F F F"
Al      12.97075835      12.05100189      12.36105193
Al      10.92841987      10.67447155      13.92904542
Al      10.39269683      12.67590513      11.85030110
Al      14.02333251       9.88963889      10.70382285
Al      12.44182165      12.14967780       9.71282269
Al      11.44222126      10.10820782      11.36772665
Al       7.85880803      12.87741287      11.09301541
Al       8.82942442      10.45445334      12.19246693
Al      10.07861682       8.10809530      12.62624667
Al       9.70864907      11.50485875       9.36047715
Al      12.09156985       7.59443635      10.53766128
Al       7.20411630      12.41430662       8.59992469
Al      12.13998646       9.60488826       8.74416112
Al       9.57519316       8.93463468       9.86529776
Al      11.58779579      11.91291567       7.21371771
Al       7.49882599       7.83556487      11.44339992
Al       9.63203396       6.15218091      10.61451371
Al       9.02065592      11.93960535       6.70575438
Al       7.03449688      10.24392682      10.29394354
Al      10.70430876       7.00559000       8.12536509
Al      10.12331047       9.43521733       7.07543933
Al       7.65604335       9.89992798       7.78529270
Al       7.87002516       7.34619270       8.61166280
24
Properties=species:S:1:pos:R:3 config_type=qcd gap_pre_relax_energy=-71.71347348110181 gap_pred_energy=-71.98229815037844 gap_fmax_final=0.0008917480645747233 gap_converged=1 pbc="F F F"
Al      11.53890571      12.59416717       7.91467575
Al       9.30216125      12.69292711       9.41293009
Al      13.88841402      12.51076192       9.18874010
Al      12.56022373      10.25755627       8.84669564
Al       9.14124944      12.51518563       6.77119760
Al      11.73615340      12.99444637      10.63528099
Al       9.44870856      12.88283495      11.95123542
Al      10.05959564      10.34381516       8.04187601
Al      15.08213248      10.22168986       9.81439120
Al      13.23963560      10.98412016      11.54257929
Al      11.49022447      11.75494667      13.25844448
Al       7.46919901      11.01249228       8.23180723
Al      10.55782987      10.61301179      10.73608659
Al       9.38877445      12.63278425      14.66060537
Al       7.87739087      10.91745617      10.88207398
Al      13.33232980       8.41936465      10.65960829
Al      10.92216025       8.28678896       9.38542505
Al       7.26453460      12.07705391      13.18794895
Al       8.25155849       8.67866000       9.18626881
Al      11.58453494       9.11870952      12.66631412
Al       9.24669046      10.35415381      13.18109978
Al       9.23657124       8.35428281      11.64155765
Al      11.41595477       6.73971958      11.48017936
Al       9.22387249       6.30187655       9.98178382
24
Properties=species:S:1:pos:R:3 config_type=qcd gap_pre_relax_energy=-71.6664885506113 gap_pred_energy=-71.98612634562355 gap_fmax_final=0.0009172607202666707 gap_converged=1 pbc="F F F"
Al       6.76711452       7.34432611       8.28567649
Al       7.31467476       9.97264245       8.11759938
Al       8.22949449      12.57487037       8.53683011
Al       7.24574020      11.25620094      10.82151130
Al       9.31989361       8.15546906       8.07816014
Al       7.57895338       8.59457176      10.42868690
Al       7.89442353      11.91924348      13.38964650
Al       8.95866752       9.72746731      12.31643156
Al       9.71136011      10.45078363       6.90728797
Al       9.46195579      10.44574783       9.55257654
Al       8.77992625       6.02287271       9.48024733
Al       9.61267441      12.33929951      11.39976299
Al      12.33258141      12.66305595      11.80647946
Al      10.14167428       7.92783256      10.83435150
Al      10.33896630      13.00763192       6.94362346
Al      10.63330401      11.26635896      13.68567741
Al      11.22904087      12.42768930       9.36539997
Al      11.47068215       6.37382077       9.11389837
Al      11.63203249       9.14582845       8.78675900
Al      11.43187300       8.47417787      13.33779367
Al      11.47757819      10.23523481      11.31713462
Al      12.35650504      11.20689188       7.24968786
Al      12.95676314       7.98518781      10.86728040
Al      13.49030406      10.84897808       9.74368060
25
Properties=species:S:1:pos:R:3 config_type=qcd gap_pre_relax_energy=-74.97275869028594 gap_pred_energy=-75.18337935066906 gap_fmax_final=0.0009247213425228678 gap_converged=1 pbc="F F F"
Al       7.06858784      11.77927444      13.72877497
Al       6.58429032      11.73060233      11.10864661
Al       9.51139364      10.85921162      14.20711185
Al      10.56035592       8.85745113      12.68721300
Al       8.02064453       9.70656288      12.21555300
Al       9.09747882      12.56682358      12.06777441
Al       8.40576462      12.65487820       9.45753074
Al      12.07246070      10.15552337      14.44734655
Al      13.02472046       9.45917143      11.99130084
Al      11.68768400      11.82291145      12.45973342
Al       7.77341838       9.92803586       9.46921311
Al       9.16914641       7.91500394      10.72885160
Al      10.98505496      13.14224535      10.28818650
Al      10.42641372      10.47527027      10.43746967
Al       7.62496956       7.37491378       8.63348713
Al      13.19609598      11.55451842      10.28923057
Al      11.74174534       7.94976430       9.99783051
Al      10.23135848      13.97411761       7.92250922
Al       9.99546217      11.33298482       7.83633666
Al      10.01530574       6.22114856       8.86996098
Al       9.83258127       8.78418074       8.19841169
Al      14.21507648       9.00680248       9.69560304
Al      12.45446419      12.50443517       7.80137787
Al      12.22448504       9.77800862       7.99877937
Al      14.64538660      11.03050484       8.02611191
25
Properties=species:S:1:pos:R:3 config_type=qcd gap_pre_relax_energy=-75.28463476653498 gap_pred_energy=-75.42172649081164 gap_fmax_final=0.0008436219709477921 gap_converged=1 pbc="F F F"
Al       7.23008994      10.25119747      12.44241123
Al       6.86051090      11.09810800       9.98911410
Al       9.40000409       8.50699336      12.40021548
Al       7.94677446       8.50686500      10.22215636
Al       6.81051980      11.82111833       7.39778115
Al       9.63694878       6.34503907      10.45823606
Al       8.57754307       9.98246126       8.21111840
Al       9.49169698      10.98512688      13.59861568
Al       9.22143759       7.36454358       8.01924053
Al       9.70225430      10.91309470      10.80131576
Al       8.64246448      12.82419733       8.99574884
Al       8.34381397      12.93880918      11.91802977
Al      11.84199886       7.27141439      11.58123021
Al      11.65172608       9.81431501      12.43183221
Al      10.85506567       8.90911168       9.50938994
Al      11.46000513      12.46699683      12.58826738
Al      10.66560955      13.66496695      10.39241913
Al       9.18781036      11.60829255       6.22245681
Al      13.92869075       8.42228983      12.83143268
Al      10.62773230       9.34472295       6.65992178
Al      10.86137134      11.51694629       8.29376373
Al      12.46912446      11.46353932      10.28319652
Al      13.96563488      11.08902130      12.46610792
Al      13.59581115       9.02900131      10.29834025
Al      12.92230060       9.75876695       7.88459758
25
Properties=species:S:1:pos:R:3 config_type=qcd gap_pre_relax_energy=-75.05947858077869 gap_pred_energy=-75.27921940136453 gap_fmax_final=0.0009811628028037803 gap_converged=1 pbc="F F F"
Al       7.49226139       9.45029121       7.28758999
Al       9.21612607      11.24989055       8.47055310
Al      10.08482795       9.10649600       7.04649718
Al       6.85611606      10.64905157       9.55611464
Al      11.03705697      12.64144112       9.80795069
Al      11.76649275      10.97689157       7.91832782
Al       8.62948043      12.29547240      10.83135908
Al       6.36359254      11.45113424      12.00757660
Al      12.61904150       8.54512579       6.91186257
Al      14.28852988      10.20866276       8.04780766
Al      13.61776560      12.65253840       8.96149529
Al       8.89141506       8.52601402       9.41791554
Al      11.70417284       8.36851178       9.39943229
Al       8.55365738      11.54685113      13.44045105
Al      10.49790949      10.28460210      10.93834654
Al       8.10086545       9.41344431      11.86978880
Al      13.09253930      13.16857763      11.48416357
Al      13.12019613      10.46127361      10.40520706
Al       9.99478472       7.58103200      11.58731069
Al      10.60872210      12.90834448      12.43445357
Al      12.39215782       8.47526255      12.01013737
Al      12.70304945      13.31569422      14.10101812
Al      10.31113404       9.45856959      13.50225035
Al      12.60535350      10.87029008      13.02479271
Al      10.77075114      11.71253645      14.85559730
26
Properties=species:S:1:pos:R:3 config_type=qcd gap_pre_relax_energy=-78.05322844649734 gap_pred_energy=-78.61279345112305 gap_fmax_final=0.0008991683548839437 gap_converged=1 pbc="F F F"
Al      12.04255820      11.79979729      11.39258349
Al      14.22568698      10.26013574      11.81208399
Al      13.62845857      11.17451380       9.39111578
Al       9.92674411      13.39410927      10.93894041
Al      10.06440122      11.71812148      13.12091559
Al      13.00492746      11.85331640       6.96402587
Al      11.75669581       9.76881130      13.11546453
Al      12.21862674       9.17784515      10.40692016
Al      13.38943528       7.82787934      12.45580668
Al      11.57901352      13.05416219       8.99238286
Al       7.53760144      11.04192794      13.58964398
Al       8.21560673      13.60524929      12.97546382
Al      10.21749912      10.85938961       9.57915399
Al      10.89396883       7.24326882      11.78665278
Al       7.85455134      11.69353431      11.05939952
Al      10.38342117      11.93197278       6.88774517
Al       8.30208206      12.49243007       8.47834680
Al       9.42561692       9.46696104      11.80378408
Al      10.14454475       8.14374297       9.35959697
Al      11.76088238       9.55584421       7.75214912
Al       6.80281771       9.06205378      12.03724087
Al       7.78065774       9.59433504       9.60263095
Al       9.04108585       9.79359571       7.35080327
Al       7.94254976       7.36076635       8.11247098
Al       8.19421188       7.18707886      10.82777493
Al      10.24331948       7.51612232       6.78386853
26
Properties=species:S:1:pos:R:3 config_type=qcd gap_pre_relax_energy=-78.3659799054079 gap_pred_energy=-78.70184010036671 gap_fmax_final=0.0008888724735513457 gap_converged=1 pbc="F F F"
Al      10.44935829       7.16043062       8.97813579
Al       8.83811916       6.79996142      11.11797192
Al       9.04591321       8.06449066      13.46625049
Al      10.91686835       8.54031129      11.34769920
Al      11.36807093       9.74782271      13.66445411
Al      12.66217769       8.67022367       9.35691964
Al      13.16699757      10.03189359      11.68340392
Al      10.56793567      12.14818130      14.34816884
Al      11.53916025       8.49594569       6.95367367
Al       8.92277645       8.77837285       6.69442423
Al       7.78899684       8.02376266       8.91088404
Al       8.42741164       9.52049799      10.96424775
Al      14.56414179      10.48225067       9.40192858
Al      10.25366481       9.84987820       8.98549914
Al       8.53716612      10.74806244      13.27924591
Al      10.50123197      11.25535452      11.52852318
Al      12.50801249      10.85133227       7.68492248
Al      12.53507139      12.09462097      10.00530250
Al      12.65668350      12.44940301      12.64896423
Al      11.20935844      14.59495428      13.39492635
Al       7.87676536      10.80271598       8.33942938
Al      10.14370582      11.14157387       6.51031379
Al       8.04890226      12.18506581      10.61644844
Al       8.82942710      13.41877396      12.75152080
Al      10.12590486      12.51376108       8.74088772
Al      10.75586497      13.87004542      10.86554084
27
Properties=species:S:1:pos:R:3 config_type=qcd gap_pre_relax_energy=-81.72574355297526 gap_pred_energy=-82.02865448602667 gap_fmax_final=0.0009610287748233417 gap_converged=1 pbc="F F F"
Al       7.07152911      10.82702292      13.15759378
Al       9.72430358      10.59742682      13.39082312
Al      12.30964872      10.61095276      13.28255388
Al      14.97012727      10.58907148      12.97707527
Al       8.19476325      11.20523631      10.74263819
Al      11.07779577      10.99612834      10.82632058
Al      13.83319895      10.95328911      10.58761257
Al       9.56286811      11.40376940       8.45103272
Al      12.43569931      11.21766469       8.34201502
Al       8.30091644      13.12554808      12.73940397
Al       8.22195567       8.70572275      12.10473694
Al      10.98825458      12.94239222      12.91861528
Al      10.91773599       8.47159268      12.10581857
Al      13.67132486      12.84679625      12.55383842
Al      13.61955599       8.50202782      12.07805936
Al       9.75173540      13.41963991      10.41184324
Al       9.37002757       9.01453152       9.66267626
Al      12.58742853      13.29383884      10.05878882
Al      12.46152770       8.83651341       9.64323776
Al      10.95220274      13.67252637       7.91964460
Al      10.94536567       9.16479332       7.35295114
Al       9.60719205      15.44846366      12.26616752
Al       9.34672586       6.47381529      11.11778199
Al      12.31106818      15.07178354      12.02351038
Al      12.29786943       6.31693267      11.10136127
Al      11.03469285      15.74959325       9.69976073
Al      10.81021943       6.91865959       8.85987164
27
Properties=species:S:1:pos:R:3 config_type=qcd gap_pre_relax_energy=-81.24180728367263 gap_pred_energy=-81.65491223137388 gap_fmax_final=0.0007373373681750042 gap_converged=1 pbc="F F F"
Al       9.44605952       6.44626818       8.89594048
Al      10.01812999       8.92161394       8.21906968
Al       8.19741167      10.82590402       9.29583926
Al       8.61746918       8.42499125      10.41647184
Al       8.78588183      13.43910152       9.01789330
Al      10.34067855      11.39638939       7.69631291
Al      12.81173940      12.45064077       7.62610373
Al      11.18218141       7.76868190      10.37523326
Al      10.70940754      14.00876573       7.29969423
Al      12.56213151       9.59663927       8.74483963
Al       6.95395836      12.65180479      10.85701047
Al       7.85457327      10.32564957      11.92298217
Al      14.81064837      10.81024387       7.91314331
Al      10.58703171      10.49263926      10.46235289
Al      15.15935495       9.79544842      10.30205550
Al       7.33720505      12.41387730      13.50118076
Al      12.81573386       9.41021730      11.48088044
Al      10.11299009       8.78874261      12.67752016
Al       8.04692255      10.01830434      14.53876451
Al      13.62787891      11.93227083      10.12260646
Al      12.00197193      12.18439996      12.09979038
Al      11.37948213      13.28856444       9.77276558
Al       9.48114014      12.75619333      11.51349053
Al      14.62146564      11.03280003      12.62904762
Al      10.03130302      11.55874884      13.73636217
Al      12.44045092      10.34109508      13.97177823
Al      10.44380248       9.29700804      15.28787441
28
Properties=species:S:1:pos:R:3 config_type=qcd gap_pre_relax_energy=-85.21263753585659 gap_pred_energy=-85.46542258657323 gap_fmax_final=0.0007577620328334932 gap_converged=1 pbc="F F F"
Al       7.74796975      12.03559433      14.14633150
Al       9.74743049      10.18700825      14.18928930
Al      11.70363814       8.41590488      14.33385964
Al      10.05261149       8.14962871      12.25391664
Al       8.11808690      10.04631881      12.07196739
Al       6.37206639      12.03097711      11.74608252
Al       8.61220433       8.24816391      10.09528218
Al       6.73691436      10.23875992       9.75894852
Al       7.20778027       8.49263824       7.83633887
Al       7.98550269      14.22955773      12.21104562
Al      12.86253007       7.92705724      12.00970720
Al       9.86453242      12.19839534      12.36480401
Al      12.07138799      10.51116418      12.68781789
Al      11.27446748       7.75226624       9.86331961
Al      14.14343025       7.38910813       9.66696283
Al      10.18680206      14.24675194      10.60746969
Al       8.37056183      12.37368954      10.01891749
Al       8.86550290      10.57652758       8.04191554
Al       9.79507861       8.01868711       7.61873751
Al      10.33886840      10.37345266      10.35579520
Al      13.04346734       9.88853643      10.14050888
Al      12.45940051       7.60925289       7.48303602
Al      11.52790948      10.08240437       7.80890688
Al      12.28126560      12.44561166      10.98294429
Al      12.35007766      14.35892717       9.09362623
Al      14.38191078       9.58346501       7.73268354
Al      10.53028626      12.54071822       8.38148813
Al      13.30312719      11.98424403       8.43310853
28
Properties=species:S:1:pos:R:3 config_type=qcd gap_pre_relax_energy=-84.8363238357624 gap_pred_energy=-85.07020958553149 gap_fmax_final=0.0009900309049864894 gap_converged=1 pbc="F F F"
Al       9.42001515      14.31025790      13.09490926
Al      11.41487054      12.78110830      13.71376203
Al      13.45842517      11.28350716      14.41999349
Al       9.07773270      11.66280563      12.85288409
Al      11.23248338      10.09085532      13.36695037
Al      14.28535072       7.20275989      11.27002668
Al       8.00466686      13.71242970      10.98445211
Al       9.07401516       9.07719765      12.34617338
Al      11.46670098       7.88512789      11.81443825
Al      10.95294502      13.39799286      11.09389399
Al       7.80540206      11.06472497      10.62293836
Al      12.94656719      11.67817723      11.75934519
Al       8.94236953       6.58106782      11.66026150
Al      13.70134327       9.27978599      12.69816700
Al       9.49472276      12.63335173       9.03490524
Al       7.51022846       8.41864965      10.17421088
Al      10.70219621      10.42282943      10.62586456
Al       6.79152033      12.81091121       8.79628224
Al      12.35552230      12.11183199       9.27153046
Al       6.42597462      10.15794307       8.45973339
Al      10.01181892       7.72888487       9.54860405
Al      13.44214194       9.71109865       9.96638215
Al      12.56360199       7.07830557       9.30555309
Al       8.25572271      11.84804328       6.74274498
Al       9.09759647       9.96365392       8.45029281
Al      13.54588934      10.83741305       7.35340811
Al      11.60740207       9.20428219       8.05646491
Al      10.89901183      11.55124080       7.00206511
29
Properties=species:S:1:pos:R:3 config_type=qcd gap_pre_relax_energy=-88.16305572082453 gap_pred_energy=-88.44268680402662 gap_fmax_final=0.0008705984820564304 gap_converged=1 pbc="F F F"
Al      11.45355334      11.81134548       7.80159315
Al      11.85160292       9.29733935       8.47260515
Al       9.28957232      10.40554013       7.72509357
Al       9.12189169      12.65527159       9.25108147
Al      13.78998676      11.10776661       9.18764832
Al      11.52675310      13.51862377       9.73317350
Al       7.17705599       8.78861274       7.74485553
Al      12.09581531       6.61119550       8.32518998
Al       9.65277880       7.74618139       8.04247706
Al       6.97851615      11.05869512       9.17645188
Al      14.31907594       8.37204598       8.89811436
Al       6.97533588      13.59614046      10.63000313
Al      10.68484947      10.72329408      10.46607079
Al      14.16006859      13.63608175       9.97157847
Al       8.29438205       8.88571279      10.16937615
Al       9.45309036      14.69161608      11.15421935
Al      10.73594101       7.68564441      10.47292220
Al       8.28576317      11.32474959      11.54987266
Al      13.24080795       6.63791717      10.86992301
Al      12.32389961      14.76845944      11.90172653
Al      12.93825545       9.32362882      11.04896595
Al      13.04253433      12.06518346      11.76187478
Al      10.54078506      12.69681764      12.42531843
Al       9.22108104       8.94386851      12.56792624
Al       7.89825316      13.42597377      13.29047988
Al      11.80000610      10.46525846      13.34956318
Al      11.73688410       7.81072219      12.94151963
Al       9.23392639      11.24839598      14.28649683
Al      10.37987460       8.90025839      14.98621946
29
Properties=species:S:1:pos:R:3 config_type=qcd gap_pre_relax_energy=-88.46439398527957 gap_pred_energy=-88.75979352099516 gap_fmax_final=0.0009596157011403463 gap_converged=1 pbc="F F F"
Al      11.45460195       7.43469715       9.00586801
Al      13.98236757       8.34385606       9.14295156
Al      14.53912942       9.26882332      11.60262932
Al      11.79640710       9.52854237       7.27527035
Al      12.18692647       7.98878574      11.43606419
Al       9.26322475       8.33807753       7.70053967
Al      14.28333279      10.44562650       7.46293438
Al       9.89099494       8.95652141      10.50719415
Al      12.20022614      10.15679006       9.84457238
Al       9.94262067      10.93001197       8.57589949
Al      14.49513454      11.41968916       9.98730203
Al      12.34778635      12.14817494       7.97127330
Al      13.09608894       8.78803866      13.81895847
Al      10.59507720       9.38152279      13.05908955
Al      12.80717813      11.14960944      12.27628270
Al       8.22117904      10.12349860      12.19934271
Al      11.96375315      10.93600266      14.82269032
Al       7.61628054       9.71104700       9.33976051
Al      12.42842122      13.05976732      10.49450359
Al      10.33108251      13.62465072       8.78910571
Al      10.26010547      11.62699097      11.19854422
Al       8.11723975      12.51822056       9.72157408
Al       9.55353192      11.64276629      13.94041607
Al      11.66930192      13.41644835      12.95779116
Al       6.13415805      11.20904511      10.95581895
Al       9.85660179      14.41537575      11.22788557
Al      10.99583016      13.30128804      15.50434637
Al       7.74113696      12.79469379      12.34346032
Al       9.24139485      14.35255207      13.84904521
30
Properties=species:S:1:pos:R:3 config_type=qcd gap_pre_relax_energy=-92.05058266412912 gap_pred_energy=-92.26860780656567 gap_fmax_final=0.0008887164572022248 gap_converged=1 pbc="F F F"
Al       8.24027290      10.89599022       9.13825913
Al       6.68120051      11.33374154      11.19800834
Al       7.02846643      13.29148757       9.03409136
Al       8.13954625       9.13496663      11.28203491
Al       9.54094248      10.18902954       6.93768098
Al       8.15494128      13.71861626      11.42480177
Al       9.54463491      11.36718093      11.47841411
Al       7.94711958      10.98155026      13.54759180
Al       8.67998382      12.76688346       6.94626216
Al       9.18791356      13.40693819      13.79926210
Al       9.69991478       8.98805617      13.46659027
Al       9.38081000       6.78058717      11.36812618
Al      10.98116830      11.52836603      13.75801892
Al       9.83094809      13.19399636       9.39890839
Al      11.56640752       7.11817282      13.08901896
Al      10.45221113       6.06330971       8.77453427
Al      11.03309490      13.51332093      11.86229145
Al      12.27496109       6.44992824      10.65876402
Al      10.96537622       8.92243343      11.14643881
Al      12.58762380      13.21231294       9.67506542
Al       9.27696017       8.43639331       8.96264663
Al      10.91538705      10.75395954       9.24903152
Al      12.58306855       9.50263752      13.55081320
Al      11.44482379      12.51162715       7.30663693
Al      12.39356225      11.15944353      11.43374333
Al      12.18991153       8.38608621       8.82239026
Al      13.66129259       8.71160702      11.22539713
Al      13.58749569      10.82055761       8.95695827
Al      12.27437565      10.03048135       6.73492433
Al      10.64213681       7.71688994       6.65984664
30
Properties=species:S:1:pos:R:3 config_type=qcd gap_pre_relax_energy=-91.879987977588 gap_pred_energy=-92.27404055260945 gap_fmax_final=0.0009524122377301543 gap_converged=1 pbc="F F F"
Al      10.73334942      14.66218730      12.59295626
Al      10.86223741      14.80984137       9.59613472
Al       9.62201193       8.17525685      14.22399612
Al       8.72838008       8.35807584      11.76347592
Al      13.01054966       8.57624824       8.52544155
Al      11.48873142      10.43297382       6.70535961
Al      11.14461399      10.13264588      15.08667139
Al      12.54935775       8.19878788      13.85963992
Al      10.34344374       8.21448313       7.42701643
Al       8.75839167      13.05966400       9.41290910
Al      13.17404051      13.08111852      12.37001004
Al       8.61549865      12.92114090      12.43423885
Al      13.21646334      13.34723880       9.72797570
Al      10.90823502       6.76447213      12.39454076
Al      10.70916849       7.31386024       9.86812670
Al      13.51659346      11.25209287       8.17708613
Al       8.64345448      10.50666318      13.47043999
Al      13.23002430      10.68745818      13.41913424
Al       8.96114695      10.87582630       7.86360637
Al      10.95210851      12.29709332      13.70512628
Al      11.11411224      12.58288664       8.18808610
Al      12.83233919       8.36302414      11.20627691
Al       8.40311044       8.65557954       9.19848851
Al       8.73959165      10.80025528      10.79132104
Al      13.28329907      10.89031630      10.76492370
Al      10.98444297      10.03066374       9.51548186
Al      10.91796181       9.81061282      12.30345651
Al      10.93287071      12.42792512      10.98615969
Al      12.93730523      15.48622687      11.26380689
Al       8.55436094      15.15257580      11.02530768
31
Properties=species:S:1:pos:R:3 config_type=qcd gap_pre_relax_energy=-95.16506668909531 gap_pred_energy=-95.5814497676778 gap_fmax_final=0.0009828874158325429 gap_converged=1 pbc="F F F"
Al      11.43097588       7.30666419      12.23717741
Al      11.18025319       9.49532359      14.57473186
Al       9.18010018      10.66256694       6.83658193
Al       8.81628898      12.43376544       8.82032299
Al      13.17150127      14.06445473      10.27561935
Al      10.11944933      14.46369496      13.33928307
Al      10.78180000       8.56737359       7.30764192
Al      12.15547382      10.64918005       6.49599857
Al      11.14027832      15.51757543      11.19749951
Al       8.75296247      10.07928216      13.45001985
Al      13.42651923       8.82736233      11.17668293
Al       8.91174964       8.33101132      11.42144239
Al      13.14645117      10.85612762      13.31326662
Al      10.67053835      12.81020837       6.78179915
Al      10.80098885      14.30977171       8.88739256
Al      12.73420977      13.46947151      12.82015874
Al       8.73712068       9.22194272       8.97905253
Al      13.23538528       9.67410468       8.70328465
Al       8.26610067      12.61799589      12.98606282
Al      11.14441683       8.09925285       9.80570005
Al      10.74717451      11.97548636      13.92806089
Al      12.93589180      12.37878588       8.30856263
Al       8.54654338      14.26224898      10.79029191
Al       8.55707550      10.96487797      10.96870336
Al      13.05214188      11.41615165      10.75079724
Al      10.71494109      12.70790116      11.12101767
Al      10.88423514      10.82433813       8.99586177
Al      11.00232398       9.99753338      11.82485018
Al      13.54131755       8.25316177      13.74292526
Al       9.24823788       7.53311958      13.90800901
Al      11.59893636       6.86064803      14.88258418
31
Properties=species:S:1:pos:R:3 config_type=qcd gap_pre_relax_energy=-95.27448653949983 gap_pred_energy=-95.60437488754613 gap_fmax_final=0.0008017323614962011 gap_converged=1 pbc="F F F"
Al      12.55342904      13.97160429      10.83168060
Al      14.06814647      11.97598192      10.05670736
Al      13.22137955      12.83811534      13.20662310
Al       9.99612589      14.03172552      10.07273321
Al      11.73968113      12.51605025       8.75745531
Al      14.77851403      10.79017420      12.39651635
Al      10.69707046      13.62929033      12.66356076
Al       9.08116332      12.03909025       8.46549750
Al      10.78115241      11.00130153       6.82551145
Al      13.17568682      10.42340601       7.91830463
Al       7.41087803      13.58010312       9.67696233
Al      11.77297766      11.30562722      11.54887175
Al      13.57834976       9.36108066      10.49892400
Al       8.24984497      14.24847428      12.12797423
Al      11.12990866      11.86782046      14.58079322
Al      11.04788459       9.89275948       9.46793977
Al      10.87146448       8.39570474       7.05452567
Al      12.98624773       7.80019936       8.46607097
Al       9.10377496      11.75188545      11.16461804
Al      12.51664314       9.83454392      13.73239260
Al       6.33175058      12.38102740      11.78998725
Al       8.60831468      12.19711645      13.79107035
Al      14.17161737       7.98077417      12.78953422
Al      11.36841462       8.28780856      11.78274902
Al       8.71642413       9.31331231       8.28358976
Al      13.10156600       6.52344029      10.79814966
Al       7.10115904      10.64045355       9.87353582
Al      10.42239728       7.25196458       9.49121731
Al       9.90332355       9.95856229      13.16680727
Al       8.90039879       8.84492328      10.91541401
Al       7.38808470      10.13945267      12.57805635
32
Properties=species:S:1:pos:R:3 config_type=qcd gap_pre_relax_energy=-98.47441690962432 gap_pred_energy=-98.77234912403156 gap_fmax_final=0.0008625822658772961 gap_converged=1 pbc="F F F"
Al      10.65505833       7.44649279      12.86671655
Al      10.38843348      10.19117971      14.70309445
Al       8.75178644       8.85562571       6.32615485
Al       8.56297669      11.04325198       7.88343860
Al      13.00250726      13.38648956       9.53089426
Al      10.43066386      14.86537786      12.33769723
Al      10.91037540       7.83824572       7.66442770
Al      13.09342664       9.08936012       6.55236022
Al      10.51118099      15.00735024       9.34742347
Al       8.24343707      10.82224310      13.13153675
Al      12.97144474       8.55017555      11.76703586
Al       8.22125911       8.53940415      11.53926987
Al      12.73103185      11.07781782      13.46877233
Al      10.85792566      10.61370228       6.44213748
Al      10.80338489      12.74000062       7.98869079
Al      12.91453955      13.34392540      12.20188018
Al       8.57512892       8.44928238       8.94532646
Al      13.08321455       8.54988269       9.14522351
Al       8.34035643      13.24584073      11.94925477
Al      10.78258554       7.66105169      10.29498571
Al      10.39633477      12.52379129      13.55415953
Al      13.13407000      11.16396249       8.19392020
Al       8.48177046      13.30003420       9.28768065
Al       8.41691703      10.98660045      10.52773638
Al      12.94856180      11.04378789      10.83652045
Al      10.69282171      12.64500300      10.76193569
Al      10.79728501      10.15335298       9.15640222
Al      10.61285777      10.05334112      11.93133130
Al      12.63131792       8.61965999      14.39217942
Al       8.38356110       8.35185361      14.16072993
Al      10.48609677       7.61473707      15.61771475
Al      12.59122424      15.63071180      10.89690444
32
Properties=species:S:1:pos:R:3 config_type=qcd gap_pre_relax_energy=-98.48777145424947 gap_pred_energy=-98.95977902335255 gap_fmax_final=0.0009922309061330683 gap_converged=1 pbc="F F F"
Al      12.79850182       6.89905118       9.62296120
Al      10.25907910       7.80383171       9.96416731
Al      14.59203221       7.76234549      11.47144493
Al       9.30875931       9.18007289       7.87139012
Al      12.04647556       8.40440590      11.89788771
Al      13.77955316       9.12501440      13.83078496
Al      11.93594031       8.97985451       7.86859622
Al       8.15378472       9.49481442      10.24266085
Al       9.83546068       9.62876668      12.35958178
Al      11.54235331      10.38189735      14.29235377
Al      13.49995441       9.66561734       9.86498409
Al       7.34400012      10.34341130      12.59532356
Al      10.72564456      10.52948059       9.94768062
Al      15.21685517      10.31702310      11.87921189
Al       7.74845447      11.29652184       8.03917087
Al       9.16222908      11.49366273      14.22760556
Al      12.49312378      11.16012257      11.88933854
Al      15.69591404      12.88202148      12.45069285
Al      10.58481901      11.58867235       7.43268891
Al      13.25110461      11.53438049       7.81657779
Al       9.51878324      12.18975863      11.72399800
Al       7.06905189      12.16991483      10.41958521
Al      11.91687347      12.96685121       9.77321271
Al       7.02593607      12.89012671      13.00643444
Al      14.41760866      12.19669655      10.16213130
Al      13.83124504      11.85943208      14.12689265
Al      11.49061298      13.03482510      13.74200489
Al       9.35748126      13.13422846       9.22615566
Al       9.18709022      14.20092320      13.67940998
Al      13.27576249      13.83359584      11.91018660
Al      10.79870379      14.63350286      11.57528741
Al       8.20089435      14.48325911      11.15368050
33
Properties=species:S:1:pos:R:3 config_type=qcd gap_pre_relax_energy=-101.96585185481888 gap_pred_energy=-102.29493049590437 gap_fmax_final=0.0008419795236000201 gap_converged=1 pbc="F F F"
Al       8.51900304      10.73691618       7.79838255
Al       7.26028363      10.03816668      10.01470092
Al       9.91090492      11.55375360       5.63757820
Al       8.04650188       7.77086787      11.21625261
Al       9.54632625       8.72365488       9.33621784
Al       6.80408189       9.36388951      12.97707341
Al      11.07710573       9.75873089       7.41444434
Al      10.67750786       7.72704817      11.57707456
Al      12.15635140       8.29244384       9.38425502
Al      10.14662519      12.93883654       8.02397903
Al       8.69476977      12.33196530      10.16927918
Al       6.93035694      11.78401247      12.02737958
Al       9.35891964      10.19114556      11.73101445
Al      11.18160405      11.02827089       9.80910012
Al       9.06271907       8.17757555      13.68472295
Al      12.33457457      12.14097890       6.61495759
Al      13.47695130      10.48817006       8.40121973
Al      14.68350618       8.80217795      10.06970260
Al       8.68667877      10.82108014      14.24954672
Al      12.71638498       9.37328951      11.78081889
Al      11.10237934       9.73316205      13.83238129
Al      12.98884064      13.18917076       8.96247566
Al      10.80134950      13.92612704      10.36533417
Al       9.02658164      13.09188905      12.80929516
Al      13.97815881      11.51068824      10.79400317
Al      11.55985542      11.96247921      12.19580790
Al      15.37834094       9.91440302      12.34464127
Al      10.84376859      12.29580991      14.74228203
Al      13.40318985      10.87630644      13.84755779
Al      13.30396743      13.98945899      11.47394646
Al      11.12853106      14.58275577      12.89037615
Al      15.27561796      12.57607130      12.86542437
Al      13.14276203      13.51320396      14.16327453
33
Properties=species:S:1:pos:R:3 config_type=qcd gap_pre_relax_energy=-102.19851973946743 gap_pred_energy=-102.62405732332303 gap_fmax_final=0.0008903167494532661 gap_converged=1 pbc="F F F"
Al      11.46641375      16.12025864       9.96500753
Al       9.79787302      14.47637641      11.15172802
Al      12.46342138      14.30471768      11.69330801
Al      10.64417349      13.90180231       8.65808211
Al       7.96271145      12.99235280      12.42808146
Al      10.65607967      13.01956539      13.17915187
Al      13.34218431      14.52363354       9.05000473
Al       8.71337955      12.48077470       9.83087810
Al      12.70718773      12.14128038       8.14515498
Al      11.35817211      12.12965660      10.56629423
Al      13.15449002      12.09576325      12.92858337
Al       8.92462289      11.59152632      14.55117111
Al      10.09772046      11.48318526       7.80384294
Al       6.83964723      11.03757378      10.90539478
Al       9.47838299      10.92243428      11.94528156
Al      11.36506245      10.70667696      14.36521972
Al      14.07932341      12.41240912      10.42832687
Al      13.79232638       9.76413737      14.01536613
Al       7.26611439      10.00261024      13.26695291
Al      11.99039701       9.92741121      11.93947546
Al       8.05020838      10.04737105       8.80507812
Al      14.82976475      10.25137376      11.67160700
Al      10.55687779       9.73521839       9.72550426
Al       9.70084179       8.92435487       7.10993910
Al      12.15647551       9.76751383       7.24195536
Al      13.31009339       9.84782213       9.58638240
Al       9.63394582       8.82514230      13.52102632
Al      12.03800023       7.80638253      13.70289317
Al       8.28395128       8.67355658      11.20623406
Al      10.81219638       7.55507655      11.35979880
Al       9.28739459       7.33287679       9.20154460
Al      13.56478691       7.86488941      11.46193565
Al      11.95577870       7.61427471       8.86879448
34
Properties=species:S:1:pos:R:3 config_type=qcd gap_pre_relax_energy=-105.51692175831775 gap_pred_energy=-105.91567217274972 gap_fmax_final=0.000977626019575059 gap_converged=1 pbc="F F F"
Al      13.42373095      11.70081312       6.13494018
Al      11.24303706      10.43145423       7.10389111
Al      11.30354681      13.16930511       6.56985016
Al      10.74348645      13.98418149       9.01392378
Al       9.22768476      12.14306566       7.83005976
Al      13.68055474      10.14847156       8.22660203
Al       8.62074691      12.89395555      10.43699126
Al       9.18315112       9.51994335       8.42401157
Al      13.16661517      12.76823970       8.60617352
Al      12.49334933      13.53818009      11.00857299
Al      11.14227599      11.32501677       9.64300876
Al       7.12331935      11.23941329       9.04661843
Al      10.10275960      14.85454262      11.37117356
Al      11.60284368       8.64631923       9.07247575
Al       9.05284235      10.29439231      10.97432477
Al       7.10403661       8.75126353       9.85163536
Al      13.69918984      11.19637892      10.71291703
Al       6.72886571      11.37504762      11.70135331
Al       9.47255835       7.75020497      10.41468556
Al      10.54787687      12.10639828      12.13974593
Al      13.98051150       8.58831674      10.26860066
Al       8.51418751      13.53895938      13.09344008
Al      11.68160472       9.61851063      11.59752210
Al      11.64727981      14.26473498      13.39744384
Al       7.25837162       8.83494798      12.48869232
Al      11.84203902       6.98465569      11.16396343
Al      12.98166099      12.00850014      13.15538129
Al       8.62480886      10.83867517      13.62656159
Al       9.76984718       8.37992960      12.98404988
Al      14.02996054       9.64441056      12.87081088
Al      10.30270505      12.52284003      14.86032906
Al      14.29721848       6.99316038      12.33039788
Al      11.28828504      10.21997022      14.16648746
Al      12.18927704       7.79603015      13.78359374
34
Properties=species:S:1:pos:R:3 config_type=qcd gap_pre_relax_energy=-105.5183339200732 gap_pred_energy=-105.87514111364194 gap_fmax_final=0.0009269859821867493 gap_converged=1 pbc="F F F"
Al      14.10271800      12.54080177       9.65682346
Al       8.88342861       7.98378723       7.01455079
Al       9.75154605       9.94570999      11.86492530
Al       9.82227502      10.29564734      14.55921632
Al       9.27449364      14.41684561       8.82039329
Al      10.65696763       6.87685939       8.73211625
Al       7.43292768      11.31779943      13.16522039
Al      10.01896840      12.17166906       7.58667449
Al      14.34907121      11.69516222      12.15533585
Al      10.73452262       9.96770147       6.30994606
Al       7.43805532      10.72112059      10.50472084
Al       7.70692131      13.34599776      11.33914270
Al       7.99896230      10.32258325       7.75990139
Al       9.84930427      12.50320144      12.92987352
Al      12.18710206      10.81110452      10.68934775
Al      11.69188350       8.28920550      13.07905735
Al      12.22197691      13.21300830      11.82048725
Al       9.75530955      12.09467224      10.22792132
Al      12.51006288      11.19783431       8.00194622
Al      10.44659556       9.63358683       8.99176559
Al      10.07257949      14.62337994      11.33807791
Al      12.06080271      10.99617012      13.33537390
Al       8.11353844       8.24023151       9.52066568
Al       9.25431495       7.66615206      13.77036366
Al       7.31628487      12.67406891       8.72119407
Al      14.02828125       9.09159316      12.17528071
Al      11.72761322      13.52064857       9.16656694
Al       7.36101745       8.54463712      12.04863585
Al       9.94068132       7.25063329      11.26130347
Al      12.37984175       8.13287809      10.33869318
Al      11.27312874       7.26945430       6.06414374
Al      12.91324367       8.54382511       7.69654961
Al      14.39789065       9.86953734       9.58376618
Al       7.29333297       9.19813623      14.73566292
35
Properties=species:S:1:pos:R:3 config_type=qcd gap_pre_relax_energy=-108.89152897328435 gap_pred_energy=-109.28755900763097 gap_fmax_final=0.0009252140004445721 gap_converged=1 pbc="F F F"
Al      11.85613223      11.33755270       6.76790992
Al      12.74829964      13.89524824       6.88150271
Al      11.50447749       9.20115449       8.22919103
Al       9.56007250      11.04922350       8.13292766
Al      10.45835012      13.59825113       8.11826143
Al      11.13332790       6.93540872       9.46739259
Al       9.21626809       8.73776967       9.51402175
Al      14.32434371      12.15078376       8.12638365
Al       7.41213363      10.61255222       9.61214845
Al       8.07672367      13.33508494       9.12072738
Al      13.81981427       9.90419562       9.38004313
Al      13.84728502       7.57309469      10.57803839
Al       5.74730694      12.62822685      10.14216198
Al      11.83403143      11.67050334       9.43672432
Al      12.71666922      14.19948324       9.55974057
Al      12.18234394       5.80232531      11.69627761
Al      11.64979055       9.14564238      10.89409022
Al       9.62188320      11.11939187      11.07579516
Al       7.80787892      13.10378489      11.79208038
Al       8.07007310       9.05702536      11.95108434
Al      11.97648077      11.62329673      12.11816244
Al      14.21665552      12.21756484      10.74247188
Al      10.34770795       9.68462085      13.22587539
Al      10.41577851      13.63802964      10.76949182
Al      10.02278316       7.32051793      12.05327972
Al       6.15165254      10.87014229      12.05219500
Al      14.06932289       9.78575486      12.06831796
Al      12.39643767       7.96034015      13.22146251
Al       9.96923540      13.16610241      13.27243201
Al      12.65782841      14.25561178      12.24461635
Al       8.20611845      11.15299556      13.67569794
Al      12.24697282      13.01825246      14.59074346
Al      14.35316762      12.08182784      13.33052396
Al      10.26048844      11.36361594      15.29194776
Al      12.63803896      10.32049845      14.38215375
35
Properties=species:S:1:pos:R:3 config_type=qcd gap_pre_relax_energy=-108.69513014115243 gap_pred_energy=-109.12077185008164 gap_fmax_final=0.0008434165457757709 gap_converged=1 pbc="F F F"
Al      14.65417127      12.06543661      12.66149960
Al      12.73001405      13.98108040      12.44273709
Al      13.23916107      12.31870037      14.83876812
Al      14.14449392       9.90378837      11.29890320
Al      13.38012794      12.34163286      10.38336811
Al      13.72658453       8.13999570       9.45133319
Al      11.91843183      14.83263508      10.07514712
Al      12.35479265      12.96934454       8.01255333
Al      10.83162985      13.37292259      14.25982288
Al      11.74206334      11.49107001      12.41329873
Al      13.20720545       9.78725524      13.85246453
Al      12.97176867      10.47830302       8.52127020
Al      12.74453873       7.75378436      12.21105264
Al      10.14514438      13.62078578      11.77123672
Al      11.09737688      15.34838771       7.59082740
Al      11.08546687      10.86193715      15.16332224
Al       9.42278287      14.00542509       9.21055103
Al      10.03985960      13.13259528       6.59806657
Al      11.51225733       9.30590456      10.46904574
Al      10.71954075      11.70951390       9.83985492
Al      11.81714783       6.44139028      10.08374949
Al      10.68335749       9.15762083      13.26958700
Al      11.50385971       8.20800423       7.98573502
Al       9.04561188      11.44780721      13.53529809
Al      10.67754729      10.59059357       7.09819221
Al       7.99753384      12.47233042      10.81364991
Al       9.13637257      10.09372838      11.27829020
Al       8.44747634      11.71982157       8.17861353
Al       9.84213010       7.46670015      11.50398813
Al       9.37672444       6.58609091       8.97552881
Al       8.08614699       8.52209187      13.23123349
Al       9.17961844       9.20881366       8.84771877
Al       6.77465151      10.66831120      12.33602899
Al       6.78423670      10.40107826       9.67453243
Al       7.44227044       8.05721640      10.58482807
36
Properties=species:S:1:pos:R:3 config_type=qcd gap_pre_relax_energy=-112.21842576889331 gap_pred_energy=-112.54899567742466 gap_fmax_final=0.0009870749251198372 gap_converged=1 pbc="F F F"
Al      16.01934574      10.85495219       8.48316791
Al      14.85931097       9.28456486      10.22971427
Al      13.68990784       8.09241827      12.22296546
Al      12.40081442       6.64430625      13.99469339
Al      13.52533496       9.97380966       7.76400365
Al      12.34572429       8.38086198       9.82207718
Al      10.95831148       6.97501309      11.72546392
Al      10.94584118      10.07517786       8.22246004
Al       9.66932082       8.62131582      10.14325031
Al       8.32229833       9.94115099       8.32761230
Al      15.22479220      12.16544451      10.72296008
Al      12.80763842       9.28316869      14.48657687
Al      13.86225238      10.73344756      12.49027091
Al      14.16604895      12.76061745       8.26666092
Al      11.56582411      12.75489718       8.20971644
Al      10.24348757       8.21244554      14.29084178
Al      12.74239625      11.18291345      10.07814163
Al      11.40248542       9.63935629      12.15426942
Al      14.01036574      13.38722497      12.70814403
Al       9.74338780      11.33642883      10.32193645
Al      12.92071974      13.96493291      10.21699030
Al       8.74298954       9.45417114      12.56370525
Al      12.79957623      11.90209917      14.65261144
Al       8.98326661      12.60577944       7.97331851
Al      11.44454639      12.38566231      12.21457890
Al      10.22247950      10.82875944      14.36868488
Al       7.14138857      10.48337046      10.79019350
Al      10.26072246      14.00211212      10.17213021
Al       6.45887268      11.95555586       8.64144604
Al       8.61014696      12.11517420      12.68058399
Al      12.59294897      14.55696485      14.61690107
Al      11.66903480      15.19188112      12.12869400
Al       7.74456374      13.33737805      10.51988715
Al      10.13241375      13.40907622      14.49583302
Al       8.85848960      14.87998367      12.44483660
Al      10.37271425      16.08734622      14.31444081
36
Properties=species:S:1:pos:R:3 config_type=qcd gap_pre_relax_energy=-112.10860244695574 gap_pred_energy=-112.50915622912078 gap_fmax_final=0.0008055159645748835 gap_converged=1 pbc="F F F"
Al      11.01447899       8.30484124      14.30759952
Al      13.28695007       8.53970256      12.87235953
Al      12.37886697      10.61187038      14.24627839
Al      14.33497262       8.96556233      10.43050760
Al      11.89507175       6.23535349      12.91424001
Al      13.95088570      10.96992317      12.12467837
Al      13.83812674      12.73763910      14.03688611
Al      11.99719743       7.69153328      10.69797343
Al      14.58064120       9.64555184       7.90583141
Al       9.79257828      10.50985806      15.03381640
Al      14.47324234      11.65810645       9.63621740
Al      14.11191991      13.59013334      11.51137009
Al      12.16098628       8.47147139       8.19414037
Al      10.93685319      12.88602475      14.66900875
Al      10.91305674       9.94339335      12.17452493
Al      12.18971804      10.41758980       9.93132575
Al       9.61278664       7.29370075      11.90648001
Al      12.39141713      14.87728936      13.68287621
Al       8.38816375       9.37894398      13.04528875
Al      12.74351622      11.50580095       7.55870352
Al      12.28431635      13.14657467       9.58773013
Al      12.04659778      15.24206686      11.12447709
Al       9.96342182      14.42844755      12.70097020
Al      11.79516976      12.54481596      12.17091534
Al       9.87999857       9.03801458       9.89303518
Al       9.96043159      11.76700923      10.29757004
Al       9.21059455      11.92317506      12.90505508
Al       7.19450515       8.23713990      10.72135876
Al      10.35755375      10.33136066       7.66082197
Al      10.48721050      13.01596288       7.60571148
Al       9.94445395      14.43060916       9.79626830
Al       7.81142064      10.07488449       8.58787364
Al       7.44838596      11.00769209      11.08893282
Al       7.88829749      13.61016328      11.32461116
Al       8.39944906      11.69368232       6.51318583
Al       7.98926685      12.92661542       8.79388014
37
Properties=species:S:1:pos:R:3 config_type=qcd gap_pre_relax_energy=-115.35511436884467 gap_pred_energy=-115.71173099175414 gap_fmax_final=0.0009469846127081953 gap_converged=1 pbc="F F F"
Al      11.77934124       8.57690306       8.73343309
Al      12.14970936       6.71459823      10.55621227
Al      11.49968760      10.70740780       7.20694062
Al      13.86095105       8.65653744      10.85553094
Al      10.76879241      12.95662348       5.80923358
Al       8.89605812      11.62352612       7.15508732
Al      13.22818780      10.79496293       9.30777644
Al      12.60967462      13.19006152       7.69094295
Al      10.00314017      13.92570283       8.24254910
Al      12.14402289       7.58895849      13.24523633
Al      15.31012169      10.82761611      11.08491643
Al      14.39312608      13.26550280       9.57871710
Al      10.74158169      11.75869531       9.68352231
Al       9.18769413       9.46134193       8.62140439
Al      16.26776203      13.27886188      11.45283074
Al      12.74763753      12.09407839      11.61759142
Al      13.87544461      14.58006548      11.90091563
Al       9.56379776       7.55860247      10.43391086
Al      11.30208514       9.47334458      11.47712302
Al       7.99541756      12.05228400       9.57208186
Al      14.80930003      12.13350596      13.45169345
Al      10.42914767       5.68449116      12.31850003
Al       9.47343877      13.98679501      10.79600842
Al      13.44672963       9.83215159      13.29107818
Al      11.96911607      14.39653961      10.02712006
Al       8.68659686       9.98254140      11.18331416
Al      13.62415054      14.47262258      14.60617959
Al      10.10627253      11.84580944      12.52112665
Al       9.35745804       7.92266441      13.18905314
Al      12.36620300      12.01436142      14.38750074
Al      10.92967163       9.79613677      14.31604909
Al       7.40968569      12.15431197      12.11346027
Al       8.80399426      14.19059899      13.32190098
Al       8.25200550      10.19677208      13.82925107
Al      11.39168734      14.16504399      12.94099485
Al       9.91141222      12.23677337      15.26994805
Al       7.27342538      12.46773400      14.77539353
37
Properties=species:S:1:pos:R:3 config_type=qcd gap_pre_relax_energy=-115.15280317839266 gap_pred_energy=-115.82404847662409 gap_fmax_final=0.0009757135473728174 gap_converged=1 pbc="F F F"
Al      10.37808116      10.24496275      15.26776393
Al       9.26392608       9.51721496      13.07441331
Al       7.89922926       8.62168556      10.95630945
Al       9.31275047       6.74496474       9.59968972
Al      10.75603004       7.83007203      11.58395660
Al      12.12841970       8.96256480      13.56866816
Al      11.85480130       5.93312714       9.94994042
Al      12.99823791      10.84162632      15.18469885
Al       8.84068265      12.37281570      13.84179424
Al       7.68177090      11.24648335      11.68918756
Al      10.89520509      12.85040141      15.43316884
Al       6.48440409      10.50684000       9.29607998
Al      13.44060074       7.44661926      11.81660360
Al      11.32077546      11.56565263      13.02259753
Al      10.04172750      10.34436253      10.64780782
Al       8.84285566       9.27956980       8.41047569
Al       7.68594993      14.25347658      12.31194178
Al       6.80830195      13.11519374      10.01283437
Al       8.80931378      14.84269761       9.50022518
Al      13.29777369      13.33001420      14.40937400
Al      12.52890540       9.65774136      10.59182361
Al      11.32702107       8.23020819       8.58970605
Al       8.79923801      11.91481972       8.76145642
Al       9.65975568      12.95779964      11.12784865
Al      13.91159143      11.05658470      12.59109268
Al      13.92688734       7.51160773       9.14505700
Al      10.71899387      14.26670312      13.18151817
Al      12.08616657      12.23105484      10.41481620
Al      11.20036162      10.82595088       8.26070924
Al      15.13486025       9.42798196      10.76938409
Al      13.59919171      13.95948814      11.93376344
Al      13.75082074       9.93203783       8.16778163
Al      10.90383310      13.54139699       8.39506243
Al      14.73601691      11.98869331      10.07367438
Al      11.35066575      14.97952117      10.67082477
Al      13.20178612      12.44639423       7.64859247
Al      13.63966272      14.43826667       9.31595339
38
Properties=species:S:1:pos:R:3 config_type=qcd gap_pre_relax_energy=-118.59455669809283 gap_pred_energy=-119.03388359597868 gap_fmax_final=0.0009850395097358246 gap_converged=1 pbc="F F F"
Al      13.99960863      13.36443627      13.63363837
Al       7.12523275      12.09143009      10.50376436
Al      11.48121758       9.78125866      10.03526293
Al      13.68879706       8.38415590       9.18949260
Al      10.85940342       9.62649373      15.41819514
Al       9.09495392      12.98573140       8.89882439
Al      11.62457898       6.79794632      10.58208310
Al       9.68099984      11.67145330      14.19946568
Al      15.79091461      12.40961566      11.80923838
Al       8.06463828      13.13323058      12.81100251
Al       9.45980098       8.38903808      11.32851673
Al      11.20501229       7.32901847      13.22074399
Al       7.74793432      10.39017108      12.42298246
Al      13.27569290       8.70660174      11.78151803
Al      12.77266316      11.99275162      11.67613263
Al      13.18645878      11.16273929       8.29068965
Al      14.56230868      10.69739317      13.34381541
Al      11.13810261       9.95007012      12.76183922
Al      15.32865951      14.99622081      11.82961025
Al      11.11051028      13.96462318      13.38421343
Al       9.97524680      11.97112593      11.29975255
Al      13.15479895       8.78584075      14.42664128
Al      14.86546041      10.43493930      10.37971480
Al       8.62943331      10.19366539       9.52203765
Al      12.06716481       9.05162845       7.14683132
Al       8.90517349       8.61653066      13.96829660
Al      14.30521161      13.14660537       9.69117125
Al      12.29039984      11.65001113      14.51239132
Al       9.91719400       8.10377052       8.60442466
Al      10.46918290      11.04618554       7.72774495
Al      11.66237898      13.03514537       9.47696054
Al       7.44770564      14.72355886      10.61213853
Al      10.12382563      14.87926659      10.66129365
Al      12.76390402      14.92911921      11.02464711
Al      12.07273850       6.50658765       7.96789982
Al       8.69549697      15.65518350      12.80726642
Al      11.08220786      16.59998488      12.63109823
Al      13.40852863      15.88001242      13.45220110
38
Properties=species:S:1:pos:R:3 config_type=qcd gap_pre_relax_energy=-118.6405272964933 gap_pred_energy=-119.03294503087878 gap_fmax_final=0.0009873136947672167 gap_converged=1 pbc="F F F"
Al      11.49267594      16.94207976      10.37012824
Al      10.17401279      15.48585219      12.24375607
Al       9.31981259      13.19475381      13.18728601
Al      11.86624398      13.86594377      13.62977756
Al       8.19957608      11.10359139      14.27784791
Al      13.05346860      15.22769776      11.65279301
Al      10.85580697      11.23895243      14.50853951
Al       6.97767370      11.33268038      11.70673584
Al      13.37119907      12.20688693      14.98880448
Al       8.44622542      13.18431794      10.64875440
Al       9.62461997      15.20104308       9.49670882
Al      14.53322285      13.52600648      12.96772505
Al      12.30111314      14.81515125       8.88391394
Al      11.10261374      13.27132062      10.93633781
Al       9.76354464      10.85659795      11.93551493
Al       6.60750929       9.13571270      13.20791117
Al      15.12953061      10.48982997      16.08398176
Al      12.64878869       9.70684053      15.83844459
Al       9.23874254       8.62667667      13.43239231
Al       8.40148079      10.83971235       9.31986806
Al       9.94816331      12.83328197       8.41952355
Al       8.04856232       8.76898593      10.99906173
Al      12.59683685      11.30135998      12.37049474
Al      11.83427629       8.82485442      13.50650807
Al      13.72004570      12.85789556      10.46549821
Al      14.39801508       9.52263604      13.66783515
Al      11.29528084      10.59239136       9.67531767
Al      10.69899221       8.41599045      11.17804514
Al      16.11120261      11.68864182      13.98337958
Al      12.61850533      12.37368170       7.96190700
Al       9.39558127       8.39284245       8.77925213
Al      10.13583433      10.55891182       7.20693376
Al      15.22272368      10.98459036      11.59729776
Al      13.38326120       8.83888143      11.35048348
Al      14.14317883      10.44734164       9.28488175
Al      12.26464077       8.09756274       9.08110356
Al      12.79004368       9.90235542       7.12650831
Al      10.94788902       8.00704163       6.68964163
39
Properties=species:S:1:pos:R:3 config_type=qcd gap_pre_relax_energy=-122.01853785914699 gap_pred_energy=-122.62478968788974 gap_fmax_final=0.0009271631369008298 gap_converged=1 pbc="F F F"
Al      12.96870842       8.21212783      10.35631700
Al      10.92678339      12.89007800       8.55417177
Al       6.35049322      11.89741349      10.28526109
Al      13.41331053      15.83287896      11.68240720
Al      13.73265559      10.76540770      13.88278009
Al       8.49626289       8.56219082       9.85529979
Al       6.23525464       9.29202558      11.13172465
Al       9.02081732      15.39245661      12.03103853
Al      10.77607341       7.84452855       8.69770039
Al      10.99857281      15.02810942      10.22497196
Al       8.72476090      12.99774473      13.16867423
Al      13.04841442       8.82647047       7.70117958
Al      11.14579626      12.62651706      11.45762526
Al       8.25108825       8.56666369      12.63953977
Al       8.69575593      11.36440741       8.63058058
Al      11.23579641      12.30041991      14.25023994
Al      15.21582887       8.92669691      12.17935664
Al      13.18979462      13.61789820       9.85607251
Al      15.78308401      11.64174123      12.26071541
Al      11.15243048      10.17876832      12.54239767
Al       8.71782787      10.87943553      11.31401484
Al      13.39876340      11.04014440      11.06356180
Al      11.35853613      14.75174806      13.22034808
Al      10.57220173       7.84793680      11.40117478
Al       8.53143884      13.43054882      10.31040869
Al       6.79174316      11.03446470      13.13890601
Al      13.58449636      13.24067500      12.81909200
Al      10.91920847      10.25874281       9.90088929
Al      12.74556060       8.10254001      13.06548079
Al      15.65807249      14.28605699      11.30432821
Al      10.90586206      10.50449473       7.26632229
Al      13.22464246      11.46195819       8.26287559
Al       9.14630678      10.56195126      14.32534108
Al       8.66154416       8.95984829       7.00049957
Al       6.54257949       9.81513148       8.45382541
Al      15.01767395       9.64676557       9.42904245
Al      15.44972286      12.26509907       9.48334808
Al      11.60800709       9.86117936      15.20480706
Al      10.29812021       7.78072453      14.14167041
39
Properties=species:S:1:pos:R:3 config_type=qcd gap_pre_relax_energy=-121.71623785513378 gap_pred_energy=-122.18818766827957 gap_fmax_final=0.0009877394617090708 gap_converged=1 pbc="F F F"
Al       9.22626933      16.69169196      12.60158878
Al      13.74650226      15.90329710      11.00827773
Al      12.18912701      15.38435591       8.83741076
Al      11.64437411      15.46778441      12.91577833
Al      10.25520608      15.10493989      10.62761066
Al      15.37396412      13.75879965      11.26719878
Al       9.45229717      14.86341744      14.54578823
Al      13.89089565      14.25140184      13.48275509
Al      13.99201744      13.47646136       8.92551586
Al       7.94150269      14.35386130      11.97656970
Al      12.52182692      13.53692720      11.18463560
Al      11.79761667      13.71649566      15.09491514
Al      11.35161944      12.90146398       8.82657202
Al      10.27917097      13.08594578      12.68628771
Al      16.92900839      11.32246680      11.42162448
Al      15.76174336      12.39972188      13.62158972
Al       6.44456437      12.22325950      10.88411874
Al      13.89828587      12.37601566      15.89082178
Al      15.92005039      11.73198547       9.03589971
Al      16.04535448      10.71299269      15.74004311
Al       8.99413662      12.69328044      10.12141707
Al      12.88451008      11.58294159      13.50356931
Al       9.13796518      12.32455299      15.34362362
Al      17.59528662      10.19407648      13.69301473
Al       7.82437151      11.81576887      13.05518647
Al      14.23304682      11.34319650      11.22732572
Al      11.30524519      10.80064861      15.65219688
Al      13.23755724      10.73514435       8.83976162
Al      11.31330820      11.16798862      11.04440480
Al      13.65036428       9.61086689      15.55934956
Al      10.11290829      10.59837848       8.67157139
Al      14.96719620       9.55469888      13.17758893
Al      10.05272290      10.47252285      13.29523187
Al       8.30015203      10.11420363      10.87069444
Al      12.07983596       8.78628887      13.63459295
Al      13.29535344       8.88528927      11.16590890
Al      11.80113989       8.42838128       8.99494436
Al      10.53018702       8.54476305      11.46220400
Al       9.09202512       8.15243224       9.18112082
40
Properties=species:S:1:pos:R:3 config_type=qcd gap_pre_relax_energy=-125.58349749757036 gap_pred_energy=-126.13093506828116 gap_fmax_final=0.0009727155335865883 gap_converged=1 pbc="F F F"
Al      13.44144254       8.33284305      10.07978416
Al      11.37329791      12.85857939       8.58878495
Al       6.81622602      12.51286353      10.21297664
Al      13.86593942      14.93234273      11.73518019
Al      13.00746872      10.56340808      14.82292611
Al       8.73314298       8.90231655      10.61919237
Al       6.86602065      10.17294912      12.14771289
Al       9.65630717      16.30030139      11.60179635
Al      11.00655347       7.82244167       8.96497505
Al      11.70977090      15.03824419      10.13861717
Al       9.17242237      13.89055883      13.09724207
Al      13.19442608       8.31067549       7.24167178
Al      11.47776922      12.76678066      11.52398766
Al       9.04074851       8.96136333      13.28096046
Al       8.96852700      11.55432650       8.86932115
Al       7.16613001      15.05630663      11.44289061
Al      11.10094278      12.50928039      14.41477747
Al      15.74916917       9.01630462      11.34142487
Al      13.85971033      13.22296712       9.64510374
Al      15.48983021      10.59298843      13.59696584
Al      11.32841458      10.40043812      12.76791674
Al       9.05405247      11.58461362      11.62115121
Al      13.72584197      10.91474034      11.31555552
Al      11.65381534      14.87895978      13.19584803
Al      11.02616060       7.94315609      11.64759704
Al       9.26567732      13.88998360      10.10797948
Al       6.74315369      12.75082131      12.90747533
Al      13.56474553      12.89304611      13.54924819
Al      11.29376529      10.32950070      10.12176299
Al      13.55277306       8.47083703      12.78632004
Al      15.57373998      12.88342131      11.81246681
Al      11.16123710      10.41148610       7.42235126
Al      13.57648180      10.82206411       8.45321806
Al       8.55477230      11.49800726      14.31362313
Al       8.81441364       9.06008871       7.93365943
Al       6.62440020       9.98679298       9.26047121
Al      15.64408821       8.89022764       8.50996945
Al      15.90901006      11.38697998       9.64553985
Al      10.44959296      10.18568954      15.62894583
Al      11.40761842       8.12090404      14.25220889
40
Properties=species:S:1:pos:R:3 config_type=qcd gap_pre_relax_energy=-125.39930778474755 gap_pred_energy=-125.80686729482937 gap_fmax_final=0.0009030062366096396 gap_converged=1 pbc="F F F"
Al       6.44254725      10.32947482      10.86670114
Al       7.86077768      10.30951828      13.06177687
Al       8.01283621      12.58397103      11.16056452
Al       9.15967903      10.38871260      15.38710018
Al       9.53838161      12.42006404      13.29063544
Al       9.48797122      14.76446832      11.90416073
Al       7.18762424       9.26716333       8.45867191
Al       6.72918162      11.98709339       8.86489820
Al      11.23344985      12.01807433      15.31975540
Al       9.14862194      13.27542527       8.73180801
Al      11.48846663      14.20329679      13.61668851
Al      10.40789605      15.52618772       9.46364796
Al       8.45562009       8.40634633      11.22008552
Al       8.64979713       7.05859181       8.92502789
Al       9.55173346       8.26475863      13.77581376
Al      11.85665576       9.53836348      14.35248270
Al       9.14503775      10.69425298       9.62502497
Al      10.35834101      10.16723500      12.02053614
Al      10.92883105      12.73330465      10.88350031
Al      13.30473217      13.59210542      15.42173432
Al       8.44971137      11.28828227       7.01621577
Al      11.68294459       7.76101881      12.31253525
Al      10.79047924       8.44162298       9.87065394
Al       9.77290009       9.07155254       7.47188469
Al      12.60038424      11.86619884      12.94998985
Al      14.06103458      10.85459755      14.95657830
Al      12.41666502      15.14277171      11.18362224
Al      12.38930330      10.57828984      10.32974986
Al      13.82975105       9.48937976      12.56213702
Al      10.98316763      11.50143786       7.71750046
Al      12.22979504      13.79126810       8.53194477
Al      15.81397433      12.98053817      14.86565744
Al      14.21072811      14.07313339      12.88334830
Al      13.44273644       8.04177223      10.33134369
Al      12.36653399       9.18349716       7.78656747
Al      15.46317764      11.61535003      12.65470778
Al      13.77601477      12.87430299      10.52008398
Al      13.71334497      11.50865798       8.15774557
Al      15.15790838      10.56734616      10.29915411
Al      14.94274305       8.88205295       8.28944461
41
Properties=species:S:1:pos:R:3 config_type=qcd gap_pre_relax_energy=-128.96652184408697 gap_pred_energy=-129.46921120633658 gap_fmax_final=0.000921965182795307 gap_converged=1 pbc="F F F"
Al       7.28909090      10.64585338      13.54720702
Al       8.06691486      13.02013507      14.51671193
Al       7.43406552      15.08570781      12.58841047
Al       7.15847406      12.53985430      11.63607126
Al       9.52675286      10.40551804      14.88125692
Al      10.64572077      12.91392958      15.47939056
Al       6.86452642       9.85106466      10.92521566
Al      11.86351378      10.25417968      16.07308308
Al       9.49289009      16.52426075      11.41672641
Al       9.99822922      14.63130329      13.46972272
Al       9.24047375       9.24090260      12.40139477
Al       9.67782679      11.93621735      12.64834629
Al      13.25875642      12.51930248      16.02131181
Al       9.24940557      13.87922476      10.72780611
Al      12.12044024      16.17910225      12.32650439
Al       9.05227821      11.30345358      10.01988831
Al      11.60581513       9.12228366      13.68663045
Al      12.30616114      11.71073704      13.65108927
Al      12.59616882      14.36934144      14.24552185
Al       8.99110360       8.64589886       9.72223624
Al      11.87731877      13.40009740      11.66160654
Al      15.08534625      12.55411474      14.11694293
Al      11.31383131      15.09553065       9.60336087
Al      11.61660318      10.69322065      11.26793824
Al      14.61136981      14.48720878      12.28461021
Al      14.06180117       9.93443894      14.64628981
Al      11.31371168       8.03267207      11.19470316
Al      11.30923518      12.44990677       8.97855110
Al      13.78740643      16.02863444      10.21549460
Al      13.68460993       8.97712260      12.09576232
Al      11.27289476       9.73741878       8.77185468
Al      14.36929037      11.74316015      11.58652092
Al      16.80127585      12.94376977      12.11344487
Al      13.78338863      13.47268242       9.41406309
Al      16.22820530      10.27054249      13.13287835
Al      13.67392386      10.81387932       9.09879191
Al      13.43637257       7.96481158       9.48054200
Al      16.19912438      14.86588765      10.00163539
Al      15.61772396       9.36859303      10.31538053
Al      16.09073605      12.09465366       9.41592564
Al      17.83458602      10.70074715      11.02654100
41
Properties=species:S:1:pos:R:3 config_type=qcd gap_pre_relax_energy=-129.01592079829976 gap_pred_energy=-129.31422462387906 gap_fmax_final=0.0009555681378756575 gap_converged=1 pbc="F F F"
Al      18.10870791      13.23659833      13.46879609
Al      15.99704923      14.59235232      14.80214261
Al      15.31905710      12.99487746      17.17964138
Al      17.89864165      12.90822568      10.70108065
Al      16.29008320      11.65751977      15.05345775
Al      16.02873560      14.42608373      12.09343496
Al      13.49632345      14.56497540      15.94084592
Al      13.94260411      15.90859960      13.61687197
Al      12.76641411      12.92788834      18.10393805
Al      16.29146323      11.42301902      12.33674712
Al      14.21742004      12.91444130      13.69692173
Al      13.48142450      11.32448692      16.02058351
Al      15.76442038      14.16582056       9.39455596
Al      13.99579167      15.63894235      10.86901514
Al      10.73522502      14.34863248      17.07136380
Al      14.54555870      10.01478734      13.89682668
Al      16.07811758      11.25011073       9.49677102
Al      11.38026606      15.74227107      14.81819822
Al      11.81741753      17.06943077      12.54568454
Al      14.12518197      12.71570887      10.97055558
Al      11.47023442      12.93862990      14.81981815
Al       8.65921196      15.56521377      15.70550247
Al      11.95866953      14.28101512      12.52290407
Al      11.59682552       9.81419475      14.69458262
Al      10.82658681      11.30090507      16.84773815
Al      14.40680208       9.89896413      11.10949355
Al      13.82024106      12.52815462       8.24168704
Al      12.42838600      11.41280372      12.55148633
Al       9.15462638      16.91056596      13.42102039
Al      13.94305535       9.77120075       8.35081990
Al      11.75973047      16.62766262       9.88053565
Al      12.73616994       8.54831459      12.66824262
Al      11.89141138      13.98315278       9.50645416
Al       9.48755091      11.30116234      13.63342171
Al       8.81955520      12.78155498      15.74750052
Al       9.33656443      13.98864434      13.41332941
Al      12.01024115      11.29454282       9.86482298
Al       9.77721985      15.33887810      11.16939970
Al      12.15307341       8.47272293       9.95913567
Al      10.45994247       9.78772139      11.71303723
Al      10.02474836      12.62997304      11.10238467
42
Properties=species:S:1:pos:R:3 config_type=qcd gap_pre_relax_energy=-132.3124277105765 gap_pred_energy=-132.5955499676746 gap_fmax_final=0.0008624400601937443 gap_converged=1 pbc="F F F"
Al       8.17300721      13.32124236      15.69080393
Al      10.06271393      11.60849029      16.46713195
Al       9.06514488      15.09075095      13.74114413
Al       7.22936287      12.94134462      13.17909468
Al      10.89649657      13.46313365      14.71985100
Al      12.68282151      11.67320655      15.62119154
Al       9.09460141      11.10824054      13.98914276
Al      10.86343386       9.40687252      15.06142222
Al       8.16190703      15.06585275      11.17392235
Al       6.54910483      12.96801023      10.55351507
Al      13.65716449      13.35493799      13.69499366
Al      11.63909095      15.12096195      12.75328222
Al       9.81852309      13.02012541      12.11079668
Al      13.45586137       8.90566138      15.53768773
Al       8.03928660      10.96285896      11.53604524
Al      11.77872911      11.28531754      12.95694167
Al       9.79266547       9.07309424      12.32330446
Al      10.61563433      14.84026990       9.94417373
Al      12.64803313      16.36092995      10.64490329
Al       8.93174661      12.91510822       9.34031890
Al      14.44671147      10.74946896      13.85195116
Al      15.21811963       7.93367552      13.80001990
Al      10.57148290      10.91510627      10.35133338
Al      12.41881274       8.57189883      13.00533404
Al      15.29681391      12.29411031      11.81562851
Al      13.48024261      10.30799936      11.12618733
Al      14.58492817      14.84430407      11.68276465
Al       8.63827629       8.96998162       9.89797122
Al       6.99726345      10.96609894       8.79227731
Al      12.64266427      12.92317259      11.05115650
Al       9.64429098      10.86765930       7.77061651
Al      11.63101820       8.16873019      10.46051977
Al      13.42980307      14.40679014       8.93203441
Al      11.45575742      12.70502481       8.39658765
Al      16.07506179       9.72743568      11.95077618
Al      16.76465225      11.22256294       9.79408359
Al      14.21227462       7.69482027      11.25861496
Al      12.52322738      10.00977466       8.31195079
Al      10.49459824       8.31676161       8.06118203
Al      14.99181120       9.24449436       9.16849368
Al      16.12677341      13.85050442       9.53252797
Al      14.24840756      11.87153591       8.99664207
42
Properties=species:S:1:pos:R:3 config_type=qcd gap_pre_relax_energy=-132.36314044692205 gap_pred_energy=-132.7810210464204 gap_fmax_final=0.0007885274087759506 gap_converged=1 pbc="F F F"
Al      12.80160713      14.17358114       7.55017006
Al      15.02227573      13.06458537       8.56831504
Al      15.57847212       7.71567340       9.39936364
Al      17.01817882      11.89671285      10.35725455
Al      10.55122180      12.62505817       7.97197576
Al      15.39945353      10.38749095       8.66443557
Al      12.93173973      11.40186603       8.16629246
Al      10.83815575      10.09191376       9.30757410
Al       8.45405303      14.32790988       8.83639398
Al      11.00208435      15.13064381       9.41636648
Al      13.42929307      14.45186847      10.29303225
Al      14.01157555       7.66733456      11.62884225
Al      15.94450475      14.20674877      11.06796128
Al       8.82527761      11.77302724       9.83324435
Al      15.94104778       9.59121767      11.28168493
Al      13.17635761       8.93808619       9.40357666
Al      16.03883397      12.01408987      12.82069063
Al      14.12267194      11.76252687      10.86510383
Al      11.47805146      12.49918616      10.59963102
Al      11.16568588       7.64884891      11.22206558
Al       6.63007689      13.55427578      10.64480954
Al      14.24813459      10.12554473      13.35056364
Al       9.26162970      14.40302438      11.44933108
Al      11.77339857      14.85229599      12.31500010
Al       9.67638181      11.91536884      12.55844275
Al       9.16163528       9.42185833      11.37025906
Al      12.09376198      10.11742111      11.81117110
Al      14.48013651      12.34094656      14.94559443
Al      12.45559517       8.05603930      13.67775750
Al       7.10767692      11.08874883      11.73946366
Al      12.18513951      12.41523057      13.48289145
Al      14.22816516      14.24676019      13.08963037
Al       9.88539738      14.22876630      14.04291403
Al      12.37761844      10.23307200      15.19406557
Al       7.45357180      13.43944395      13.25482542
Al       7.81340848      10.70906792      14.31167751
Al      10.08925442       9.24668882      13.94320410
Al      12.39394343      14.68391118      14.96329272
Al      12.45604622      12.44640415      16.61852599
Al       7.86723617      13.19654386      15.90792636
Al      10.16645998      11.70994485      15.23335647
Al      10.30773235      14.04321468      16.68426509
43
Properties=species:S:1:pos:R:3 config_type=qcd gap_pre_relax_energy=-135.89895174030633 gap_pred_energy=-136.20144282998098 gap_fmax_final=0.0008689092260857545 gap_converged=1 pbc="F F F"
Al      13.39774252      11.48294803      14.08048652
Al      11.35235546       7.92710825      10.97141079
Al       6.71155454       9.65538994      11.07121542
Al      13.83465294       9.07140986       6.89975236
Al      13.63728554      13.86023942       9.79076775
Al       8.77533832      11.20097577      14.07576951
Al       6.52941328      12.12705443      12.56982781
Al       9.41834611       9.24195466       7.24420964
Al      11.00608084      10.37111583      15.35565443
Al      11.59501868       8.06380670       8.33132926
Al       9.07223132      11.72138807       8.25181787
Al      13.22266066       8.91057327      15.01981311
Al      11.41333583      15.14337438      10.29703140
Al      11.40347032      10.44684374       9.70153413
Al       8.80743653      13.61481750      12.87802012
Al       8.79743574       8.74431674      12.46062275
Al       7.09288199       9.85650106       8.39871082
Al      11.37046077      13.04919207       8.42976160
Al      15.62656079      12.27853797      12.74857873
Al      13.75763455       8.83471000       9.74076851
Al      15.87080661      12.28486418       9.81660407
Al      11.17377386      12.76658176      11.45724639
Al       8.92817518      11.25256825      11.08202659
Al      13.58016365      11.28757690      11.19073548
Al      11.60405337      10.77816099       6.91841528
Al      11.04740743      12.76580358      14.20082581
Al       9.01955393       8.60693311       9.82736339
Al       6.74026013      12.27442898       9.70893118
Al      13.66921415      11.54025214       8.45198129
Al      11.09419939      10.37714806      12.55675691
Al      13.43085715      13.95329640      12.68146961
Al      16.02007897       9.86563484       8.42154651
Al      11.05376630       7.89450255      13.64566666
Al      13.53175449       8.70612063      12.37235886
Al       9.13915815      13.78660334       9.89291064
Al       8.73435271       8.60647937      15.19203297
Al       6.49824072       9.69464965      13.87541800
Al      15.51770681       9.78274920      13.94968712
Al      15.86054999       9.71762216      11.24659681
Al      11.07708564      15.15456228      13.11560035
Al      15.75679764      14.54146130      11.30549535
Al       6.69109537      14.60347874      11.23860359
Al       9.04132010      16.05853239      11.43691314
43
Properties=species:S:1:pos:R:3 config_type=qcd gap_pre_relax_energy=-135.6548223552912 gap_pred_energy=-136.12988574583892 gap_fmax_final=0.0008864537765909326 gap_converged=1 pbc="F F F"
Al       8.73671955       8.44320099      15.23305492
Al      10.91202683      10.16183165      14.94500991
Al      11.29805074       7.43197240      15.18193060
Al       8.47568679      11.20075977      14.22154602
Al      10.11807285       8.47966369      12.82717006
Al       7.25527241       9.02891449      13.06654049
Al      13.05711702      11.65044507      14.48100980
Al      10.63045786      12.81834743      14.33296863
Al      12.56644899       7.12618585      12.65986544
Al      13.54912266       8.95829876      14.78907621
Al      15.30479154      13.09188294      14.30998798
Al       9.99973572      11.12905793      11.88081814
Al      12.82247724      14.38155592      14.32837024
Al       8.48212007      13.47250546      12.81900041
Al      15.81066942      10.44569202      14.41953413
Al      13.80014273       7.34229968      10.18856713
Al       7.25311879      11.28721452      11.52592866
Al      12.43978410       9.93953185      12.28908859
Al       8.50535104       9.05002935      10.67841964
Al      11.23040389       8.18849408      10.44341185
Al      14.89949791       8.83016923      12.35900139
Al       8.87004476      11.33719902       9.34536590
Al      12.23488862      12.63695540      11.98123569
Al      14.90234768      11.71640937      12.02256027
Al      10.64967979      15.06927510      12.84146001
Al       9.68029190       9.05126313       8.29439044
Al      14.27290964      10.03201547      10.04987342
Al      10.13261017      13.44559170      10.46160520
Al      12.91921646      16.47701434      12.54202604
Al       8.66190361      15.63143024      11.16694479
Al      11.67479488      10.88078658       9.61595046
Al      14.66185942      14.45404105      12.00947019
Al      12.24680537       8.69652959       7.91121669
Al       7.23675993      13.63190491      10.01809286
Al      14.86862889       8.45171453       7.89873346
Al      10.90639842      17.30964991      10.96504475
Al      13.95419763      12.70033333       9.72054879
Al      12.51051715      14.83967950      10.39595748
Al       9.24438724      13.44912199       7.83131686
Al      13.65648867      11.02929748       7.60689859
Al      10.74779590      11.26945167       7.01740004
Al      10.44469710      15.59763235       8.88032164
Al      12.00804978      13.46699145       8.07562737
44
Properties=species:S:1:pos:R:3 config_type=qcd gap_pre_relax_energy=-139.305821012909 gap_pred_energy=-139.6942887835471 gap_fmax_final=0.0009846150982270837 gap_converged=1 pbc="F F F"
Al      13.48567233       8.39504604       9.92621599
Al      10.91880173      12.80702632       8.21739795
Al       6.45227334      11.96014327       9.79124945
Al      13.33275088      15.99388944      11.18033802
Al      13.62795341      11.17210790      13.93568324
Al       8.77501679       8.67516177       9.85708993
Al       6.50141792       9.42349041      11.24830314
Al       8.85741103      15.70925273      11.05116679
Al      10.94492024       7.84270027       8.40642821
Al      11.10013256      15.11799564       9.63175266
Al       8.78751758      13.55651430      12.65419343
Al      13.07769138       9.12029519       7.37522992
Al      11.50670941      10.37288011      15.38509424
Al      11.21867653      12.56947701      11.06702515
Al       9.00957109       8.50475970      12.48290622
Al       8.67737560      11.17080354       8.31121414
Al       6.54139505      14.30804319      11.24771275
Al      11.32577277      12.65460524      14.05158687
Al      15.85748244       9.68635539      11.27531388
Al      13.45903794      13.77255609       9.69312212
Al      15.79722906      12.19037262      12.67331873
Al      11.31974427      10.31470349      12.53433288
Al       8.88032434      11.10115108      11.25314716
Al      13.54301609      11.07624795      10.91968973
Al      11.05546631      14.99022210      12.62922888
Al      11.12957694       7.76569942      11.05303276
Al       8.74253632      13.41175997       9.70717079
Al       6.66919562      11.89979504      12.69577583
Al      13.70644008       8.60837629      15.22782115
Al      13.35206654      13.58411820      12.56938403
Al      11.30760372      10.27803236       9.55670662
Al      13.68563492       8.64523257      12.53015966
Al      15.70754415      14.62296215      11.38357715
Al      10.83368003      10.48992176       6.84362095
Al      13.36467398      11.70231770       8.07243029
Al       8.95414130      11.33587597      14.04327005
Al       8.67873140       8.63184046       6.96461513
Al       6.48971224       9.49999014       8.45369885
Al      15.27231846       9.92361238       8.64490623
Al      15.71478052      12.29824236       9.83329993
Al      11.36580535       7.89571169      13.70199520
Al      15.96456166       9.71346965      14.04350707
Al       6.93887063       9.48270219      13.95020652
Al       9.26353604       8.91930888      15.12085026
44
Properties=species:S:1:pos:R:3 config_type=qcd gap_pre_relax_energy=-139.2933673326548 gap_pred_energy=-139.69575568123975 gap_fmax_final=0.0009946304924408798 gap_converged=1 pbc="F F F"
Al      15.22108479      10.53597937      11.32112793
Al      12.83151491      14.71447238      10.03730257
Al       8.29502784      13.32424057      11.55507832
Al      15.14564230      17.86804724      12.93937237
Al      15.29915696      13.07273321      15.62785622
Al      10.70980172      10.45362531      11.54585807
Al       8.30238614      10.86159319      12.91054999
Al      10.77238861      17.09045675      12.97116298
Al      12.93181175       9.75878616      10.13031406
Al      12.93475460      17.02887103      11.39251515
Al      10.65656526      15.20560551      14.88323866
Al      15.02429778      10.87015435       8.66140037
Al      12.87220069      12.16158201      17.09566791
Al      12.68401700      14.68164203      12.86392614
Al      10.58128868      10.35779373      14.28807990
Al      10.40208601      12.83831862       9.95288566
Al       8.67230994      15.48622659      13.10614928
Al      13.07947868      14.52802372      15.87945258
Al      17.42967024      11.32150040      12.62309404
Al      15.15504298      15.46816599      11.35810686
Al      17.50839219      13.77229489      14.17244865
Al      12.83497349      12.09404735      14.31376865
Al      10.50945831      13.01939758      13.05695061
Al      15.15503541      12.89529991      12.80715997
Al      12.96490409      16.79821788      14.46697908
Al      12.83828972       9.62171447      12.92462778
Al      10.42624331      15.19634165      11.12085763
Al       8.21359648      13.26308229      14.52715807
Al      15.06935237      10.60259674      16.60501276
Al      15.21508552      15.35093448      14.28950764
Al      12.76923611      12.31657054      11.56590686
Al      15.24529217      10.31343540      13.94068789
Al      17.40943551      16.20438362      12.80623835
Al      12.72902286      12.37289085       8.67041219
Al      15.05259302      13.19757971       9.96126619
Al      10.52863622      12.76528053      15.86337836
Al      10.57241335      10.43251493       8.83005817
Al       8.21704694      10.89692341      10.14628293
Al      17.38140925      11.51411506       9.83674332
Al      17.40120670      13.88693823      11.21986564
Al      12.79920439       9.55203581      15.58698132
Al      17.37086596      11.26703544      15.37570747
Al       8.33079156      10.82001290      15.75289009
Al      10.64932508      10.41087509      17.20830822
45
Properties=species:S:1:pos:R:3 config_type=qcd gap_pre_relax_energy=-142.7340189856111 gap_pred_energy=-143.11761361264874 gap_fmax_final=0.0007387429760770389 gap_converged=1 pbc="F F F"
Al      13.69348874       9.08593130       9.76530068
Al      11.33927736      13.05116330       8.26666143
Al       6.85282457      12.26765889      10.15791554
Al      13.46591155      16.12925520      11.06414732
Al      13.66447529      11.74488777      14.04487065
Al       9.22810385       8.53067763      10.09142037
Al       6.70586457       9.68204569      11.57254318
Al       9.00010775      16.06717275      11.50700497
Al      11.51546313       8.16114709       8.55403376
Al      11.19570967      15.37249101       9.70442362
Al       9.12330931      13.62405927      12.67060782
Al      13.72141809       9.01849325       6.91395442
Al      11.19317720      10.73605634      15.49783495
Al      11.26045120      12.84753135      11.07480338
Al       9.01078093       8.80735795      12.69589902
Al       8.95777802      11.82367391       8.34095322
Al       6.64077336      14.68777878      11.56722599
Al      11.25235686      12.95476002      14.14605046
Al      15.98346260       9.90861451      11.08319475
Al      13.53290730      13.90185760       9.56494452
Al      15.88844295      12.44531607      12.49743133
Al      11.31875074      10.44822491      12.68782083
Al       9.03575505      11.10054051      11.21604845
Al      13.62225966      11.45053755      11.25899628
Al      11.32430157      15.25587089      12.70614451
Al      11.61048791       7.93019438      11.22020676
Al       8.88734229      14.00291966       9.82346700
Al       6.67106612      12.23890420      12.92981776
Al      13.48392977       9.17089056      15.08940922
Al      13.65529337      13.91027919      12.54615339
Al      11.24327905      10.59266895       9.64799353
Al      13.79240170       8.88759593      12.40394825
Al      15.85662610      14.81446575      10.95359769
Al      11.49144296      10.75471018       6.87202626
Al      13.67593778      11.56748236       8.23642367
Al       9.00280633      11.27914249      13.99481300
Al       9.34915450       9.31415828       7.52577620
Al       7.22176355       9.90429439       8.96203150
Al      15.97070532       9.96449094       8.28346283
Al      15.89528313      12.44082137       9.59179771
Al      11.31928131       7.89076776      13.81985293
Al      15.74645369      10.06604599      13.86776252
Al       6.73160171       9.74720953      14.30010275
Al       9.04227999       8.76643990      15.37587525
Al      11.39879460       8.22649715      16.47833281
45
Properties=species:S:1:pos:R:3 config_type=qcd gap_pre_relax_energy=-142.3482890965991 gap_pred_energy=-142.88630361428017 gap_fmax_final=0.0009595818446648068 gap_converged=1 pbc="F F F"
Al       8.04345601       8.85053175      14.10617721
Al      10.44998548       9.53548644      14.93290713
Al       6.98113340      10.64136488      12.34183371
Al       8.62016892      11.43000706      14.40933695
Al      11.05573228      12.20610115      15.18675459
Al       7.47749291       8.04650093      11.57727125
Al       9.40530058      14.35022736      14.33600871
Al       7.43470397      13.19731001      12.86309067
Al       6.39164837      13.16327670      10.20081807
Al      12.71444971       8.15911908      13.63351483
Al      10.13638168       7.39511231      13.25445506
Al       6.13499722      10.35684405       9.82523755
Al       9.56486689       9.92690175      12.14945127
Al      12.14790562      10.84913825      12.72323031
Al       8.75437984      14.51312796      11.07809144
Al      10.32675620      12.63589943      12.37476486
Al      12.16054123      14.37956546      14.06097648
Al       9.73492125       6.85471654      10.54616641
Al      11.26683857      15.15003581      11.71346662
Al       8.68652787      11.82917112      10.41609279
Al      12.95606420      10.26607627      15.28165762
Al      14.37476702       7.94752304      11.39161232
Al      14.05237467      12.40449399      14.07160197
Al      12.55567698       6.22454289       9.88135655
Al      11.76470237       8.60016545      11.16313156
Al       8.64335857       9.30599647       9.45091996
Al      13.28705521      13.17387321      11.55760961
Al      10.99365086      10.71580747       9.69076117
Al      12.96946240      14.93176383       9.60173633
Al      13.63456862      10.69671771      10.44367843
Al       7.73376390      11.40342297       7.91159471
Al       8.46568840      13.92019472       8.52158017
Al      14.74457947       9.87004988      13.23117220
Al      10.77387367      13.35935787       9.80211169
Al      11.08241529       8.11144393       8.54924195
Al      15.77523338      11.96501817      11.95783872
Al      13.91515373       8.37855167       8.78838026
Al      11.12146282      14.88406857       7.60109174
Al      12.42727927      10.18148416       7.25736844
Al       9.78289816       9.82862931       7.06077906
Al      15.16613582      12.88263231       9.53914757
Al      10.27307310      12.39852612       7.23270538
Al      16.17043843       9.71025892      10.22066236
Al      15.02687177      10.70187798       7.87416982
Al      12.82408878      12.66990992       8.19126939
46
Properties=species:S:1:pos:R:3 config_type=qcd gap_pre_relax_energy=-145.8208868813544 gap_pred_energy=-146.5917210242122 gap_fmax_final=0.0009780969708018809 gap_converged=1 pbc="F F F"
Al      13.51255683      12.48424523      13.96336053
Al      15.35629229      12.04776982      12.00966941
Al      15.14529190      10.41373632      14.14556605
Al      12.73637083      10.22061057      15.73850669
Al      13.98928651      14.45338513      12.05152178
Al      14.04280722       8.02667412      14.40162590
Al      14.69972520       9.24177214      11.61428786
Al      11.42463691      12.72147555      16.05457198
Al      12.20107912      14.74354968      14.36124594
Al      15.18625697      13.54948930       9.80805052
Al      11.33725836       7.89471189      14.44312606
Al      10.91952907      12.51494093      13.23672006
Al      10.13807314      10.27380614      14.88312336
Al       9.86008615      10.12970601      12.21653003
Al      12.40502703      10.08492392      13.08527076
Al      14.02155298       8.17520511       9.07981985
Al       8.75625343      12.52199171      15.14166097
Al      14.29438481      10.86711156       9.50245721
Al      12.85728176       7.25564320      12.06468603
Al      12.48270934      14.34417258       9.63322274
Al      11.33356141      15.30688577      11.86197909
Al       9.54479728      14.77973301      13.95699636
Al      12.73050617      12.16641183      11.25620334
Al       8.72247747       8.12901902      13.81375644
Al       7.43373894      10.44838588      13.71260880
Al      10.09303106       7.25722808      11.69914117
Al      13.88112594      12.86544634       7.55511246
Al      13.67427740      10.25457248       6.92556857
Al      11.76965491       6.84419819       9.62270351
Al      10.31558316      13.06165326      10.69926458
Al      11.80679369       9.43869514      10.44853751
Al      10.00482911      15.28661192       9.17941767
Al       9.13062656      10.88070394       9.77381875
Al      11.61647406       8.68586634       7.61865633
Al       8.66262419      15.35880474      11.48839522
Al       8.31176574      12.65552710      12.45244527
Al      11.59042818      14.35654414       7.04083934
Al      11.75490030      11.51746022       8.75384910
Al       7.61242583       8.61206437      11.40726425
Al       9.43501583       8.04049951       9.12687457
Al      11.50231280      11.71598086       6.00651324
Al       9.56590519      12.88677839       8.04892465
Al       7.72829106      13.37267047       9.93745023
Al       9.36974479      10.32748062       7.14103976
Al       7.15349339       9.35035791       8.83325309
Al       6.56176660      11.10811045      10.87697382
46
Properties=species:S:1:pos:R:3 config_type=qcd gap_pre_relax_energy=-145.67698911520597 gap_pred_energy=-146.32543150977173 gap_fmax_final=0.0008427123981021379 gap_converged=1 pbc="F F F"
Al      15.15391969      14.09237288      12.74609054
Al      16.00148969      11.54796739      13.12590756
Al      12.97127449      14.48469106      14.29661453
Al      14.59634121      12.40346255      15.17885277
Al      15.64611928      12.42139887      10.62827610
Al      15.02870873      15.09409434      10.28052843
Al      14.73684841      13.28551794       8.19461614
Al      12.87281849      13.26601143      17.07724930
Al      12.63802862      15.24418733       9.08326477
Al      13.42826934      10.43332404      16.65945521
Al      10.66154593      15.35733522      13.13614409
Al      12.69319861      14.35728440      11.61244332
Al      13.89517049       9.58362006      14.18226557
Al      13.37248752      11.82551869      12.45814623
Al      14.74745868      10.46607645       9.04007893
Al      11.90226467      13.49392448       7.13857997
Al      10.40052792      16.03532208      10.42212974
Al      15.00499926       9.59173743      11.69140602
Al      10.64479577      13.84622526      15.50465208
Al      12.72291431      12.25534900       9.67390761
Al      12.01269341      11.68264754      14.81383725
Al      13.46950611      11.28869351       6.79841114
Al      10.78336762      11.50936969      17.37266311
Al      11.18803173      10.09781561      12.89028333
Al      10.76148875      12.77993220      12.61829632
Al      12.53063811       9.58700603      10.36923449
Al      12.73363222       8.81010265       7.72274320
Al      11.07778169       9.31114810      15.82962845
Al       8.48418342      13.53192316      14.03321050
Al       8.78819696      12.77880627       7.39418947
Al       9.19775187      11.20419945      15.13103782
Al      13.16351258       7.70878038      12.23087310
Al      10.38425292      13.47392305       9.47421592
Al       8.52074101      14.41937302      11.60996211
Al      10.23842013      10.93978374      10.44515282
Al      10.88220519      11.05974665       7.77223795
Al      11.14816538       7.44244553      14.01849094
Al      12.28425561       6.81735323       9.64054084
Al       8.07383588      14.85403378       9.02429195
Al       8.42835382      11.36293370      12.45091095
Al       8.87329714       8.92944644      13.58687099
Al       8.25250687      10.21477031       8.18282543
Al      10.31699405       7.78076808      11.47953683
Al       7.74732696      12.23800850      10.01257940
Al      10.16248423       8.46800240       8.83610875
Al       7.99333903       9.23970989      10.74740182
47
Properties=species:S:1:pos:R:3 config_type=qcd gap_pre_relax_energy=-149.23479238175844 gap_pred_energy=-149.8629825876918 gap_fmax_final=0.0007714244627373444 gap_converged=1 pbc="F F F"
Al      10.58785054      15.39821792      12.74371986
Al       8.23722736      14.19841318      13.37871603
Al      11.82030721      14.84996841      10.47991786
Al      10.88091005      13.56034047      14.67167285
Al       8.49679215      12.52550380      15.41699810
Al       6.29419828      11.33219779      13.82439198
Al       9.22410889      14.21027135      10.84121376
Al      12.99151676      14.35037454      13.01741658
Al      13.16346331      13.93869359       8.02821784
Al      14.43299580      14.49095075      10.32633216
Al      10.51014839      13.71336493       8.49014359
Al      11.15981610      12.49649228      12.05147170
Al       6.96185376      12.85701988      11.36533334
Al       7.83673217      13.89479059       8.59072547
Al      14.69701573      12.50747916      12.05462325
Al      13.21932891      12.13740192      14.60791157
Al      10.75911462      10.85287538      14.46648285
Al      15.31666016      12.24369108       9.06950153
Al      12.71120681      11.93819369       9.95243253
Al       8.75972838      11.48499881      12.84301028
Al      14.49342708      11.97882344       6.41034062
Al       9.05263096      11.81057176       7.22524333
Al       9.15434303      11.54015360      10.18005836
Al       8.17819167       9.93580059      15.37995050
Al       6.59652465      11.57462145       8.97102594
Al      11.84108016      11.72595394       7.22066773
Al      15.17782937      10.16907183      10.77728857
Al      15.33836530      10.59400315      13.84819603
Al      12.98049919       9.21751453      14.81682782
Al      11.05425673       9.75495488       9.21318117
Al      12.86895001      10.22628944      12.27734146
Al      13.87857777       9.94866857       8.33397338
Al      10.33207132       9.48967330      11.86543351
Al      13.10251126       9.61278341       5.68337612
Al      10.20934376       8.26098810      14.67196238
Al       7.87396743       8.71330183      13.08230260
Al       6.75061988      10.19028949      11.22260826
Al      10.40369360       9.50797530       6.54938702
Al       8.14816173       9.50480503       8.30162648
Al      14.84420999       8.17030697      12.78361729
Al      12.34537160       7.73319490       7.82632827
Al      12.28110577       7.36849770      12.92130372
Al      13.48736591       8.09127649      10.29377047
Al       9.70728706       6.81851747      12.50466342
Al       8.40960635       8.06725935      10.53587883
Al      11.07362871       6.99984126      10.23666670
Al       9.67594857       7.33416696       7.96729122
47
Properties=species:S:1:pos:R:3 config_type=qcd gap_pre_relax_energy=-149.0555266191972 gap_pred_energy=-149.83383454643266 gap_fmax_final=0.0009959954457757607 gap_converged=1 pbc="F F F"
Al       8.32765140      15.88245150      10.02331218
Al       9.81232300      11.84924783       7.93299885
Al       7.34454895      13.30333610       9.92007486
Al       8.64390043      14.34715533       7.77426383
Al       8.17966508      14.53897546      12.28800521
Al      10.48194671      15.90320536      11.71892794
Al       8.95846763      11.10617885      10.27111187
Al      11.24840924      14.06745043       7.12341732
Al      10.05277265      13.65215382      10.15252274
Al       7.03245671      12.09250407      12.31433472
Al      11.03074783       9.49331886       8.37830942
Al      10.76836849      16.06411894       8.98455438
Al       8.16649487      13.34423061      14.69641574
Al       8.21214463       9.72617019      12.37485601
Al       9.73064627      12.01454095      12.80999791
Al      12.64819597      14.23667169       9.37924974
Al      12.67301473      11.84959342       7.65550855
Al      10.57760039      14.38376122      14.05284559
Al      11.70581995      11.48401991      10.22287507
Al      12.81628056      16.70368355      10.60461210
Al      10.53766774       9.22094289      11.25518172
Al       8.13332315      10.69608985      14.85518619
Al      12.81661830      15.60170432      13.15514806
Al      10.12199038       8.92844064      14.26310918
Al      10.52853777      12.17684183      15.62526871
Al      12.07410701      13.34299387      12.00271545
Al      12.34909015       7.54552341       9.86057885
Al      15.40973216      14.07054227      13.72664447
Al      13.01069119      13.28618823      14.65068323
Al      14.60655722      14.76023460      11.12355943
Al      14.35406892      12.26793719       9.75072849
Al      11.99592839      10.74604082      13.47382996
Al      13.76578745       9.71312179       8.81674281
Al      11.43308037       7.13425762      12.51988966
Al      12.93108210      12.06955611      17.00796665
Al      13.28428122       9.39041078      11.57228301
Al      14.25475486      11.72518804      12.62821588
Al      11.85681408       9.80177482      16.04992160
Al      15.45975619      12.87836864      16.20956767
Al      16.62703147      12.93923528      11.59709197
Al      14.06751215       6.82964110      12.29407719
Al      15.94526184      10.42264239      10.85900844
Al      15.22285541       7.92655038      10.19079354
Al      13.10652131       8.26976852      14.30260419
Al      14.33957859      10.51494492      15.21911795
Al      15.46644887       9.03168762      13.14284823
Al      16.65874284      11.43588062      13.93832012
48
Properties=species:S:1:pos:R:3 config_type=qcd gap_pre_relax_energy=-152.64207251128607 gap_pred_energy=-153.3546089590665 gap_fmax_final=0.0009530399121764366 gap_converged=1 pbc="F F F"
Al      12.49805014      10.09257537      16.58039299
Al      14.08962247       8.66717720      14.71205214
Al       9.85752607      10.14208889      15.95924590
Al       7.43982500      10.58126819      14.10087341
Al       8.74906075       8.29151277      14.39887220
Al      11.43502248       8.48691622      14.53316376
Al      12.99829400       7.60566024      12.47993602
Al      10.09788739       7.41810557      12.35407660
Al      14.39815253      11.59845501      15.07372479
Al      11.70342736      11.95838436      14.76287247
Al       9.03198003      12.55160513      15.01877671
Al      15.44194870       8.75049688      12.08825609
Al       7.97833201      12.36624527      12.13990226
Al       7.89094220       9.29727048      11.76371982
Al      13.65757150      14.17103538      15.21576096
Al      11.10126188      14.79747290      14.88517316
Al       9.37933332       8.14247078       9.81244679
Al      10.11359368      10.43773347      13.08093550
Al      14.06849520       8.03530800       9.85325642
Al      11.69294699       6.43830889      10.47940365
Al      11.74142423       9.31315170      10.58648176
Al      16.37015892       9.98660304      14.27493892
Al       8.59670350      14.90166134      13.91088177
Al      12.90590522      10.37042249      12.80788920
Al      11.91927928       7.71599677       8.19250425
Al       9.60335825      10.86852587      10.25308768
Al      10.50975428      13.39481271      12.48865411
Al      15.55174960      14.37610746      13.22740653
Al      15.71183384      11.72018548      12.34086408
Al       8.27119513      14.95108607      11.30560166
Al      10.20580078       9.73231641       7.84505754
Al      13.18208854      13.09787206      12.78544440
Al      14.25445729      10.73402465      10.26194733
Al      12.10127247      12.20546562      10.50187730
Al       9.79151303      13.42438275       9.84016564
Al      13.00099177      10.12090697       7.95332347
Al      10.52078720      16.30354457      12.68811108
Al      13.20976933      16.00835694      13.33421386
Al      14.88855686      13.56165042      10.65168672
Al      12.46128819      14.91906051      10.78665239
Al      13.71830104      12.61012021       8.38379260
Al      10.27225686      16.17219042       9.88447755
Al      11.03789159      12.21191399       7.80073157
Al      11.74819869      14.71215201       8.09512339
Al      12.39378025      17.69420626      11.43595696
Al      14.42738835      15.13945299       8.59922765
Al      12.68475455      17.11058808       8.88725505
Al      14.77894279      16.29582671      11.06647935
48
Properties=species:S:1:pos:R:3 config_type=qcd gap_pre_relax_energy=-152.61183320428327 gap_pred_energy=-153.30914352913848 gap_fmax_final=0.0009714329308676871 gap_converged=1 pbc="F F F"
Al      15.43678659       9.40316579      11.36241810
Al      16.19056283      11.94368318      10.07816901
Al      15.38290247      11.85710939      12.83089395
Al      13.93580758       7.65187131       9.73694173
Al      13.55133989       7.54947479      12.39809250
Al      14.19673602       9.70945295      13.90104669
Al      16.00233817      14.19538122      11.58020188
Al      12.33467083       8.15465892      15.02736284
Al      14.56182014      10.18876947       8.80753986
Al      12.85419841      10.03764490      11.18588827
Al      13.64021152      12.95449499      10.80608099
Al      11.12463602       6.62589921      13.07634096
Al      11.04143962       7.65882735      10.66186997
Al      14.03832303      14.32053923      13.55393182
Al      13.06148643      10.72559232       6.51095700
Al      12.22020584      11.55026843       8.98233803
Al      11.88903350       8.87329939       8.40736860
Al      14.27540937      13.02913957       8.04160022
Al      10.68264553       9.43531531      12.93505571
Al      13.56551597      15.77690003      11.29300902
Al      10.21561192       6.61565296      15.61332484
Al      12.45607669      11.73028367      13.15535329
Al      12.02402443      10.73501822      15.71668315
Al      14.10680251      12.19621150      15.21363014
Al       9.75535253       9.27554349      15.62456118
Al      11.81984310      16.30589690      13.66013306
Al      10.29885713      10.22706017      10.23971751
Al      12.16872808      14.63926252       9.18944159
Al       8.58644639       7.68344930      13.71804257
Al      11.83939044      13.67861756      14.98891470
Al       9.15551753       8.35828357       8.57783637
Al      11.56089238      13.20447108       6.94246155
Al      11.56318389      14.02196154      12.13056032
Al       9.90050526      12.71425479       9.69018754
Al       9.67352331      11.91616162      15.14144550
Al      10.35904393      10.69914889       7.19114192
Al       9.87675723      12.05711663      12.37368430
Al       8.33907121       8.65649942      11.19195065
Al      10.86273462      16.46698601      10.92656530
Al       7.89632352      10.23641771      13.44069651
Al       8.00917845      10.80804867       8.61709222
Al       9.55003662      15.25246940       8.75681790
Al       9.57656798      14.67620596      13.94167974
Al       8.86192749      12.97745030       7.07810960
Al       8.71872725      14.55587320      11.36446760
Al       7.64403378      12.86761939      13.63533225
Al       7.48251726      11.70506312      11.11993926
Al       7.21645345      13.60168275       9.08732041
49
Properties=species:S:1:pos:R:3 config_type=qcd gap_pre_relax_energy=-156.00366276117214 gap_pred_energy=-156.52922907435817 gap_fmax_final=0.0008908576046194805 gap_converged=1 pbc="F F F"
Al      13.53576970       6.38017827      15.16219671
Al      13.42711534       6.99372946      12.36617179
Al      14.47697595       8.80318340      14.67023103
Al      14.77524815       9.28093351      12.05353780
Al      10.55058783       7.18040161      11.50819108
Al      15.43945780      11.23483415      14.19954084
Al      11.15513301       6.54609191      13.99548645
Al      15.12387740      10.00496343       9.57475778
Al      15.95337476      11.91709963      11.70779107
Al      12.58142450       9.43426686      10.54411719
Al      11.88174693       8.56723727      15.76815486
Al      16.12634342      12.84979167       9.25009439
Al      12.08525600       9.17684538      13.15789705
Al      14.15015919      14.29748913       8.12938407
Al      12.83637340      11.17244479      15.07470616
Al      11.29875135       7.86486573       8.89629815
Al       8.69617762       7.83829949       9.61917493
Al      14.27006099      13.60760390      13.64131937
Al      13.23353466      11.46669609      12.26250719
Al      12.46881568      10.06693152       7.75915885
Al       9.36128672       8.46661281      13.80776734
Al      13.27961054      12.08338525       9.41152535
Al      14.95884310      11.39351393       7.33566701
Al      14.32095590      14.14393107      10.94319205
Al      10.10113966      10.53195122      15.55505430
Al      12.85521380      12.61988686       6.39596046
Al       9.76817140       9.80303091      11.33244170
Al       9.57398519       9.63060671       7.65763993
Al      10.68562425      11.70499538      13.05809324
Al       7.35029297       8.62608720      11.78151632
Al      12.70496830      16.06901883       9.93396882
Al      10.62115373      11.50607491       9.44176531
Al      11.65373212      13.62721213      14.72466497
Al      11.56032494      13.39380209      11.04041471
Al      12.24178164      15.43366432      12.57700327
Al       8.16479825      10.76784407      13.43647927
Al      10.29817441      12.10954410       6.79959255
Al       7.74894212      10.41977731       9.56836532
Al       8.99606990      12.91935405      15.17708811
Al      11.51160134      13.96613155       8.40275709
Al       8.80990198      12.36123767      11.26052867
Al       9.68398725      14.52881260      13.04457239
Al       7.67266590      11.81745164       7.26338506
Al       6.05665261      11.17566760      11.76445642
Al       8.93379006      13.72568744       8.76498295
Al      10.09533051      15.67607965      10.50823375
Al       7.12958323      13.28642677      13.17959551
Al       6.60070156      12.85268411       9.73076059
Al       7.53886310      15.01997081      11.10614086
49
Properties=species:S:1:pos:R:3 config_type=qcd gap_pre_relax_energy=-156.35507836701888 gap_pred_energy=-156.82014608863633 gap_fmax_final=0.0009355084235531799 gap_converged=1 pbc="F F F"
Al      15.40253294      14.57697642      10.88277506
Al      16.17544089      11.99476151      11.03930160
Al      16.03438163      10.60923868       8.71975101
Al      14.42524539      17.10313580      10.41597315
Al      15.80445369      10.46950005      13.32756801
Al      14.09184007      12.51619756       9.24830828
Al      15.74594135       9.08532638      10.93218991
Al      14.89267772      13.05791609      13.13551310
Al      13.48868060      15.10168887       8.84066059
Al      13.79896951      15.89024156      12.75072990
Al      14.32872914      11.87612205      15.53391969
Al      14.86444965       7.82306716      13.22766795
Al      14.21915437      11.18330501       6.90743860
Al      13.53090238       9.73988162       9.05086144
Al      13.57370500      14.55091420      14.98633168
Al      13.56012153      11.08055139      11.70800142
Al      12.54562730      13.26726958       7.09162952
Al      11.41867201      11.60076836       9.90311542
Al      12.53093722      13.64961698      11.43397299
Al      11.82270565      16.35114201      10.93279073
Al      13.30389595       9.59150800      14.44486492
Al      12.58767710      13.32858908      17.06381055
Al      13.04740938       8.23347436      11.15550185
Al      12.26358125      12.21144412      13.80838740
Al      10.96809962      14.22740193       9.18722136
Al      11.65694580      10.58246028       7.37863466
Al       9.92427620      12.68531650       7.36254772
Al      11.86715789      10.89646162      16.38949103
Al      11.03245670       8.90371521       9.30675606
Al       9.35405805      10.11518531      11.03840938
Al      11.33003934       9.90668415      12.65426693
Al      11.95901739       7.29736090      13.38294429
Al       8.99879569      10.33567364       8.11405992
Al      10.35064569      13.43491574      15.47206258
Al      11.26985511      15.03685838      13.41258518
Al       9.89417779      12.48025597      12.64684786
Al       9.48638084      14.99325414      11.30981805
Al       8.88343654      12.61942759       9.81777917
Al      10.91989727       8.63758353      15.40809281
Al      10.11193815       7.47289422      11.33078668
Al       8.22860235       8.10066838       9.27833590
Al       9.54996992      10.87533417      14.76943521
Al       6.96624182      10.75372638      10.16347128
Al       7.80098892      12.84449054      14.47640996
Al       8.93958352       8.47760472      13.61830167
Al       7.35430480      13.39890116      11.86373639
Al       8.60768643      15.31468967      13.86383788
Al       7.38695629      10.71596047      12.97715160
Al       7.11248669       8.41226901      11.64768221
50
Properties=species:S:1:pos:R:3 config_type=qcd gap_pre_relax_energy=-159.5587627841017 gap_pred_energy=-160.0880315517771 gap_fmax_final=0.0006675539446609484 gap_converged=1 pbc="F F F"
Al      16.98800659      12.79912656      14.36805352
Al      16.19707932      11.15508836      12.51029526
Al      15.15438731       9.54417372      10.70861643
Al      15.50883152      12.18598857      10.17585920
Al      15.34926669       9.01620535      13.71793148
Al      15.02726428      13.65454636      12.72453519
Al      13.69918280       7.66441748       9.41669097
Al      15.22332955      13.50936274      16.23134767
Al      15.24438821      14.81464382      10.19372831
Al      16.24745951      15.49152789      14.46487906
Al      13.36899154      10.27821155       8.85858340
Al      14.02190029       7.26195780      12.29399494
Al      14.33945850      11.22433133      14.88453385
Al      13.52305104      11.17343925      12.20618832
Al      14.62875113      17.43256445       9.95175216
Al      14.49703259      16.30325230      12.44338822
Al      13.42768688      12.98878341       8.64548870
Al      13.50972533      15.15663120      14.88098644
Al      12.23333462       9.11801886      11.13382961
Al      12.50573632       5.65072314      10.81649627
Al      12.69885298       9.06968522      13.82102258
Al      12.84326404      14.07456147      11.24456307
Al      12.68816125      12.92641859      16.66647863
Al      13.05913432      15.62742210       8.65576851
Al      12.24248106      12.93477223      13.75894425
Al      12.13811542      16.96497419      10.92025930
Al      11.46700140      11.56581425       7.48982132
Al      11.55282552      10.64243043      15.56075363
Al      11.30218833      14.20223397       7.19404729
Al      11.18735571       7.07431905      12.69108214
Al      11.50476689      12.00779005      10.25379101
Al      10.74518820       7.31545496       9.72219628
Al      10.07639059      12.35864860      16.98615028
Al      10.70186276      14.88268767       9.71589695
Al      11.53032812      15.76881032      13.25609380
Al       9.91563599       8.54772109      14.52486427
Al      10.82917575      14.62399319      15.61475012
Al      10.28799899      13.64785958      12.05194820
Al      10.82073215      10.70847861      12.82049378
Al       9.26069742      12.63608145       8.58957483
Al       8.59520917      10.39288631      15.99698488
Al      10.26185173       9.86682574       9.12450036
Al       9.39227323      12.46289721      14.34651587
Al       8.12131139      10.27973028      13.27499762
Al       8.92388137      11.38299982      10.94654499
Al       9.33252567       8.74892190      11.46452371
Al       9.50223873      16.39250751      11.62040472
Al       8.76035724      15.04367333      13.80771697
Al       8.19261503      14.29240386      10.47363395
Al       7.25394679      13.01723412      12.66172900
50
Properties=species:S:1:pos:R:3 config_type=qcd gap_pre_relax_energy=-159.67237236691585 gap_pred_energy=-160.10193162853056 gap_fmax_final=0.000918051451894251 gap_converged=1 pbc="F F F"
Al      11.32964170       6.57684581      10.47568275
Al       8.98107935       7.84842676      10.08455000
Al      13.52448026       8.09692998       9.97787698
Al      13.21054296      10.30863157       8.53755790
Al       8.46579626       9.80004152       8.31186369
Al      10.53655231       6.99347609      13.21653380
Al       8.21795967       8.30003311      12.61500324
Al      10.16976850      13.59357466       6.69085167
Al      11.06022445      11.45150222      10.04490450
Al      12.66383049      12.82945628       7.95640489
Al      10.57020426      14.41728240       9.45826064
Al      17.00281732      13.94461236      12.55603869
Al      13.12472457       6.85408658      12.50301365
Al       8.59344860      10.42920961      10.95442646
Al      15.01234252       8.81659904      12.49416893
Al      15.63032631       9.74829870      10.05629481
Al      12.54373422       9.13624440      13.72184103
Al      10.94170050       9.07391514      11.50602908
Al       7.84199443      10.84442532      13.50082558
Al      13.21285917      10.50942103      11.47792746
Al      11.18660934       8.59415249       8.67884908
Al      14.72088237      10.52034586      14.64186890
Al      12.06088409      10.59838562      15.91098002
Al      15.21341527      12.07617151       8.68593901
Al       9.07525203      11.46507234      15.83300974
Al      10.00157940       9.24922126      14.58349108
Al      11.14326770      12.54250132      17.61182571
Al      13.41400395      12.97630477      10.60395015
Al      13.24462493      12.45504073      13.31893523
Al      13.48978209      12.89914225      16.27991611
Al       8.70897860      12.45011029       8.74381670
Al      10.56518484      11.32258647      12.88457752
Al      15.48234599      13.16116928      14.53416096
Al      11.14233128      13.05970907      14.83741887
Al      15.58951018      11.77828236      11.89705240
Al      10.80179498      10.91306184       7.40592293
Al      11.37362106      13.85663084      12.08018582
Al       8.53845117      13.63423158      13.81573280
Al       9.06713167      14.18383320      16.38561655
Al      15.80129913      14.24990093      10.21489529
Al       8.80495543      13.07121515      11.29052751
Al      14.43463306      14.94369519      12.38394013
Al      11.64096024      15.22632950      16.82864414
Al      13.26265244      15.13033026      14.67995031
Al      12.08123408      15.38028227       7.40488425
Al       9.50201262      15.71492758      11.65833168
Al      10.50893510      15.66475522      14.31493262
Al      14.72897667      14.69507204       7.73842446
Al      12.11884166      16.49356465      12.25606634
Al      13.21306352      15.67220424       9.90734068
51
Properties=species:S:1:pos:R:3 config_type=qcd gap_pre_relax_energy=-162.9525279018265 gap_pred_energy=-163.55259785920643 gap_fmax_final=0.0009303479708517225 gap_converged=1 pbc="F F F"
Al      13.26008362       9.91446650      16.43991827
Al      11.69341395       8.42990392      14.84615937
Al      14.52966930       8.60091326      14.40272617
Al      10.86845597      11.18431951      16.73574864
Al      15.76890372      10.80402826      16.12222266
Al       9.52878488      10.10848363      14.61377442
Al      10.42733300       7.73049249      12.50067424
Al      13.60496540      12.52130491      16.08711589
Al      12.97694077       7.02035421      12.87405177
Al       8.16767820       9.08482071      12.58290389
Al      14.48192008      11.20166922      13.83011351
Al      15.78901730       9.97833317      11.97582280
Al      11.84860247      11.47075857      14.17547022
Al      11.48921549      13.99324347      15.64764004
Al      15.83834792      13.27788475      14.87090935
Al       9.26539206       8.56174295      10.17622612
Al       7.62830640      11.71569231      12.95678089
Al      12.13418397       7.46392528      10.30210144
Al       9.24749497      12.75199035      14.92583783
Al      10.24589662      10.70090690      11.82918461
Al      15.85509659      12.92644159      12.25895467
Al      11.93268735      10.09796978       9.57252691
Al      14.48302515       9.24063344       9.86158367
Al      12.72989396       9.58967626      12.32198547
Al      13.96191731      15.16919663      15.50868881
Al      13.67286305      11.77757870      11.00536528
Al      16.02485078      12.05875037       9.70242058
Al      10.97403082      13.40545963      12.62887247
Al      13.47186965      13.53480534      13.48315959
Al      15.01227398      15.54864519      12.78285255
Al      13.25496659       8.37996948       7.63985575
Al       7.46433294      10.56727016      10.42025775
Al       7.96844619      14.46557349      12.67690053
Al      14.05625704      11.11596597       7.97341042
Al       9.68206836      11.08363135       8.48652821
Al       6.16644379      13.14539613      11.08381614
Al      15.93023366      14.89162227      10.33542993
Al      12.41281826      16.04652314      13.44182398
Al      11.53182089      12.73137122      10.02004457
Al       9.02694180      12.80127511      10.81567687
Al      11.61025402      10.32506511       6.73702652
Al      10.60144140       8.20421128       7.99360231
Al       9.88765074      15.44166165      14.09959279
Al      14.11046456      13.69264081       8.73607355
Al      11.89212014      12.84945918       7.38035154
Al      12.96724523      14.70744188      11.13833028
Al       7.19577620      12.60107389       8.53119374
Al      10.37401271      15.50351704      11.03823709
Al       7.91870208      15.10156283      10.05701751
Al       9.65644470      13.84347000       8.40723704
Al      11.99375691      15.25221965       8.58111428
51
Properties=species:S:1:pos:R:3 config_type=qcd gap_pre_relax_energy=-162.76304321958463 gap_pred_energy=-163.32394729278323 gap_fmax_final=0.0009029684862603278 gap_converged=1 pbc="F F F"
Al      14.20571232      12.25658933      16.35887618
Al      11.28688968       7.96569472      16.07615571
Al      12.58840811      10.20092428      16.06501623
Al       9.69057518      10.11494814      15.73616994
Al      13.12265507      14.64843558      15.72592606
Al       9.27839745       7.54836783      14.24826266
Al      15.32433135      10.57856174      14.56607568
Al      11.34908576      12.49246209      15.58478547
Al      13.86226522       8.37997162      14.33981916
Al      15.03598516      13.21483845      13.93541564
Al      12.14665667      16.88207954      14.50942711
Al       8.64654749      12.47603121      14.88961547
Al      10.34446460      14.92928991      15.25904851
Al      11.27362866       9.24306454      13.58677814
Al      12.08044870       6.46139545      14.07376378
Al       8.31370455       9.85422141      13.38727525
Al      12.93339726      11.40433194      13.70969304
Al      16.38576074      11.55748492      11.97426266
Al      12.07066696      13.93870163      13.30823816
Al      14.29772636       9.71180143      12.05490676
Al      10.23329817       5.85461960      12.29074154
Al      10.39029715      11.88278032      12.92200189
Al      14.18411701      15.68921610      13.21440812
Al      12.38754835       7.65003400      11.68647726
Al       9.27091975      14.33177505      12.83899300
Al       9.60767311       8.31331555      11.50931425
Al      15.36690982      10.43867570       9.66513210
Al      16.15168573      14.32428760      11.77400952
Al      13.81133585      12.47815240      11.40933000
Al       9.71367723      16.99140263      13.41397009
Al       7.51603680      12.20932383      12.45421585
Al       7.80931386      10.02925924      10.55823265
Al      11.59138334      13.58701526      10.47634550
Al      11.87678210      16.13355140      11.71151871
Al      13.09068419      11.58597234       8.83575060
Al      11.68932755      10.54597013      11.15541591
Al       7.51571363      14.27234438      10.80079687
Al      12.95304577       8.87230532       9.45358162
Al      13.95000323      15.27897763      10.25723479
Al      15.27148768      12.14994554       7.09522456
Al      15.63256027      13.28358732       9.39455424
Al       9.37029561      12.17970662      10.32102765
Al       9.31810349      16.35164932      10.80708607
Al      10.73610996      12.40622208       7.86592296
Al       9.35499468      14.42366922       8.84513684
Al      13.27855380      14.14161048       7.82812480
Al      10.07279380       9.78203443       9.17696627
Al      11.60490789      15.90118837       9.02568390
Al      12.80302410      12.08368934       6.11258580
Al      11.58087227       9.91665676       7.06901966
Al      14.26383646       9.68646621       7.27628529
52
Properties=species:S:1:pos:R:3 config_type=qcd gap_pre_relax_energy=-166.00285985369763 gap_pred_energy=-166.80306308146902 gap_fmax_final=0.0009198151984534168 gap_converged=1 pbc="F F F"
Al       8.35814009      11.75804822      15.65288510
Al       6.72759268      11.46174285      12.16060567
Al       8.22837824      12.79832742      10.41448703
Al       6.81216325       9.96776660      14.40854342
Al       7.50180515      10.26022320       9.64211246
Al       7.92896029      13.57773268      13.28525017
Al      10.03492699      13.63476794      14.92944645
Al       9.60140249      15.70805392      13.42639653
Al       9.39665369      11.66169016       8.25670257
Al       9.02375879      15.25697050      10.81205983
Al       9.91306340      17.65543429      11.60120771
Al      10.95180685      11.10341293      15.41312590
Al       7.88894499       8.94064226      12.22654451
Al       9.22055088      11.15903966      13.23105155
Al       9.90126091      10.36912681      10.77163849
Al       9.26428546       9.02865858      15.01693547
Al      10.23331992       9.04025141       8.08009647
Al      10.58832028      13.08364340      12.22618259
Al      12.21435856      14.63638343      13.65796673
Al      12.06063646      17.24772843      13.06596654
Al      10.82309103      13.46396145       9.66208134
Al      11.84786693      10.60458852      12.64488105
Al      12.36330911      13.35049698      16.08606706
Al      11.79413223      15.72400047      10.88343660
Al       8.88824329       7.84669145      10.07899864
Al      10.46795208       8.27702657      12.50673992
Al      11.96690374       8.64781446      14.80404260
Al      13.50621039      12.21021354      13.75764719
Al      12.01576289      10.96815252       6.85593681
Al      13.01754630      13.01859310      11.15076372
Al      13.50052384      10.85322213      16.09843313
Al      10.98614896      13.48676864       6.95959894
Al      11.63755880       7.81572686      10.14074306
Al      12.38154683      15.34963568       8.28452573
Al      12.20558313      10.71341966       9.62432717
Al      13.13819144       8.20670572      12.43471974
Al      14.66398513      14.52801927      14.81361695
Al      14.29067291      10.56452033      11.45854609
Al      12.85217459       8.63884875       7.86941431
Al      14.80846920      13.02232324      17.08061625
Al      14.37436147      16.15339425      12.44669931
Al      13.37974871      12.88140980       8.22083511
Al      14.80474316       9.61237716      14.12505825
Al      15.97376555      11.91189563      14.93807614
Al      15.46534433      13.68097406      12.31328317
Al      14.72726837      10.57242459       8.19635252
Al      16.11303452       8.41377972      12.05041734
Al      14.52509729      15.00214844       9.99666431
Al      14.46462199       8.17413093       9.89454188
Al      15.71320921      12.61951849       9.85034313
Al      16.76935961      11.21798555      12.48839773
Al      16.70100265      10.13734637      10.02274864
52
Properties=species:S:1:pos:R:3 config_type=qcd gap_pre_relax_energy=-166.5181255858461 gap_pred_energy=-167.2642910362125 gap_fmax_final=0.0009376210930325701 gap_converged=1 pbc="F F F"
Al      13.98951043      15.25703462      15.08358885
Al      15.41680366      14.60083060      12.79630412
Al      11.68119746      16.95126955      14.74062276
Al      12.45157802      16.10127573      17.14708592
Al      12.27301710      16.60246471       9.96325650
Al      11.01689296      17.97114135      12.22251611
Al      15.95438102      11.73179835      12.37400792
Al      16.81482720      13.66462424      10.59835900
Al      13.00888972      16.01422963      12.52066074
Al      14.24620518      14.83350982      10.36225524
Al      14.47789743      12.68369806      14.43770188
Al      14.53448960      12.07570558       9.63742233
Al      17.27248031      11.05913131       9.94995855
Al      11.86193457      13.56936111      13.99823106
Al      16.30113327       8.97316011      11.68100769
Al      13.33455221      12.74543363      11.98566994
Al      12.94741466      13.77703825       8.25735822
Al      10.60289252      15.17932564       8.37588136
Al      10.46630388      14.67419572      16.08917366
Al      12.84882402      13.48735622      16.83202171
Al       9.97143448      15.56031015      13.22206501
Al       9.52545078      16.21724826      10.59927001
Al      14.97509199      10.01376175      14.14123478
Al      15.24886150       9.50374823       8.92404484
Al      11.46553955      14.29831136      11.03022534
Al      13.65428530      10.04737540      11.37947434
Al       8.18601471      13.98292946      12.03022913
Al      13.48714088       8.38561000      15.64578746
Al      12.23922993      10.65097981      13.81956407
Al       9.33066679      13.30426634       9.77990605
Al      13.48086808      10.99032929      16.19981385
Al      14.39295811       7.48721087      10.48837403
Al      13.17775641      10.98390022       7.53135792
Al      11.65516519      11.56843277       9.85700345
Al      10.72178714      11.95017516      16.18903272
Al      10.92805417       9.63369266      11.58137192
Al       9.16914880      13.20519154      14.37632292
Al      10.22984689      12.11860178      12.14167103
Al      10.60615154      12.60038938       7.53118837
Al      14.05390458       7.71066767      13.12625057
Al      11.25351247       7.94614915      13.75436541
Al       6.95576378      12.10807799      10.53552892
Al      12.47747590       8.71564580       9.00680956
Al       9.49475438      10.10169712      14.04585242
Al       7.57477188      11.59295275      13.08022728
Al      11.07744041       9.35559085      16.05431755
Al       8.66128374      10.91182237       8.80940978
Al      11.85110680       7.06061042      11.22700377
Al      10.70970710       9.94750547       7.41847430
Al       9.81206274       8.30884647       9.47120175
Al       8.15304379       9.68989947      11.24300871
Al       9.26556286       7.38255374      11.99359712
53
Properties=species:S:1:pos:R:3 config_type=qcd gap_pre_relax_energy=-169.19467141771594 gap_pred_energy=-170.4058587775664 gap_fmax_final=0.0009039545020054689 gap_converged=1 pbc="F F F"
Al      13.34473076       9.69219890       7.17132718
Al      12.62231812      14.03222351       7.16685271
Al      14.74004987      12.22826382       7.17979568
Al      11.73957949      11.66529981       6.44660652
Al      10.54288603       9.88725401       8.14318773
Al      10.11503954      12.84459655       8.31506179
Al      14.97730657      10.12742397       9.22300314
Al      12.60486964       9.08344782       9.98173552
Al      16.10944910      12.47578753      10.04468087
Al      12.70973712      11.81607875       9.06010127
Al      14.21856265      14.32334088       9.23929457
Al      11.16935408      15.26574083       9.06272996
Al       8.06718142       9.09457119       9.25193756
Al       8.16895818      11.71306050       9.71167797
Al      12.59309658       7.07687411      11.76481193
Al      10.69130956      11.25636050      10.65175064
Al      14.96309255       7.88960643      10.87362512
Al      16.24864272      10.18661210      11.56957379
Al       9.33859779      13.91530789      10.68315744
Al      17.02752272      12.51174667      12.65668021
Al      10.22776521       8.18909388      10.50450403
Al      13.09515188      15.88436579      11.03917778
Al      13.82164578      11.29935093      11.56096106
Al      12.13713624      13.43319126      11.17895361
Al      14.80207457      13.98987974      11.85650193
Al      10.17851501      16.40651938      11.25246039
Al      10.15773354       6.16872595      12.30560013
Al      14.00345038       8.86712666      13.16839350
Al       7.81717587       7.28197350      11.29679855
Al      17.28952283      12.27788054      15.36149684
Al       8.55044735      10.01134747      11.76325104
Al      11.49087774       9.76555706      12.61125556
Al      15.61990702      14.08385997      14.40609344
Al      11.39753013      14.96852066      13.42377580
Al      13.16704775      12.65677752      13.69179291
Al      15.47595722      10.72095270      14.19294377
Al       8.63675095      14.58877257      13.16789314
Al       7.41150196      12.35635903      12.48444992
Al      14.03753077      16.03400361      13.70384918
Al       9.45258911      17.04606444      13.82940240
Al      12.95051775      10.28767758      15.23942804
Al      10.28013560      12.39413756      13.08546299
Al      12.07850297      17.59063304      12.79500086
Al      12.93510084      14.52442962      15.86246706
Al      11.67533258       7.71881953      14.28996313
Al       9.07416757       8.20772996      13.63856934
Al       7.73890346      10.37459508      14.35086118
Al      11.72334727      16.89908552      15.45120045
Al      14.50197632      12.33097421      16.18653595
Al       9.88031264      14.95270803      15.76694826
Al      10.32083651      10.10096674      15.08826751
Al      11.29195384      12.42959777      15.68773484
Al       8.46961002      12.75582014      15.24370699
53
Properties=species:S:1:pos:R:3 config_type=qcd gap_pre_relax_energy=-169.4170341115707 gap_pred_energy=-170.37660397805146 gap_fmax_final=0.0009538522963256841 gap_converged=1 pbc="F F F"
Al      12.51807612      11.13569405       7.52846353
Al      13.24542983       8.80902562       8.97490875
Al      15.35037368      10.30087648       8.20978753
Al      10.69820940       9.15296277       8.02333820
Al      10.83609460       7.74512689      10.27958949
Al      17.16297928      12.28167009       7.76901538
Al      13.20939275       7.76663390      11.72527238
Al       9.86567478      11.70032902       7.95152183
Al      14.51809954      13.01794964       7.45686831
Al      15.21678402       9.21972747      10.87321420
Al      13.91889255      11.64544263      10.02267681
Al       8.74876967       9.63870954      10.36620731
Al       8.68932518      12.33203508      10.26747135
Al      16.84959523      11.27585463      10.29018552
Al      11.05178574       6.39402012      12.75003047
Al       9.24175117      14.35811124       8.23415073
Al      12.76537369       8.42823939      14.26933782
Al      11.44133670      10.57355698      10.18656612
Al      15.67083228      11.15300225      12.65696899
Al      11.82697931      13.79917249       7.35499475
Al      16.02591360      13.82542637       9.65952679
Al       8.53745379       7.82928570      12.46432457
Al      13.07611502      10.64426285      12.35332675
Al      10.75485558       9.37114927      12.45563132
Al      14.05399875      13.44698966      11.92896690
Al      11.23721536      13.15558748       9.90824528
Al      10.16200215       8.01188055      14.82724567
Al      16.71307904      13.60765589      12.37926863
Al      14.12485302      10.63969785      14.81952291
Al      13.49630899      14.77390245       9.39269077
Al      15.44913976      15.78845265      11.31300850
Al       8.98681606      14.90070068      11.10932403
Al      11.08976355      15.91739261       9.73983187
Al      10.50885788      12.15691239      12.54740368
Al       8.30973028      10.43600880      13.34044375
Al      11.33319969      10.65267366      15.07364521
Al      11.61151479      14.56110295      12.05198556
Al      15.28451600      13.07510646      14.63112749
Al       7.91250542      13.00674442      12.70077138
Al       7.53128859       8.36977918      14.89955264
Al      12.40797425      13.10377747      14.20579100
Al      14.43961437      15.54461029      13.76620207
Al      13.00903082      16.76819863      11.55886915
Al      13.18107960      12.14439294      16.75498083
Al       8.85583612      10.25532745      16.22020607
Al      10.37560498      16.93249019      12.24118305
Al       9.47601289      14.92244255      13.75066389
Al       9.27563024      12.48154717      14.90765530
Al      13.39454129      14.93841480      16.14375107
Al      10.49639557      11.91630913      17.52004771
Al      11.81650037      16.14740255      14.29967345
Al      10.68251113      14.45086681      16.08282350
Al      12.08688474      14.01786710      18.28423897
54
Properties=species:S:1:pos:R:3 config_type=qcd gap_pre_relax_energy=-173.4805905540125 gap_pred_energy=-174.21919562841842 gap_fmax_final=0.0009241981871682158 gap_converged=1 pbc="F F F"
Al      15.24291332      10.05602729      12.10838432
Al      13.55253355      11.96673586      10.92017522
Al      13.35764502      11.81273835      16.41160073
Al       7.42118019      12.68352198      10.48978486
Al      14.90471674      13.92490917      15.21914448
Al      15.01735382       9.84659322      15.01604591
Al      11.88592959      13.93252816      12.52178089
Al      12.27866056       9.61577338      14.94129777
Al      10.56881711      15.80492170      14.20581191
Al      16.54481501      12.32486266      11.10540659
Al       8.12288017      10.75837028      14.69971574
Al       9.80087639       8.72143577      13.20319395
Al       9.25564727      13.93438003      12.23289431
Al      12.23158995      13.14423385       8.84158241
Al      16.08116487      14.93289687      10.44251717
Al       8.75447221      10.70282712       9.30434693
Al      12.35388485       9.96125163       9.40310353
Al       9.42050711      13.12727913       8.30055279
Al      13.34845924      11.84684121      13.58066498
Al      15.07795931      13.07472963       8.69266176
Al      10.96934917      11.23507699       7.33560412
Al      10.63095074      12.05739172      10.70713209
Al       8.95165442      13.35025601      15.20946706
Al       6.95552811      12.87177346      13.33936264
Al      14.17581527       7.94127736      10.84495317
Al      14.45099120      14.02003184      12.52554456
Al      16.33943886      12.11277418      13.78826486
Al      13.24434577      15.82969231      14.35039528
Al       8.62741016      10.79096035      11.97933212
Al      14.92755270      16.69090687      12.19057695
Al       7.82000064      15.60139748      14.10861119
Al      13.41564494      15.23552983      10.18056736
Al      17.00242429      14.69637327      13.08441246
Al      11.69288802      13.65435012      15.34011305
Al       8.28662327      15.15704172       9.65006905
Al      13.77880730      11.12047636       7.36775266
Al      10.50583904      11.47385885      16.38265617
Al      12.01467231      16.91126255      12.12290970
Al      13.84094761       7.83303655      13.53194799
Al      10.28818164       8.80993182      10.65266556
Al      15.41446681      10.51269814       9.50302349
Al      10.83499690      14.93050481      10.22082883
Al       9.28811560      16.63841487      11.78954148
Al      10.65037245      11.71960569      13.53182697
Al      12.41259480       9.80163837      12.15206510
Al      14.37124028       8.44622172       8.20711693
Al       9.86850197       8.87290856      15.89870748
Al       9.99274937       8.72773930       8.02898596
Al      12.08252958       7.23187159       9.15214659
Al      11.37371232       6.97633680      14.60279561
Al      11.81367491       6.80857761      11.85113036
Al      12.28208484       9.00704385       6.71182169
Al       6.62176199      15.12951736      11.73995216
Al      16.07347440      11.85201241      16.49840106
54
Properties=species:S:1:pos:R:3 config_type=qcd gap_pre_relax_energy=-172.95386974493422 gap_pred_energy=-173.57399678228686 gap_fmax_final=0.0009348692544118716 gap_converged=1 pbc="F F F"
Al      13.29424266      12.92428213      14.67285080
Al      13.01408740      12.92428213      17.67017908
Al      10.54481874      12.92428213      15.88570337
Al      10.57389721      12.92428213      12.92428213
Al       8.20605829      12.92428213      14.50775904
Al      16.52166811      12.92428213      14.89223142
Al       5.80992264      12.92428213      12.92428213
Al       9.01800529      17.24682224      12.92428213
Al      13.29424266      12.92428213      11.17571346
Al      13.01408740      12.92428213       8.17838518
Al      12.25900210      10.77727035      15.93052779
Al      14.85737480      11.33153420      16.43690674
Al      14.85737480      14.51703006      16.43690674
Al      12.25900210      15.07129391      15.93052779
Al      10.54481874      12.92428213       9.96286089
Al      12.25900210      15.07129391       9.91803647
Al      14.85737480      14.51703006       9.41165752
Al      14.85737480      11.33153420       9.41165752
Al      12.25900210      10.77727035       9.91803647
Al      12.32067336      10.88437355      12.92428213
Al      15.21218182      11.53493003      12.92428213
Al      15.21218182      14.31363423      12.92428213
Al      12.32067336      14.96419071      12.92428213
Al      11.59029763       8.62215185      14.50861449
Al      16.77121920      10.11045501      14.80101166
Al      16.77121920      15.73810925      14.80101166
Al      11.59029763      17.22641241      14.50861449
Al       8.20605829      12.92428213      11.34080522
Al      11.59029763      17.22641241      11.33994977
Al      16.77121920      15.73810925      11.04755260
Al      16.77121920      10.11045501      11.04755260
Al      11.59029763       8.62215185      11.33994977
Al      14.17786173      16.32721962      14.44380109
Al       9.74915386      15.10643673      14.38997507
Al       9.74915386      10.74212753      14.38997507
Al      14.17786173       9.52134464      14.44380109
Al      16.52166811      12.92428213      10.95633284
Al      14.17786173       9.52134464      11.40476317
Al       9.74915386      10.74212753      11.45858919
Al       9.74915386      15.10643673      11.45858919
Al      14.17786173      16.32721962      11.40476317
Al      10.73397700       6.63483075      12.92428213
Al      18.35396107       8.92626991      12.92428213
Al      18.35396107      16.92229435      12.92428213
Al      10.73397700      19.21373351      12.92428213
Al       7.39069540      10.73012349      12.92428213
Al      13.36061779       7.11771006      12.92428213
Al      18.10727892      11.61205875      12.92428213
Al      15.87562306      17.88135650      12.92428213
Al       9.01800529       8.60174202      12.92428213
Al       7.39069540      15.11844077      12.92428213
Al      13.36061779      18.73085420      12.92428213
Al      18.10727892      14.23650551      12.92428213
Al      15.87562306       7.96720777      12.92428213
55
Properties=species:S:1:pos:R:3 config_type=qcd gap_pre_relax_energy=-177.03588958297206 gap_pred_energy=-177.67055448947107 gap_fmax_final=0.0009773073642162626 gap_converged=1 pbc="F F F"
Al      15.98338983      12.54576102      10.64329169
Al      12.38960749      15.67647848       9.30445117
Al      15.01214465      10.31648728       8.77211218
Al       9.70804970      15.47357274       9.68907249
Al       8.48595827      13.28705093      11.35658740
Al      12.54196794      18.44740618      13.02853790
Al      11.34563281       9.70185079      15.80978671
Al      13.83626020      12.89804446       9.15830848
Al      16.57783961       9.85935550      10.87399032
Al      13.05279999      11.06861335       7.14095016
Al       9.44493031      15.37309971      12.84685587
Al       7.92149143      10.95336834      10.07679420
Al      14.37159737      16.43153671      13.37291775
Al       8.50543611      10.72437629       7.51384031
Al      10.57604437      11.87206723       6.09004928
Al      12.31759674      15.16667430      12.00660879
Al      15.79578867       7.96366955      13.14147842
Al      18.10208409       9.36771183      12.94931978
Al      13.68096705      12.87748924      12.19817034
Al      14.42039568       8.28391684      10.83878713
Al      17.15298450      11.89875095      12.97615902
Al      13.24029232      14.28478454      14.46896366
Al       7.22546173      10.96370663      12.58841651
Al      16.48987714      10.13086097      14.99176668
Al      11.58424680      13.65883981       7.83154117
Al       9.47529163      12.06886762      16.40784921
Al       8.39491607      13.28525683      14.09078381
Al      10.78160844      17.25475819      11.38608762
Al      12.02053356      10.47133982      13.28976388
Al      10.17526403      10.92668209      11.52860841
Al      13.67653280      17.36328174      10.83277271
Al       9.47163145      10.69521444      14.07679420
Al       7.10525232      11.32373760      15.25463826
Al       8.93020340      13.23853095       8.50940257
Al      10.33126875      14.43022017      15.59419734
Al      14.88029937      14.94104769      10.75582589
Al      12.19687195      12.24886991      15.73675290
Al      10.37488084       8.08366030      13.80589101
Al      13.09308344       7.95670907      13.34666394
Al       9.44874283       8.72169173       9.20053204
Al      10.81827271      11.15831280       8.83552809
Al      10.94444283       9.17983988       6.94557029
Al      11.42912212       8.41761423      11.23050936
Al      11.13462033      13.24562779      10.54537536
Al      16.02618667      14.29152609      13.22385066
Al       7.59596186       8.73628300      14.10101124
Al      14.86228167      12.31695042      15.04122305
Al       8.79318529       9.43947954      16.41179024
Al      12.88303012      10.87387059      10.68219482
Al       8.51332294       8.77954802      11.64370312
Al      13.95057576       9.60309176      15.42051936
Al      12.68778114       8.85410104       8.93875576
Al      14.67707542      10.42817578      12.84202037
Al      10.97515548      12.98602121      13.28612708
Al      11.54234751      16.40680347      14.31908749
55
Properties=species:S:1:pos:R:3 config_type=qcd gap_pre_relax_energy=-176.84216055056507 gap_pred_energy=-177.56137999007032 gap_fmax_final=0.0009894144027902307 gap_converged=1 pbc="F F F"
Al      11.81243265      11.75087060      13.92202427
Al      13.13236681      11.53935965      11.53338806
Al       8.75363880       9.64785024      15.55056906
Al       7.40195145       9.71738954      13.28935584
Al      11.46787650      13.86711274      12.49945368
Al      14.69148881       9.24807549      15.47055761
Al      10.50899110      14.25662453      14.97065883
Al      14.71158961       9.23510394      10.95374383
Al      10.33261425      11.72207122      16.44129903
Al      13.15593441       9.51949206      13.25262718
Al      14.55970745      14.00086491      12.51539702
Al      13.35186711      11.45961845      16.40729126
Al       8.68227201       7.28439274      12.90833168
Al      16.16452289      11.58414972      11.49731822
Al      11.62216427      14.20832037       7.80156576
Al      14.52383321       7.21435245      13.05818913
Al       8.71340045      11.67497007       9.38021401
Al      13.12786319      12.03413447       6.96592933
Al      10.22166902       9.69274243      13.25010228
Al       9.86239780       9.43788051       8.63585546
Al      10.21511341      12.02094049       6.93118861
Al       8.80511536      12.00238912      14.16271802
Al      11.77212502      11.51292173       9.23268229
Al       8.76582824      14.23161619       7.65797356
Al      11.73334755       7.23906416      12.79505633
Al      15.81624271      14.08498085      10.08428489
Al      11.71408698       9.72879362       6.71177352
Al      14.67396759      11.64758179      13.78877679
Al      10.10742674      13.86159532      10.10968142
Al      14.40782509      14.39330665       7.73734328
Al      13.23917769      13.99104672      14.76844389
Al       7.26838117      13.83981667       9.91012472
Al      12.72275875      16.18434374      13.27659640
Al      16.12733897       9.38949109      13.18402524
Al      13.64491461       9.43473492       8.55405899
Al       9.97310256      16.36268453      13.26378156
Al      10.28723887      11.71787191      11.57560724
Al      11.74797748       7.53756070       8.31320338
Al      11.38326058      16.12052217      10.92851996
Al       8.72675681      14.07052301      12.55064539
Al      13.03346008      13.80710507      10.17558522
Al       8.59356305      16.04083820      10.72525593
Al      11.87620327       9.30752971      10.80260811
Al      14.71979533      11.80293103       9.17322654
Al      14.26555664      16.15479953      10.94228695
Al      13.21120932       6.90843327      10.50690828
Al      12.91959591       7.17112845      15.20225683
Al      10.15374436      16.41675561       8.53814886
Al       8.72247458       9.50674375      11.01065573
Al      10.18535333       7.30830179      15.17068828
Al      12.94736566      16.57838595       8.58617135
Al       7.21161136      11.87894486      11.74146097
Al      11.65470854       9.53929738      15.56797309
Al      12.03049533      13.68047882      17.11417701
Al      10.21711279       7.10398259      10.57505728
