3
Properties=species:S:1:pos:R:3 config_type=qcd gap_pre_relax_energy=-4.4946993036592575 gap_pred_energy=-4.535565910628731 gap_fmax_final=0.00023028680813012224 gap_converged=1 pbc="F F F"
Au       9.20613320       8.94504324       9.26134342
Au      11.42021150       9.07174484       8.01004313
Au       7.27333411       9.88289072      10.62829227
4
Properties=species:S:1:pos:R:3 config_type=qcd gap_pre_relax_energy=-6.803771897414811 gap_pred_energy=-6.821459599741764 gap_fmax_final=0.0006036778446984294 gap_converged=1 pbc="F F F"
Au       8.55944743      10.81415967       9.26378043
Au      10.12427943       6.00920539       9.19851112
Au       7.07349296       9.64026682       7.45268232
Au       8.91828825       8.21187619       8.76053421
5
Properties=species:S:1:pos:R:3 config_type=qcd gap_pre_relax_energy=-9.37890942233517 gap_pred_energy=-9.39319079699007 gap_fmax_final=0.00035242279915767257 gap_converged=1 pbc="F F F"
Au       9.31256793       6.25655191       9.82927108
Au       7.98460587       9.08234691       6.43958077
Au       9.58518568       7.11092624       7.32276896
Au       6.17866677      10.11610142       8.10000336
Au       7.69554456       8.19064431       9.06494663
6
Properties=species:S:1:pos:R:3 config_type=qcd gap_pre_relax_energy=-12.079111499966382 gap_pred_energy=-12.093312389123549 gap_fmax_final=0.0008904315492576154 gap_converged=1 pbc="F F F"
Au       7.43131435       7.37320457      10.38608796
Au       9.15808937       9.26057245      11.03044023
Au      10.52373516      10.55439192       8.95291043
Au      10.00055561       9.80703989       6.47782187
Au       8.66997721       8.53553250       8.36780542
Au      10.91848205      11.17141245      11.48708785
7
Properties=species:S:1:pos:R:3 config_type=qcd gap_pre_relax_energy=-14.373304016700377 gap_pred_energy=-14.392342965705428 gap_fmax_final=0.000983903398492285 gap_converged=1 pbc="F F F"
Au       5.74130675       6.48046750       8.61929800
Au       8.37799891       6.55095711       8.61929800
Au      10.99738844       6.74187703       8.61929800
Au       6.83497898       8.88116790       8.61929800
Au       9.63647999       9.00751918       8.61929800
Au       8.05282672      11.24020609       8.61929800
Au      10.69410622      11.43289119       8.61929800
8
Properties=species:S:1:pos:R:3 config_type=qcd gap_pre_relax_energy=-17.225879013644672 gap_pred_energy=-17.25754237365915 gap_fmax_final=0.0008132787111891579 gap_converged=1 pbc="F F F"
Au      12.46682550      12.48967694      11.08986886
Au      12.48916253       9.77722334      11.08152335
Au       9.77739081       9.75458354      11.15406164
Au       9.75507552      12.46721996      11.16310858
Au       7.51614995      11.09219825      11.21926357
Au      11.15204057       7.51509569      11.11075850
Au      14.72813967      11.15216864      11.02510320
Au      11.09267144      14.72928967      11.13376832
9
Properties=species:S:1:pos:R:3 config_type=qcd gap_pre_relax_energy=-19.54481886581656 gap_pred_energy=-19.596116814543855 gap_fmax_final=0.0005568893723448089 gap_converged=1 pbc="F F F"
Au       7.56797762       8.07590124       9.51865727
Au       6.44138934      10.49635405       9.52000672
Au       7.95309134      12.73608471       9.52047147
Au       9.13990984      10.29654851       9.51886957
Au      10.33361267       7.84276420       9.51738568
Au      12.97847537       7.78599409       9.51596587
Au      11.85735990      10.16253939       9.51773665
Au      10.64840606      12.54285043       9.51948276
Au       8.74566584       5.72685139       9.51731202
9
Properties=species:S:1:pos:R:3 config_type=qcd gap_pre_relax_energy=-19.656351313818142 gap_pred_energy=-19.70422849386504 gap_fmax_final=0.000710068071662154 gap_converged=1 pbc="F F F"
Au       9.53988720       7.16442194       9.46162368
Au       6.94454890       8.26767174       9.46162368
Au      11.64759020       8.75114014       9.46162368
Au      13.69004480      10.42509367       9.46162368
Au      11.30504553      11.55025055       9.46162368
Au       9.16193587       9.85964139       9.46162368
Au       8.82832537      12.54807242       9.46162368
Au       6.67071820      10.92380975       9.46162368
Au       7.36651700       5.66451149       9.46162368
10
Properties=species:S:1:pos:R:3 config_type=qcd gap_pre_relax_energy=-22.19416850703726 gap_pred_energy=-22.22465703539322 gap_fmax_final=0.000909267561555377 gap_converged=1 pbc="F F F"
Au       9.24183919      10.62391888      10.25396170
Au       7.76213422       8.36963664      10.07956119
Au       6.61099805      10.78836010       9.67091212
Au      10.71740322      12.92492639      10.42534033
Au      14.47410113      10.29673156      11.41418113
Au      13.32268944      12.71550251      11.00705091
Au      12.98013091       8.04333107      11.23548051
Au      10.36779058       8.16023329      10.65944465
Au       8.10512683      13.04161756       9.84857681
Au      11.84322808      10.46118367      10.83093234
10
Properties=species:S:1:pos:R:3 config_type=qcd gap_pre_relax_energy=-22.046468191092345 gap_pred_energy=-22.154545425157096 gap_fmax_final=0.0008034011567847869 gap_converged=1 pbc="F F F"
Au      11.39426323      10.33292690      11.66617123
Au       9.88265579       8.28337221      10.81555175
Au      11.52277528       9.68024820       9.02538199
Au       8.65900429       5.96475986      10.89520610
Au       9.27133700      10.92532542      10.13278919
Au      10.07735038       8.81659752       6.97629207
Au       7.19798954      12.27708762       9.26460942
Au       7.78830237      10.03912569       8.03069738
Au       8.39997266       7.39699332       8.71316920
Au       7.56996167       8.04717546       6.24374389
11
Properties=species:S:1:pos:R:3 config_type=qcd gap_pre_relax_energy=-24.792706243323178 gap_pred_energy=-24.808682132190594 gap_fmax_final=0.0009056766349579241 gap_converged=1 pbc="F F F"
Au       7.86427686       8.41261496      10.49561563
Au       8.57362685      11.09711830      10.37546987
Au       9.34200900      13.66382949      10.26132987
Au      11.20226439      11.71971312      10.36431751
Au      10.48415785       9.14702184      10.47907670
Au      13.14603150       9.79278415      10.46705005
Au      13.82783597      12.37272044      10.35178434
Au      11.96021171      14.31994701      10.24826815
Au       9.77219810       6.54483689      10.59545160
Au      12.38960190       7.22974871      10.58083606
Au       6.05157085      10.31345009      10.39458522
11
Properties=species:S:1:pos:R:3 config_type=qcd gap_pre_relax_energy=-24.991013377280265 gap_pred_energy=-25.014838105476766 gap_fmax_final=0.0009667709700687637 gap_converged=1 pbc="F F F"
Au      11.26714865       6.62169289       7.44713351
Au      10.22393460       9.02731723       7.46050461
Au      10.07537247       7.39518988       9.65098681
Au       9.15780055       7.24743856      12.17057134
Au       9.54071373      11.45129747       6.52816363
Au      10.07451113       9.61989760      11.30862250
Au      10.22307980      11.25216503       9.11793409
Au       7.67559668       8.58475998      10.37444214
Au       7.82417662      10.21721259       8.18406473
Au       5.51618257       9.47281876       9.18127227
Au      11.26486523      11.95359205      11.41968639
12
Properties=species:S:1:pos:R:3 config_type=qcd gap_pre_relax_energy=-27.703128808646216 gap_pred_energy=-27.705739240574378 gap_fmax_final=0.00040516399220800163 gap_converged=1 pbc="F F F"
Au      12.95564485       7.14987659       9.96657872
Au      10.54689531       5.90069620       9.96657872
Au      13.12941601       9.82359900       9.96657872
Au       8.42089730      10.03644167       9.96657872
Au       6.15529825      11.49695625       9.96657872
Au       8.26132334       7.29894702       9.96657872
Au      10.67891972       8.59300253       9.96657872
Au      13.19754226      12.50209385       9.96657872
Au      10.91136484      13.96355969       9.96657872
Au       8.50900012      12.77717990       9.96657872
Au      10.79992254      11.27027123       9.96657872
Au       6.03272013       8.78632073       9.96657872
12
Properties=species:S:1:pos:R:3 config_type=qcd gap_pre_relax_energy=-27.344592600956975 gap_pred_energy=-27.37538496792887 gap_fmax_final=0.0005390618575640898 gap_converged=1 pbc="F F F"
Au       8.55918846      10.53514322      11.18161961
Au      11.18223870      10.18474119       9.74334944
Au      13.80595704      10.53523072      11.18440303
Au      11.18365491      10.18620782      12.62311377
Au      12.55445657       8.18082065      11.18399503
Au       9.81116095       8.18101021      11.18453632
Au      12.51768080      12.58592584      12.63606711
Au       7.57806869      13.02565406      11.18075766
Au       9.84764264      12.58412622       9.72796909
Au      12.51834520      12.58347715       9.72909541
Au      14.78725668      13.02568516      11.18279106
Au       9.84695935      12.58458774      12.63491247
13
Properties=species:S:1:pos:R:3 config_type=qcd gap_pre_relax_energy=-30.08861931359361 gap_pred_energy=-30.160713763550646 gap_fmax_final=0.0008551306327346559 gap_converged=1 pbc="F F F"
Au      11.48106453      10.85678952       8.79160374
Au      11.35596855       9.58675520      11.21640329
Au      11.20996440      10.99642908      13.55115707
Au      11.46057613      13.49541730       8.71200057
Au      11.33506731      12.26536524      11.13207977
Au      11.19026873      13.63638225      13.46978906
Au      11.17267322      16.26300382      13.35760545
Au      11.31456408      14.98703005      11.04739112
Au      11.43846519      16.12390920       8.66453141
Au      11.50023958       8.18505281       8.91379419
Au      11.38195658       6.86690557      11.23613518
Au      11.25945377       5.71336801      13.60425849
Au      11.23073343       8.35458745      13.63424618
13
Properties=species:S:1:pos:R:3 config_type=qcd gap_pre_relax_energy=-29.81330097430147 gap_pred_energy=-29.902113689977668 gap_fmax_final=0.000993781847447056 gap_converged=1 pbc="F F F"
Au      10.05141888       7.26160820      10.86136720
Au      10.22913658      11.42859201      12.68768988
Au      11.44905105       9.59112917      11.12265307
Au       7.64244446       7.11840116      12.09809843
Au       9.83934760      11.70520038      10.05583378
Au       8.55206143       9.62567591      11.46499494
Au       7.54427254       7.86347066       9.50968606
Au      11.28873463       8.37770114       8.74647704
Au       8.79313955      12.81581692       7.85069516
Au       7.78366523      10.39390175       8.62149342
Au      10.40305103      10.70785544       7.44984587
Au       8.87030385       8.26929384       7.22092515
Au      11.30425644       8.59223666       6.06112326
14
Properties=species:S:1:pos:R:3 config_type=qcd gap_pre_relax_energy=-32.67293298776392 gap_pred_energy=-32.762757717068816 gap_fmax_final=0.0009395446946570527 gap_converged=1 pbc="F F F"
Au       8.96711177      11.40662603       8.44159349
Au       7.86810503      10.19241862      12.47731647
Au      11.25466795      10.33563056       7.35759880
Au       6.64458062       7.82437737      11.63439863
Au       8.58541767       6.33098208       6.86063520
Au       7.56914798       7.01471372       9.24866257
Au      10.50941930       8.15999869       5.98451440
Au      11.40055586       9.59316805      10.00029814
Au      10.36034975       7.45966250       8.70532626
Au       8.20780865       9.06260476       7.32830796
Au       9.36943769       8.22205040      11.14256768
Au       7.21785496       9.82520913       9.76480372
Au       9.73999723      11.50063306      11.07767099
Au      11.53614354      12.30252301       9.20690365
14
Properties=species:S:1:pos:R:3 config_type=qcd gap_pre_relax_energy=-32.343041601100005 gap_pred_energy=-32.45907790065596 gap_fmax_final=0.0009446938874074727 gap_converged=1 pbc="F F F"
Au      12.68566555      11.64088658       9.70609992
Au      12.35294589      13.68071074      11.59387685
Au      11.23235003      12.04601010      13.59307787
Au       9.49303128      13.30596257      11.95243960
Au      13.10374035      10.46262035      14.71461560
Au      11.76801352       9.27097477      12.68764441
Au      13.67718945      11.39839920      12.23056408
Au      10.67647826      11.13369939       7.95616848
Au      10.61976741      13.42933105       9.30825038
Au      10.52320950      15.58446253      10.92385594
Au       9.48330099       8.02858837      11.90293656
Au       9.27865129      10.68704814      12.17691187
Au      10.84015729       9.47044508      10.06290844
Au      13.60456393       9.19992588      10.52971475
15
Properties=species:S:1:pos:R:3 config_type=qcd gap_pre_relax_energy=-35.35944799207513 gap_pred_energy=-35.42129630470578 gap_fmax_final=0.0009443169903882114 gap_converged=1 pbc="F F F"
Au       7.73913930       9.88778110       7.65806580
Au       8.31555403       8.03618693       9.86127833
Au      11.08223124       8.05134308       9.89086845
Au      11.68570308       9.90857906       7.70090731
Au       6.03599887       9.65875119       9.73643421
Au      13.34621214       9.69875009       9.81543931
Au       8.29357944      11.25896246      10.18569075
Au      11.06218401      11.27429882      10.21574219
Au       9.69960517      11.83419614       7.91558129
Au       9.65466112      10.83387576      12.55847932
Au       9.72433309       7.95534864       7.52279519
Au      12.01199782       9.45540018      12.17964499
Au       7.32144607       9.42964324      12.12907343
Au       9.73241274      10.09632929       5.73533925
Au       9.67349440       7.99910652      12.27321267
15
Properties=species:S:1:pos:R:3 config_type=qcd gap_pre_relax_energy=-35.28690662570344 gap_pred_energy=-35.3361470267657 gap_fmax_final=0.0006999162923304303 gap_converged=1 pbc="F F F"
Au       8.06116716       7.72199981       7.66654741
Au      10.88893428       7.98335570       8.17985431
Au      11.50519745       6.07564140      10.15246836
Au       9.53055643       5.54739564       8.22975564
Au       7.55554105      12.15463315       8.71748340
Au       6.67730985       9.92331754       7.18798691
Au       9.42392597      10.25325391       7.74133813
Au       8.95582007       7.24380164      10.36849913
Au      11.67342742      11.08756968      11.99444257
Au       7.57330372       9.54514713       9.83601869
Au      11.66412290      10.33456772       9.27535271
Au      11.87607383       8.47178420      11.29057652
Au       9.58854008      11.80260330      10.39420101
Au       9.37283389       9.45861166      11.86867152
Au       5.55203443      12.29510608       6.99559226
16
Properties=species:S:1:pos:R:3 config_type=qcd gap_pre_relax_energy=-37.84284440190174 gap_pred_energy=-37.999790930129194 gap_fmax_final=0.000997000245536832 gap_converged=1 pbc="F F F"
Au      13.14739583      11.92933517      14.60173952
Au      12.11232460       9.60977089      10.31651751
Au       9.31898999       9.43676277       9.83244322
Au      12.92518467       9.66680518      13.17263893
Au       8.06428455      12.01966459       9.77449626
Au       6.70343911       9.80306096      10.51155730
Au      10.36139235      12.66608657      11.11238765
Au      12.61349519       7.39107490      11.82253663
Au       8.46986238      10.73907535      12.31237911
Au      10.09599248      13.00040969       8.37268820
Au      12.65438753      12.19407778       9.31378092
Au      12.96431683      12.16470513      11.91452214
Au      10.68343852      11.43906566      13.57797137
Au      12.12018260      12.44111171       6.66797759
Au      11.02672608      10.30412276       7.93791438
Au      10.34855131       8.80483489      12.36841327
16
Properties=species:S:1:pos:R:3 config_type=qcd gap_pre_relax_energy=-37.95698703519011 gap_pred_energy=-38.32157768928468 gap_fmax_final=0.0008506139581566372 gap_converged=1 pbc="F F F"
Au      11.58989965       6.74251275      10.83564554
Au      13.94301172       8.13745667      10.90269046
Au       9.40188956       8.29532966      10.75177747
Au      11.72662896       9.12283628      12.31653839
Au       9.33179678      13.11558996      13.16637347
Au      11.82344947       9.10587781       9.33791803
Au      13.63270393      10.80370850      10.88016734
Au       9.32281277      10.45375518      12.50414725
Au      11.70048855      11.86435828      12.57668991
Au       9.43898466      10.43565161       8.97604038
Au      11.81717776      11.84474029       9.04835766
Au       9.49393534      13.09066447       8.28953736
Au       8.24480653      12.40797153      10.69267295
Au      13.26772559      13.46060836      10.85330576
Au       7.24844004       9.89213782      10.67252089
Au      10.58381693      13.79436908      10.76318538
17
Properties=species:S:1:pos:R:3 config_type=qcd gap_pre_relax_energy=-40.90291489844673 gap_pred_energy=-40.94393998233482 gap_fmax_final=0.0008353965896500267 gap_converged=1 pbc="F F F"
Au       9.53227653      13.25773930      12.78819503
Au      10.91589578       7.65997935      10.59119443
Au       8.61750529      10.91961032       7.98463778
Au       8.17038510      10.91379757      12.66009498
Au      10.91471131      12.33025956       8.59213766
Au      12.30174100       8.56974042      12.78090266
Au      10.91741270      10.91282030      13.48296710
Au      10.91580129      14.17284476      10.59924192
Au      13.66355705      10.91387948      12.65707430
Au      12.30167026      13.25769830      12.78669697
Au      13.21138694      10.91968059       7.98211038
Au       9.53234292       8.56961557      12.78240191
Au      10.91475189       9.50753564       8.58864565
Au      13.07205794      12.34238938      10.32458708
Au      13.07206371       9.49118032      10.32108253
Au       8.75928682      12.34230095      10.32687265
Au       8.75936344       9.49113818      10.32336697
17
Properties=species:S:1:pos:R:3 config_type=qcd gap_pre_relax_energy=-40.94023362866155 gap_pred_energy=-40.97172050228405 gap_fmax_final=0.0009218581390543065 gap_converged=1 pbc="F F F"
Au      12.66775662       9.97425241       6.31032808
Au      11.53346021       9.95948215      10.67313065
Au      11.16905132       8.42005289      12.93107802
Au       9.75413695      10.76902544      12.66240127
Au      10.01581204       9.45832294       6.39586281
Au       8.09933342       6.23054059      10.32735122
Au       7.42310181       9.36166614       7.08253400
Au      11.39434544      11.30968296       8.29467532
Au       8.83548864      11.77994955       7.42284285
Au       6.65217355      11.25034858       8.96740569
Au       7.01333465       8.67077654       9.74347155
Au      11.86911385       8.44884575       8.37964883
Au       9.18792469       7.53366038       8.17120693
Au      10.66883797       7.27856750      10.48129722
Au       9.41399743      11.78941043      10.08685048
Au       8.53243727       8.38329917      12.00271343
Au       7.26904548      10.88146789      11.56655302
18
Properties=species:S:1:pos:R:3 config_type=qcd gap_pre_relax_energy=-43.61374998833212 gap_pred_energy=-43.63679675675574 gap_fmax_final=0.0008413483963281715 gap_converged=1 pbc="F F F"
Au       7.58669664      11.15101888       9.88357483
Au       9.44960436      12.24028574      11.76585883
Au       9.01373279      13.34685762       9.23549701
Au       9.10491430       7.89672470      11.32277217
Au      13.14646785       8.61081382       9.60712806
Au      12.08805281      12.14706093      12.58717227
Au      11.46100081      13.63332410      10.41030557
Au       8.62869879       8.80586225       8.68130458
Au      13.27117503       9.75357637      12.12607152
Au      11.19689679       9.71536869       8.02896725
Au      10.56366030       9.85252123      12.82195063
Au      12.86944953      11.30949747       9.86896802
Au       7.89086440      10.12929553      12.45222432
Au      11.35592550      12.44890404       7.90973324
Au       6.57799186       8.65245639      10.49749748
Au      10.80111628       7.24072866       9.21552890
Au      11.73139946       7.52167002      11.81189570
Au       8.94256493      11.22424602       7.45376207
18
Properties=species:S:1:pos:R:3 config_type=qcd gap_pre_relax_energy=-43.64322791052855 gap_pred_energy=-43.698219510655335 gap_fmax_final=0.0009829713635069078 gap_converged=1 pbc="F F F"
Au      12.75210846      10.48713651       8.83806406
Au      12.43989414       7.99815285      10.09441811
Au      12.35924803      10.23655699      11.62273331
Au      11.30106080      12.39284334      10.14594032
Au      11.48203744       8.50800552       7.53579513
Au      10.25314843      11.14566112       7.90750570
Au      10.12008727       8.55360468      11.59157796
Au      10.09496240       6.82353166       9.41260129
Au       9.96417516      11.27551893      12.34667527
Au       9.84345395       6.51574697       6.64253867
Au       8.61429857      12.23744486      10.12943725
Au       8.83781003       9.04503380       6.89790799
Au       7.72771042       9.95552058      11.52693925
Au       7.79981199       7.26587225      10.92387358
Au       7.51113713      11.14116646       7.86586902
Au       7.60580936       6.88692959       8.18624580
Au       6.41186347       9.01551542       9.28406327
Au       5.93773435      11.57210990      10.10416547
19
Properties=species:S:1:pos:R:3 config_type=qcd gap_pre_relax_energy=-46.74870914113706 gap_pred_energy=-46.783493860130626 gap_fmax_final=0.0009020747747842695 gap_converged=1 pbc="F F F"
Au       6.21571558      11.91381957       6.21571557
Au       6.07274702      10.03133671       8.14612763
Au       6.07274703       8.14612764      10.03133670
Au       6.21571556       6.21571556      11.91381959
Au       8.14612760      10.03133674       6.07274701
Au       8.05429341       8.05429340       8.05429342
Au       8.14612765       6.07274703      10.03133670
Au      10.03133673       8.14612761       6.07274702
Au      10.03133671       6.07274703       8.14612764
Au      11.91381958       6.21571557       6.21571556
Au       8.12693536      12.07088480       8.12693536
Au       7.77961313      10.33818281      10.33818281
Au       8.12693537       8.12693537      12.07088479
Au      10.33818282      10.33818281       7.77961314
Au      10.33818281       7.77961313      10.33818281
Au      12.07088479       8.12693537       8.12693537
Au      10.02550976      11.99345564      10.02550976
Au      10.02550976      10.02550976      11.99345563
Au      11.99345563      10.02550976      10.02550975
19
Properties=species:S:1:pos:R:3 config_type=qcd gap_pre_relax_energy=-46.39544236503574 gap_pred_energy=-46.44535281694974 gap_fmax_final=0.0009563578357009812 gap_converged=1 pbc="F F F"
Au      11.78078731      13.33672192      11.54793818
Au      12.47198436      10.67556192      11.27817476
Au      13.79811285      10.23143911       8.89581967
Au      11.94512458      12.26842440       9.01250232
Au      10.12777723      11.38182756      12.55815153
Au       9.49412351      12.80567254      10.13406642
Au      12.13412839       8.29325880       9.92022500
Au      11.14717531       8.71594580      12.56448070
Au       7.83663783      11.12240834      13.97630790
Au       9.58127762       7.17813544      10.90547960
Au       8.41117145       8.97954678      12.44397180
Au       7.43627993      11.39256498      11.32263299
Au      11.35826942       9.93560136       7.68326512
Au      11.31631638       5.76561774       9.40062306
Au       7.93357379       9.08514993       9.68851919
Au       7.45304867      11.66396970       8.66921657
Au       9.77995696      12.27872182       7.35387203
Au       9.86714417       7.64977872       8.12603297
Au       8.67315339       9.78569631       7.06476335
20
Properties=species:S:1:pos:R:3 config_type=qcd gap_pre_relax_energy=-49.69382751946234 gap_pred_energy=-49.711145640111745 gap_fmax_final=0.0006195473488025072 gap_converged=1 pbc="F F F"
Au       6.07525447       8.13474068       8.13474068
Au      10.23719868       7.91480132       7.91480132
Au       6.22650068       6.22651048       6.22651048
Au       6.07526503      10.01719501      10.01719501
Au      10.01721714       6.07530226      10.01723771
Au      10.01721714      10.01723771       6.07530226
Au      10.23723857      10.23725569      10.23725569
Au       8.13476229       8.13478286       6.07530226
Au       7.91474431       7.91476143      10.23725569
Au      12.07669774       8.13478286      10.01723771
Au       8.13476229       6.07530226       8.13478286
Au       7.91474431      10.23725569       7.91476143
Au      12.07669774      10.01723771       8.13478286
Au      10.01725932       8.13474068      12.07674553
Au       8.13480499      10.01719501      12.07673497
Au      11.92548952       6.22651048      11.92549932
Au      10.01725932      12.07674553       8.13474068
Au       8.13480499      12.07673497      10.01719501
Au      11.92548952      11.92549932       6.22651048
Au       6.22659199      11.92540801      11.92540801
20
Properties=species:S:1:pos:R:3 config_type=qcd gap_pre_relax_energy=-49.536328686336084 gap_pred_energy=-49.56467521320054 gap_fmax_final=0.0006832135121543927 gap_converged=1 pbc="F F F"
Au      12.84129175       9.64502917      11.81518348
Au       7.88116322       8.38106685      10.20865661
Au      12.67290644      12.17305518      10.34536720
Au       9.99638518       7.65917238       8.72544995
Au      10.55761606      12.89465118      11.82859950
Au       8.24576838       9.73455249      12.49556265
Au      12.87977219      12.09352487      13.10417811
Au      14.48127482      10.19516431       9.65468044
Au      12.30808040      10.81951960       8.05848341
Au       7.67421712       8.46033513       7.44999308
Au       6.07271682      10.35918668      10.89904263
Au      10.40957290       8.28569832      11.43484723
Au       9.82800817      10.18711199       7.25523678
Au       8.07746645      12.26281462      11.02561074
Au      12.47653210       8.29134486       9.52847669
Au      11.87838563       8.37804243       6.82788038
Au      10.14440980      12.26830123       9.11914810
Au       7.71292210      10.90903797       8.73876149
Au       8.67553441      12.17571803      13.72619880
Au      10.72597605      10.36667274      13.29864274
21
Properties=species:S:1:pos:R:3 config_type=qcd gap_pre_relax_energy=-52.05513371391038 gap_pred_energy=-52.14466778917105 gap_fmax_final=0.0009220828895618545 gap_converged=1 pbc="F F F"
Au       6.94609529       6.84655494       6.95743192
Au       9.02594076       6.66596231       8.76866598
Au       6.70538035       9.02264070       8.64554682
Au       8.86360036       8.72816532       6.71734236
Au       8.51571163      11.04578635       8.22014304
Au      11.09051817       8.43198371       8.35903447
Au      10.75881349      10.59023174       6.59747044
Au      12.78008695      10.65839816       8.67413809
Au      10.75279872      12.71560607       8.57001797
Au      12.68414977      12.49398102       6.70022214
Au      11.01427128       6.63363656      10.49481926
Au      12.58663798       7.08957987      12.64189433
Au       6.61464330      11.09666012      10.26576497
Au       8.06843984       8.16221096      10.97828797
Au       8.47439605      10.50399542      12.29135068
Au      10.34712775       8.60439974      12.38764596
Au      10.67484208      10.70909901      10.53865219
Au      12.74170381       8.85812308      10.62147860
Au       6.98245686      12.77206620      12.35118402
Au       8.85486467      12.80052761      10.42069703
Au       6.41402087       6.46689112       9.69471174
21
Properties=species:S:1:pos:R:3 config_type=qcd gap_pre_relax_energy=-52.195736337383636 gap_pred_energy=-52.27903127495523 gap_fmax_final=0.0008706796302059247 gap_converged=1 pbc="F F F"
Au       9.10734309      11.30317456       7.85735863
Au       8.78245364      13.63865088       9.44410552
Au      11.27762702      12.79840256       8.91405435
Au       6.59730907      12.35574539       8.38788556
Au       9.36799040       8.59329551       7.85397324
Au       9.71143769       5.89212349       8.37907053
Au       7.50751041       7.14085749       9.43694748
Au      11.45508970      10.70831471      13.16711229
Au      13.75190998      11.82081293       8.38366836
Au      11.58443616      10.17398215       7.85467134
Au      10.23357663      12.52096251      11.48330421
Au       8.70800798      10.91247207      13.16873660
Au       7.49063539      11.68221558      10.91309863
Au       6.98761110       9.72305164       8.91270186
Au       9.90470931       8.43132399      13.16531980
Au       7.74935910       8.95194031      11.48031380
Au      12.08223257       8.58500477      11.47780363
Au       9.84718661       6.99702875      10.90652498
Au      11.79600180       7.54541196       8.90777949
Au      13.77226260       9.28560801       9.43655107
Au      12.72630974      11.38062072      10.91001865
22
Properties=species:S:1:pos:R:3 config_type=qcd gap_pre_relax_energy=-54.9127479871322 gap_pred_energy=-54.99818967430911 gap_fmax_final=0.0008286189313812676 gap_converged=1 pbc="F F F"
Au      11.48356520      13.75206231      12.54602406
Au       9.07080367      13.92062545      11.27061426
Au       9.12224463      13.49657560      13.97104706
Au       7.18543959      12.29773362      10.15772738
Au       9.45877605      13.05506509       8.65851411
Au       7.74269176      11.09459316       7.75181127
Au      10.74895885      11.30062802      13.84395640
Au       8.43389917      11.33259266      12.41165916
Au      10.19829374       9.12908432      12.15402661
Au       8.50908635       9.86170290      10.12432247
Au      11.41172566      14.50993683       9.90588644
Au      12.50423963       9.28838216      13.67354236
Au      13.23219124      12.56533120      10.71141482
Au      10.37284572      10.44997365       7.97379111
Au      13.38334359      12.09027829      13.42777128
Au      15.12761297      10.17421447      14.15297493
Au      10.55195357       8.19746603       9.49951030
Au      12.16110799      12.51671590       8.19193180
Au      12.61108655       7.99339461      11.15435962
Au      14.40929287      10.23824583      11.44814844
Au      12.72100515      10.08094568       9.30708801
Au      14.71819724       7.81281344      12.82223931
22
Properties=species:S:1:pos:R:3 config_type=qcd gap_pre_relax_energy=-54.781648260705616 gap_pred_energy=-54.985329416619514 gap_fmax_final=0.000977955355140877 gap_converged=1 pbc="F F F"
Au       6.23566245      10.97401416      11.31708305
Au       7.67939287      13.23318083      11.31460620
Au       8.63297652      11.02340596      12.83147633
Au       9.88501839       8.59725671      12.88415927
Au      12.48957347       8.54614339      12.42993398
Au       9.08380176      15.50772218      11.30209904
Au      10.12926000      13.32721117      12.80788995
Au      11.36238163      10.89653149      13.47504803
Au      12.83091483      13.11137114      12.71944435
Au      11.76489722      15.18456381      11.29739268
Au      15.14048340      12.97271074      11.25254669
Au      14.09802817      10.72604470      12.76695731
Au      16.49144365      10.62007358      11.27642261
Au      14.90415982       8.42586759      11.18077760
Au       7.64403363       8.66768815      11.33510921
Au      10.04596564       8.63804379      10.08192177
Au      12.64947804       8.51211597       9.63918797
Au       8.65882819      10.98421971       9.85438386
Au      11.34542966      10.91791987       9.08370538
Au      14.13547815      10.79859340       9.67511348
Au      10.11149715      13.31791898       9.80021814
Au      12.81929532      13.15540269       9.81252310
23
Properties=species:S:1:pos:R:3 config_type=qcd gap_pre_relax_energy=-57.667552331828134 gap_pred_energy=-57.709908310419436 gap_fmax_final=0.0009879655373937945 gap_converged=1 pbc="F F F"
Au       9.56555980      15.21174368      11.42977213
Au       7.57045498      13.36768710      10.91001101
Au       9.69443835      12.64254422      12.62099045
Au      10.78881230      12.70281061       7.65931013
Au       8.05146016      10.76793855      11.45630697
Au      12.41014238      11.82289576      12.05002460
Au      12.93572366       6.66257941      10.64936898
Au       9.06876147      14.44135403       8.84725714
Au       7.65988251       6.53768292       9.78463000
Au      12.80514912       9.32007957      11.25644602
Au       8.27072447      11.80546967       8.74473887
Au      10.17644450      10.07932026       7.74853554
Au      12.39167026      11.14803666       9.26387977
Au       9.68292353       7.41667433       8.06620862
Au      10.24343056       6.11403505      10.54817722
Au      10.42206667      10.03600275      12.78539048
Au      11.82575408      14.39944452      12.74470439
Au       7.92393884       9.18937743       9.21179785
Au      11.32728437       7.49532779      12.71959707
Au      11.53706979      13.63861814      10.11022226
Au      12.23877261       8.50224238       8.60599330
Au      11.86975621       5.78937626       8.27832843
Au       8.77109582       8.14007541      11.73962522
23
Properties=species:S:1:pos:R:3 config_type=qcd gap_pre_relax_energy=-57.48877212440277 gap_pred_energy=-57.54617559289987 gap_fmax_final=0.0009959406447503122 gap_converged=1 pbc="F F F"
Au       8.74634455       8.74636445       8.79640099
Au       8.28452348       6.34609406       7.20569123
Au       6.34559221       8.28443290       7.20643195
Au       6.12191624       6.12110861       8.88750801
Au      12.44615161       8.50867324       8.36579493
Au      12.44055410       6.78022882       6.29218667
Au      10.19984681       8.29655733       6.37839476
Au      10.78856917       6.22809246       8.36433278
Au       8.50744764      12.44624495       8.36730437
Au       8.29520051      10.20064331       6.37912364
Au       6.77820494      12.44096038       6.29433754
Au       6.22731858      10.78801109       8.36605601
Au      10.63083654      10.63167347       8.02542733
Au       8.32497476       8.32370582      11.89637071
Au      12.09217392      12.09179969      12.28311694
Au       8.71871193       6.15598681      10.10673924
Au       7.90414122      10.85028969      10.66414403
Au      12.32106029      10.29148263      10.29171484
Au       6.15646736       8.71747307      10.10770203
Au      10.85121886       7.90407500      10.66302299
Au      10.29100033      12.32093924      10.29249420
Au       6.38797816       6.38624682      11.60152911
Au      10.18163640      10.18078579      12.20604529
24
Properties=species:S:1:pos:R:3 config_type=qcd gap_pre_relax_energy=-60.34594221828918 gap_pred_energy=-60.46867325463147 gap_fmax_final=0.0009177088735482216 gap_converged=1 pbc="F F F"
Au       8.37110205       7.44439882      10.58284625
Au       8.18071052       9.42878353      12.56703851
Au       8.18280814       9.41285737       8.58197500
Au       8.36815109      12.14393043      13.27202055
Au       8.37051935      12.12201736       7.85484830
Au       8.18281145      12.86935860      10.56026497
Au      10.57158591       8.11621292       9.16542445
Au      10.57026134       8.12682319      11.99713556
Au      10.57228497      10.55960391       7.73674739
Au      10.56945650      10.58213853      13.40498671
Au      10.57148000      13.01491073       9.14460849
Au      10.57015503      13.02553379      11.97632224
Au      12.95893060       8.27238147      10.58147811
Au      12.77122113       9.01972239      13.28689186
Au      12.77358877       8.99781137       7.86971981
Au      12.95893416      11.72888568      12.55976569
Au      12.96103133      11.71295617       8.57470090
Au      12.77063776      13.69734217      10.55889728
Au      14.95863592      12.14290378      10.56704088
Au      14.96108587       9.77868929       9.21454652
Au      14.96022913       9.78936362      11.93802808
Au       6.18151140      11.35238853       9.20371829
Au       6.18065492      11.36304071      11.92719986
Au       6.18310470       8.99883764      10.57468630
24
Properties=species:S:1:pos:R:3 config_type=qcd gap_pre_relax_energy=-60.64426175449803 gap_pred_energy=-60.75455371842928 gap_fmax_final=0.0009817891280423064 gap_converged=1 pbc="F F F"
Au       8.11442556       8.30713172      10.34874921
Au       7.70295189      12.35377008      10.52293751
Au      12.62901574       7.65359033       9.86832438
Au      12.70812778      11.91688604       9.56855589
Au       8.08304327      10.12905107       8.31652005
Au       7.76628437      10.34510365      12.37006771
Au       8.42281978      12.91751320       7.82191941
Au      12.70157922       9.67234346       7.84834096
Au      12.44480471       9.60369833      11.85512174
Au      12.03157141      13.59657369      11.74032502
Au       5.93543191      11.95253116       8.36441517
Au      10.28674591       8.54475217       8.68987740
Au      10.51862714       7.64445891      11.47024415
Au      10.58607443      11.25796635       7.87428302
Au       9.63684889      12.35010021      12.46364704
Au      14.74883149       7.93416159       8.20792766
Au      14.23237926      11.71072249      11.93198791
Au       6.00040846      10.04380341      10.30175006
Au      10.25059490      13.22347874       9.82232881
Au      14.55095809       9.84489995      10.08120316
Au       8.25172409       7.71898179      13.03356725
Au      11.95842873      11.58056068      13.76293987
Au      10.17720724       9.64374603      13.45302851
Au      13.78511571      13.57817495      13.80593812
25
Properties=species:S:1:pos:R:3 config_type=qcd gap_pre_relax_energy=-63.72131185422476 gap_pred_energy=-63.85887137486322 gap_fmax_final=0.0009707528023351781 gap_converged=1 pbc="F F F"
Au       6.90600648       9.45421579      10.67711784
Au      10.16327538       6.48772382      10.69277696
Au       7.49863205       6.83991554      10.68084091
Au      11.83119705       8.27756272      12.23639361
Au       7.86858956      10.76283354      12.91784597
Au      14.22747410       8.37036099      10.71222734
Au       9.07662763       8.41485248      12.37376714
Au       7.68586234      14.70212131      10.68506674
Au      12.80685731       6.11328627      10.70382993
Au      11.94490219      13.05738881      12.23998327
Au      10.60017663      10.69795445      12.55058327
Au      10.36426707      14.92684703      10.69831276
Au       6.96951279      12.11895170      10.67896825
Au      13.02255846      15.17503008      10.71127227
Au       9.18691572      13.05125854      12.37629195
Au      14.33412894      12.85287391      10.71594439
Au      13.29792244      10.63390554      12.19730906
Au      15.71722710      10.57745144      10.72101600
Au      11.84568005       8.27939242       9.16551453
Au       7.89100733      10.76546355       8.44757911
Au       9.09267325       8.41673957       9.00346571
Au      11.95974555      13.05940310       9.16907906
Au      10.61821138      10.70022985       8.84231929
Au       9.20330024      13.05350712       9.00601343
Au      13.31224896      10.63573047       9.22148121
25
Properties=species:S:1:pos:R:3 config_type=qcd gap_pre_relax_energy=-63.2287550098908 gap_pred_energy=-63.3337763371595 gap_fmax_final=0.0009645062998165192 gap_converged=1 pbc="F F F"
Au       6.22325351      10.43784934      12.16865268
Au       7.70948081       8.19089710      12.20006501
Au       7.39116232      12.86113139      12.60719442
Au      10.06300361      12.86260370      12.78726424
Au       8.94261042      13.37650449      10.29974920
Au      11.67635522      13.69979978      10.73430914
Au       8.76464571      10.48992663      13.36716679
Au      11.50524664      10.60043066      13.54980423
Au      12.68824582      13.16731847      13.27423185
Au      14.20844386      10.92844774      13.54828877
Au       9.08268933       7.54782444       9.94190854
Au      13.13487986       8.82801272      12.06625637
Au      10.41683103       8.47267972      12.27202184
Au       8.10030715      11.74768162       8.08941263
Au       6.39752083      12.28120189      10.12669862
Au      10.70564826      12.31191824       8.50707228
Au      13.29340202      13.06796924       8.62031678
Au      12.55303867      10.32970103       8.17046036
Au      15.12876795      11.09227147       8.87091911
Au      14.24701540      12.54528220      11.14073783
Au       9.85162108       9.65601618       8.29178092
Au      11.67094972       8.25483614       9.79043704
Au      14.31504196       8.55715943       9.49321562
Au       7.38718794       9.65571683       9.71757742
Au      15.56765090      10.06181954      11.38945834
25
Properties=species:S:1:pos:R:3 config_type=qcd gap_pre_relax_energy=-63.54856436716984 gap_pred_energy=-63.607260447487256 gap_fmax_final=0.0009991732815889094 gap_converged=1 pbc="F F F"
Au       8.27218658       8.33640799      10.28706567
Au       7.91553386      12.43217780      10.42343807
Au      12.85986314       7.77616286       9.86053527
Au      12.92759042      12.03658294       9.53380066
Au       8.30017765      10.26522253       8.30047696
Au       7.89200495      10.48108048      12.38762285
Au       8.66922849      13.04058933       7.73936520
Au      12.91842188       9.76827359       7.83856899
Au      12.67834280       9.73799900      11.83433600
Au      12.22018745      13.71269559      11.70292033
Au       6.16637823      12.10213329       8.23990461
Au      10.48730432       8.68473443       8.73837437
Au      10.74944831       7.77767180      11.46524112
Au      10.81512936      11.36537499       7.82993699
Au       9.82962357      12.39749141      12.37481647
Au      14.98351969       8.05105561       8.20606704
Au      14.44884510      11.85673254      11.89856882
Au       6.12891687      10.21764231      10.15742039
Au      10.46527595      13.34339037       9.76400281
Au      14.78087348       9.98021377      10.05980415
Au       8.56142723       7.79018598      13.07823458
Au      12.16102607      11.72125402      13.72524435
Au      10.39719855       9.76669983      13.41395278
Au      13.97905506      13.72523961      13.76579255
Au       6.09244095       8.33298791      12.07450894
26
Properties=species:S:1:pos:R:3 config_type=qcd gap_pre_relax_energy=-66.3727083685429 gap_pred_energy=-66.52690969601355 gap_fmax_final=0.0009610325513422423 gap_converged=1 pbc="F F F"
Au       7.51731243       9.14219014      11.33762536
Au      11.33213852       6.93187622      11.44596976
Au       8.70423415       6.79446452      11.41123544
Au      12.69255484       8.98726819      12.90269102
Au       8.56232883      11.38013302      12.78467460
Au      15.15504058       9.13033710      11.44890708
Au       9.93604332       8.99134677      12.86226806
Au       8.72157513      15.89477974      11.19350833
Au      13.95945758       6.78626194      11.48745400
Au      12.70186348      13.76058032      12.78788463
Au      11.31564614      11.38136307      13.05117114
Au      11.34887195      15.74910921      11.23502717
Au       7.52597042      13.55070950      11.23210702
Au      13.97675720      15.88655163      11.26974003
Au       9.94543554      13.76467618      12.74753023
Au      15.16367296      13.53882208      11.34340433
Au      14.07552732      11.37170583      12.86553526
Au      16.59594362      11.33230183      11.41733854
Au      12.73557759       8.91630409       9.93341913
Au       8.60544394      11.30926830       9.81547450
Au       9.97912668       8.92042055       9.89311060
Au      12.74494929      13.68963956       9.81876190
Au      11.36536002      11.29955764       9.62983380
Au       9.98842718      13.69375029       9.77831018
Au      14.11868052      11.30083176       9.89632553
Au       6.08506076      11.34875053      11.26369232
26
Properties=species:S:1:pos:R:3 config_type=qcd gap_pre_relax_energy=-66.34489108805649 gap_pred_energy=-66.49586163369656 gap_fmax_final=0.0009765589106277824 gap_converged=1 pbc="F F F"
Au       7.02582804       6.06657314       7.13785083
Au       8.96712339       6.01971580       9.03826815
Au       6.77857670       7.90637130       9.19911632
Au       6.40195566       8.65822996       6.48271532
Au       9.11289230       7.86516882       6.81411735
Au       9.24273946       9.70594178       9.24343385
Au      11.19794437       7.68821093       8.63928905
Au      11.04960957       9.75020402       6.78548990
Au      12.93172181       9.87886819       8.97966291
Au       6.37257025      10.61983162       8.39266739
Au       8.34483101      10.58471980       6.37707919
Au       8.39333765      12.58695043       8.36219186
Au      11.10666960      12.11954313       9.13482655
Au      10.32454934      12.47602662       6.42405164
Au      12.90820972      11.79260486       7.05100730
Au      10.85703565       6.01256831      10.88743018
Au      12.78525238       6.12032374      12.77259479
Au       6.82537834       9.82530142      11.10193355
Au       8.64732983       7.73477917      11.24564096
Au       9.06236222       9.94755701      12.93375497
Au      10.90649148       8.05280564      12.91072093
Au      11.25957436      10.27759464      11.20684858
Au      12.91613173       8.01674569      10.85681255
Au       7.16672965      11.89405949      12.91776258
Au       6.49648859      12.54463388      10.33644920
Au       9.21666692      12.15267060      11.06628406
27
Properties=species:S:1:pos:R:3 config_type=qcd gap_pre_relax_energy=-69.07751666421183 gap_pred_energy=-69.16948737304858 gap_fmax_final=0.0009398155059993307 gap_converged=1 pbc="F F F"
Au       7.89983729      11.85693542      14.21493145
Au      10.66289737      11.74018009      14.42150143
Au      13.40570370      11.65510303      14.38563552
Au      16.16369964      11.60091941      14.10276300
Au       8.94323736      12.15307165      11.69390348
Au      12.01065018      12.02267941      11.91630189
Au      15.07226994      11.96310420      11.61079215
Au      10.52811241      12.39895501       9.42775456
Au      13.44289665      12.30850088       9.38945019
Au       9.29263925      14.15228057      13.75527003
Au       9.14619946       9.67326719      13.16747507
Au      12.10595303      14.09332521      14.19943437
Au      11.95342957       9.43865770      13.58276260
Au      14.90391103      13.97819141      13.67910566
Au      14.75687770       9.49962915      13.09146864
Au      10.24370679      14.53601705      11.13717636
Au      10.09019610       9.91549014      10.52804519
Au      13.90834098      14.42295066      11.08685974
Au      13.75894424       9.80132846      10.47766324
Au      12.05225520      14.68064386       9.00931477
Au      11.90607131      10.20970240       8.42192294
Au      10.76070727      16.34258115      13.20887114
Au      10.47438660       7.60769820      12.06308935
Au      13.56053685      16.25610563      13.17153288
Au      13.27401467       7.52065562      12.02617154
Au      12.14132056      16.67012004      10.85132286
Au      11.85094950       7.81165115       9.68922464
27
Properties=species:S:1:pos:R:3 config_type=qcd gap_pre_relax_energy=-69.12969826049243 gap_pred_energy=-69.29879101247934 gap_fmax_final=0.0008840409462883439 gap_converged=1 pbc="F F F"
Au      10.62724542      14.86837382      13.75178996
Au      11.37829230      15.02057946      11.15184461
Au       9.19555371      13.39574141      11.90779956
Au      11.82448656      12.53209563       7.40708967
Au      12.16643215      14.99631310       8.54670813
Au       9.85024961      13.66748334       9.17583313
Au       9.33951424      11.43331040       7.55303295
Au       9.88606616      12.34122673      14.46900136
Au       8.21089755      11.66062598      10.06549308
Au       8.46157009      10.74580511      12.70470101
Au      12.19276135      12.78722541      12.82270075
Au       7.31411043       9.73650343       8.22940692
Au      12.77960976      12.80791124      10.10771247
Au      10.77248240      10.74821676      11.06693387
Au      11.97889275      10.37869966      14.06465681
Au       9.44195321       9.76890575      15.11843459
Au       8.57382569       8.88669041      10.55346792
Au       9.77013833       8.57343866       8.09070705
Au      11.47679929      10.01266858       6.47087657
Au      12.84423704      10.38114703       8.91921543
Au      13.46352251      10.55995292      11.65263070
Au       9.89628374       8.21595498      12.80734727
Au      11.40964933       7.83040166      15.05766468
Au      11.09571041       7.59763883      10.40648951
Au      12.79968945       8.05408629      12.72012168
Au      12.41244681       7.86803365       7.90633358
Au      13.81474776       8.10813776      10.24917477
28
Properties=species:S:1:pos:R:3 config_type=qcd gap_pre_relax_energy=-71.61599288286064 gap_pred_energy=-71.69790577482205 gap_fmax_final=0.000993313603504868 gap_converged=1 pbc="F F F"
Au      10.84029536      13.53473321       7.08899419
Au      13.18290603      12.13933000       7.09690382
Au      13.17198160       9.41538567       7.02558775
Au      10.78521213       8.10102217       7.02349540
Au       8.44005643       9.49219801       7.01501949
Au       8.45671722      12.21706333       7.00694279
Au      12.14843278      13.08171737       9.47076584
Au      13.69504968      10.70573619       9.40224893
Au      12.25266022       8.27362279       9.35786738
Au       9.42557887       8.49509360       9.38723806
Au       7.88025233      10.87253784       9.34129627
Au       9.32259945      13.30455601       9.38552726
Au      10.71375202      13.39639180      11.79075379
Au      13.09721707      11.97907690      11.79977826
Au      13.43571321       9.17440633      11.64919771
Au      10.80969243       8.12535328      11.72938629
Au       8.42635571       9.54269638      11.72041030
Au       8.09058553      12.35021606      11.62897179
Au      10.82088858      10.82549329       6.29553489
Au       9.56967090      11.39749929      15.85349717
Au      11.86535440      10.02682726      15.86199533
Au      10.77522568      10.77563540      10.51200856
Au       7.68355443      10.91997197      13.93425819
Au       9.11280541      13.33131821      13.97741172
Au      11.70117753      12.35838387      14.19376687
Au      13.79238143      10.54951784      13.99581338
Au      12.36339470       8.13801775      13.95092549
Au       9.77048889       9.10619818      14.13440309
28
Properties=species:S:1:pos:R:3 config_type=qcd gap_pre_relax_energy=-71.89321653039268 gap_pred_energy=-72.11929003052815 gap_fmax_final=0.0009670078300294034 gap_converged=1 pbc="F F F"
Au       7.92895101      10.24377959      14.39208288
Au       7.62879458      11.94676439      12.17046774
Au       9.80692626      15.18045697       9.62829179
Au      13.10551930      11.14939785      10.85420747
Au      11.66506538       8.08476702      12.31273911
Au      13.24125097      10.19580157      13.42710564
Au       7.71000193      10.22915243      10.03562297
Au       9.45500301      12.48878048      14.31561737
Au       9.93141804       7.17010087      10.40515525
Au      12.72878186      11.75834030       8.22147790
Au      14.23636192       8.63436138      11.45020746
Au      10.59714960      10.00273764      13.95907606
Au       8.45741777      12.79695472       9.69287569
Au       8.91009881       8.13626937      12.75026519
Au       9.16307981      10.87776299       7.87250446
Au       6.42644653       9.41221162      12.31448973
Au       9.86450844       8.91608662       6.00396124
Au       9.62266339      13.89930036      12.02591401
Au       7.22163938       7.56466229      10.50190258
Au      10.49189047      13.30054043       7.78123648
Au      12.48589036       7.63521695       9.60364716
Au      11.76856362      12.41270927      12.84693926
Au      11.07975301      11.35815315       5.98967609
Au      11.83669042      13.45221421      10.26360988
Au      14.32896270       9.64388804       8.92334103
Au      10.60781638       6.93317508       7.76545968
Au       8.26227418       8.30038415       8.13905232
Au      12.30108084       9.14003025       7.21707355
29
Properties=species:S:1:pos:R:3 config_type=qcd gap_pre_relax_energy=-74.90619052848221 gap_pred_energy=-75.03666873068993 gap_fmax_final=0.000913063589283384 gap_converged=1 pbc="F F F"
Au      10.71692608      14.57775855       9.40517712
Au       7.70450364      11.42986849      12.40105023
Au       9.03049130      13.57044568      11.30416730
Au       8.89208947       9.58701390      13.99495439
Au      10.14610245      12.01462518      13.39892654
Au       7.71181756       8.60080037      11.76357459
Au       9.04226475       7.13692909       9.85924315
Au      10.15413708       7.65082453      12.41954801
Au      10.73059884       7.04378371       7.71318528
Au      13.20558976       8.13045771       8.08349906
Au      11.74988828       7.10424919      10.25493132
Au      11.20178632       9.73678811       7.13168169
Au      11.19691434      12.39360605       7.72849355
Au      13.19603159      13.44582683       9.27704046
Au      13.32796430      10.79781724       8.63818681
Au       9.01844609      11.26413989       6.52685046
Au       8.60301374      13.13097544       8.50371584
Au       8.61104307       8.72988020       7.51523706
Au       6.60747214       8.22864584       9.28600892
Au       5.75154794      10.28892916      10.84341987
Au       6.59920691      12.82015530      10.31736523
Au       7.02680341      10.84775855       8.36544406
Au      13.96102788       8.91445428      10.55689811
Au      11.73852828      13.44005266      11.67773471
Au      13.95583607      11.68220143      11.17848595
Au      12.87817855      12.05167624      13.70341866
Au      11.58162877       9.61918795      13.87182876
Au      12.88667152       7.49705360      12.68040638
Au      14.30098988       9.79159486      13.12702652
29
Properties=species:S:1:pos:R:3 config_type=qcd gap_pre_relax_energy=-74.43845211517667 gap_pred_energy=-74.505741555187 gap_fmax_final=0.0008745392622268586 gap_converged=1 pbc="F F F"
Au      10.70495754      14.00668272       7.91437905
Au      12.86354544      12.17298296       7.79052516
Au      13.77786964       9.50119895       8.01729547
Au      11.17928647       8.57196524       7.77699479
Au       8.41605582       9.14519325       7.96007182
Au       8.89656638      11.92075849       7.70027221
Au      12.07109489      13.35864668      10.17382908
Au      13.62923671      11.07830294      10.22662710
Au      12.58739849       8.46549359      10.22886238
Au       9.82938610       8.44546692      10.17350669
Au       8.23439920      10.78520299      10.11985102
Au       9.25851266      13.34673331      10.11730478
Au      10.62150487      13.80617746      12.48076399
Au      13.09330063      12.43872892      12.53536671
Au      13.46423676       9.63818992      12.57667691
Au      11.15619974       8.04430741      12.54520833
Au       8.70200275       9.44372497      12.46517800
Au       8.29417372      12.24063811      12.44919679
Au      11.99791470      13.39988045      14.86288443
Au      13.53627082      11.14205695      14.91506500
Au      12.39478521       8.67220932      14.92272826
Au       9.67970843       8.51066643      14.85508990
Au       8.13941671      10.76854454      14.80312809
Au       9.28227004      13.23757189      14.81819007
Au      10.82229743      10.96145645      15.61235082
Au      10.91298474      10.92502196      11.35208779
Au       9.75229584      10.00990785       5.80220216
Au      12.47096900      10.20872790       5.78203856
Au      10.94035927      12.46256142       5.73132466
30
Properties=species:S:1:pos:R:3 config_type=qcd gap_pre_relax_energy=-77.7960417590525 gap_pred_energy=-77.90661026034998 gap_fmax_final=0.0009890360579691063 gap_converged=1 pbc="F F F"
Au      11.48303671      17.33298905      17.35472179
Au      12.79997460      15.13360678      18.29682931
Au      11.23313396      15.00222831      15.92232893
Au      13.93769919      17.62218528      18.48428454
Au      14.37162772      13.05419938      19.00004663
Au      12.74149104      12.87693888      16.73915678
Au      11.61172293      15.27956309      13.21258083
Au      11.19114933      17.53507294      14.67660737
Au      15.63282606      15.48030718      18.63259451
Au      14.88032181      11.20624093      17.04296835
Au      13.66847549      18.31736417      15.78174603
Au      11.53757148      12.76357301      14.31543322
Au      16.11068517      17.54184883      16.88161303
Au      14.05990078      11.68774646      14.46392257
Au      16.74753647      13.16659712      17.66285565
Au      13.40391065      13.33073655      12.39635587
Au      16.69410415      11.77959838      15.12217743
Au      18.91961336      13.13275523      16.06067789
Au      13.44423650      17.48075689      13.17685843
Au      13.14055715      15.81135496      11.03972567
Au      17.96322144      15.52222307      17.04695338
Au      18.36663928      17.66024119      15.38714467
Au      16.00143195      12.42155666      12.53921688
Au      18.60270314      12.65071250      13.37419723
Au      15.90430091      18.10872963      14.16446185
Au      15.27279095      14.18023867      10.58272105
Au      15.64597315      16.71015738      11.73471385
Au      18.93231518      15.22151113      14.31793159
Au      17.59145224      14.70228050      11.89774671
Au      18.10959718      17.28668585      12.69142795
30
Properties=species:S:1:pos:R:3 config_type=qcd gap_pre_relax_energy=-77.7870753230862 gap_pred_energy=-77.98549148921627 gap_fmax_final=0.0008003296345620295 gap_converged=1 pbc="F F F"
Au       8.17683789       9.83803641      11.76344083
Au      11.17986198       8.64164701      16.04400374
Au      13.57579503      10.31553222       7.82031987
Au       9.67005834      13.31375941      13.93377819
Au       7.89917863      11.13889941      14.15826669
Au      10.22583815       8.04522430      11.33004915
Au      12.00705589       7.95153087      13.53110259
Au      14.56496186      11.33859492      10.30706549
Au       9.39926114      14.95358036      11.72743220
Au      12.26616067      12.97633629      14.94193816
Au       8.50058987      11.63624232       7.43718676
Au      10.30754143      11.13742871      15.43836943
Au      13.97856432      13.97498317      10.87642678
Au      12.61939722      12.06950964       5.94095094
Au       9.39913108       9.76717020       9.34778645
Au      10.71998271      13.23673843       7.51703975
Au       7.11501683      11.27917480       9.72788189
Au       9.44163168       8.86067560      13.91296861
Au      12.80710594       7.11546252      11.12139112
Au      11.42581181      14.54379369       9.89697956
Au      11.90680752      14.32225710      12.61088488
Au      10.88737003      10.34527550       7.17081107
Au      11.77027534       8.49517495       9.01792729
Au      14.06703239       9.40263568      12.31551545
Au       7.86413562      12.68865970      11.93429690
Au       8.86081443      13.51616571       9.47616350
Au      12.91779971      10.30344739      14.68493206
Au      13.26221354      12.99244564       8.48154212
Au      13.58601299      12.05060089      12.74808528
Au      14.53275598       8.68401714       9.72046327
30
Properties=species:S:1:pos:R:3 config_type=qcd gap_pre_relax_energy=-77.72068360834133 gap_pred_energy=-77.90754358826361 gap_fmax_final=0.0008644352257262118 gap_converged=1 pbc="F F F"
Au      18.82255263      15.98426030      16.20785938
Au      16.59433082      16.95735813      17.46037254
Au      14.21057229      17.85199775      18.35857633
Au      17.08961667      14.21391377      17.34859097
Au      14.92454378      15.17825343      18.78302550
Au      17.34517781      18.04411961      15.11307841
Au      18.12817622      13.74395650      14.79631593
Au      18.64061151      16.05493011      13.47437140
Au      14.68991980      18.35432298      15.74660162
Au      12.31430274      16.03776793      19.00031465
Au      16.38462378      11.92371462      16.01412172
Au      15.26654459      12.49400427      18.43843013
Au      18.19969479      18.63586416      12.59481192
Au      17.22387375      11.57239255      13.42643628
Au      12.71429963      13.43919399      18.20592242
Au      15.48861835      18.43167144      13.12165175
Au      17.40043406      13.93723498      12.10255731
Au      16.87665466      16.55961637      11.43985950
Au      13.62830860      11.58043759      16.41028821
Au      14.75701448      10.63627554      14.13496789
Au      10.65244536      15.06259214      17.10012688
Au      12.32526393      17.12528157      16.35952782
Au      14.92244344      12.56803159      12.19512686
Au      13.14996245      17.17476562      13.73311755
Au      14.13197280      17.03117852      11.19489951
Au      11.13380201      12.63217385      16.01154683
Au      15.24837498      14.62496601      10.48188159
Au      12.74250396      12.47407271      13.84096137
Au      11.88016059      14.96279439      14.64827607
Au      13.11319954      14.71285760      12.25638166
31
Properties=species:S:1:pos:R:3 config_type=qcd gap_pre_relax_energy=-80.78016084145011 gap_pred_energy=-80.83479592523568 gap_fmax_final=0.0009587287126819855 gap_converged=1 pbc="F F F"
Au      13.72333092       8.22165332       8.26538916
Au      14.91835954       9.32804265      10.45911797
Au      10.17990105       6.89818939      11.17185575
Au      12.81408857       7.60981593      10.83048178
Au       8.64049379       6.48389125       8.96021299
Au      11.19007811       7.32173320       8.59473969
Au       7.51940305       7.79645663      11.08573424
Au       6.67429729       8.32113636       8.48772352
Au       6.33211974      10.26573830      10.36729515
Au       6.84971198      12.88038397       9.73159626
Au       7.38425872      10.88931104       7.88248736
Au       9.17743908      13.80753084      10.84055732
Au      11.01785999      14.63771219       9.00896519
Au       8.98902541      13.10932571       8.06040852
Au      11.84538219      13.46429843      11.34701643
Au      13.52552695      13.57318502       9.15167874
Au      14.09656336      11.82609703      11.17727567
Au      13.78611950      10.94882213       8.50203073
Au      12.79609251      12.19945280      13.56005219
Au      13.45497171       9.63575248      12.74598522
Au      10.10968933      12.64181269      13.25185341
Au       7.71858730      11.92752030      12.12711125
Au       6.63869814       9.52854226      12.98339886
Au      11.74267005       7.55810206      13.32565117
Au       9.13078907       8.34075084      13.27498639
Au      11.14293040      10.11495126      14.14625377
Au       8.53775776      10.78669057      14.48419858
Au      11.65382364      12.39292423       7.47529786
Au      11.69956040       9.65669070       7.13503604
Au       9.13160636       8.69283045       7.32944392
Au       9.57586407      11.13765599       6.23316489
31
Properties=species:S:1:pos:R:3 config_type=qcd gap_pre_relax_energy=-80.62777570178815 gap_pred_energy=-80.71311821471767 gap_fmax_final=0.000784236823187417 gap_converged=1 pbc="F F F"
Au      11.11819006      13.81773492       7.47924320
Au      10.02759413       6.06846165      10.09719756
Au       8.94465835       9.80550445       6.28487257
Au      11.95157990       6.89792779       8.31900580
Au      12.87044565      11.59091858       7.85877830
Au       8.77577721      12.21363236       7.70427594
Au       9.66183074      13.72685094       9.74991615
Au       9.26744461      12.16899551      14.79637433
Au       9.82369272       9.62368046      14.01087977
Au      11.10779601      14.00665623      14.02867192
Au      11.21952581      15.03797361      11.52318935
Au       7.93545284       7.74270509      10.44840682
Au      14.11036931      11.37634805      10.39645399
Au      11.56945448       9.20531181       6.94120609
Au      10.91777068      11.63491220       5.90897769
Au      13.12240650      13.17162066      12.36357080
Au      12.33640283       8.83303991      13.26708247
Au      14.24758552      10.84328000      13.12910499
Au      14.50372603       8.77873626      11.39974550
Au      12.27092612       7.33749288      10.99635466
Au       9.99050405       7.40031764      12.49554432
Au       7.54266968       8.50534546      13.04679197
Au       7.62092860       9.90958072       8.65682500
Au       7.51393746      12.18467203      10.24638421
Au       9.32651558       7.80631536       8.07143813
Au       7.66489458      11.23396506      12.84966366
Au      13.34616715       9.15555437       8.98108806
Au      12.58614099      13.53767285       9.72598825
Au      11.88798889      11.39347126      14.32817372
Au       8.90600438      13.57837887      12.33138947
Au       6.26111913       9.84244305      10.99290530
32
Properties=species:S:1:pos:R:3 config_type=qcd gap_pre_relax_energy=-83.6571559713638 gap_pred_energy=-83.69539479302557 gap_fmax_final=0.000981514730596171 gap_converged=1 pbc="F F F"
Au      12.88271843      14.01006732       8.99790360
Au      14.33469037      11.48353983      12.68188625
Au      14.33465549       9.58501398       8.38686950
Au      10.53445021      14.21808809      13.06073457
Au       8.18601957       7.05867068      12.07083440
Au       6.73408251      11.48372402      12.68186850
Au      10.53434570       9.92321991      14.95958028
Au      12.79619006       7.55116918       9.38023514
Au      10.53427853       6.62387330      10.73504692
Au      10.53430015       7.75325431      13.29215130
Au      12.79601437       9.37983021      13.51771192
Au      14.19276277       9.25574835      11.09974742
Au      11.93223669       9.05564486       7.18890203
Au       9.13644790       9.05571337       7.18889790
Au       8.27241622       7.55128336       9.38022685
Au      12.79607737      11.68879591       7.55104031
Au      14.19282230      11.81281110       9.96900788
Au       6.87591570       9.25592690      11.09973012
Au       8.27266063       9.37994209      13.51769769
Au       9.13650131      12.01309314      13.87983597
Au      11.93229010      12.01302463      13.87984010
Au      12.79632178      13.51745464      11.68851115
Au       8.27272363      11.68890779       7.55102608
Au       6.87597523      11.81298965       9.96899058
Au       8.27254794      13.51756882      11.68850286
Au      10.53445947      14.44486470      10.33369108
Au      10.53443785      13.31548369       7.77658670
Au       8.18618530      14.01018281       8.99789272
Au       6.73404763       9.58519817       8.38685175
Au      10.53439230      11.14551809       6.10915772
Au      10.53428779       6.85064991       8.00800343
Au      12.88255270       7.05855519      12.07084528
32
Properties=species:S:1:pos:R:3 config_type=qcd gap_pre_relax_energy=-83.19278685113909 gap_pred_energy=-83.47029924878882 gap_fmax_final=0.000715796529911618 gap_converged=1 pbc="F F F"
Au      11.59728173       9.80526025      10.89202466
Au      10.17636377      10.40835163      14.12591948
Au      11.89348055       8.48628212      13.41651720
Au       9.15837481       8.10669350      13.19904930
Au       9.75663366      13.09125920      13.76354248
Au      12.16727088      11.98299531      13.13449410
Au      13.97736595      10.17861926      12.25320370
Au       8.98307612       9.58320490      10.56976226
Au       6.01022348      11.62364925      11.22139219
Au      10.33591521      11.43078514       9.20624834
Au      13.33980209      12.33629842      10.63156912
Au      13.64978522       7.49872549      11.49861598
Au      13.07302092       8.95159388       6.98562909
Au      10.97599702       6.69907405      11.45731805
Au       8.23146079       6.87084978      10.94759553
Au       6.77482459       9.03416041      12.02068976
Au       7.80015522      11.28669697      13.21360972
Au       8.11963828      13.45370633      11.54234186
Au      10.94218429      13.73337260      11.36052889
Au      12.38593216       7.21728096       9.04629489
Au       9.91728128       6.03392083       8.96313307
Au       8.00985367       7.86247003       8.29668737
Au       6.53705712       9.95196816       9.15260968
Au       7.48641608      12.48551113       8.99882448
Au       9.29248750      14.50119073       9.29831808
Au      11.87529091      13.75943265       8.73977896
Au      10.45008494       8.09106153       7.14178574
Au       8.39836765      10.31491003       7.12688959
Au       9.57721371      12.89681804       7.03413102
Au      13.15701160      11.46843710       8.03897651
Au      14.10761671       9.37755697       9.50341019
Au      11.02653209      10.66186333       6.40310871
33
Properties=species:S:1:pos:R:3 config_type=qcd gap_pre_relax_energy=-85.79027135674811 gap_pred_energy=-86.131747063643 gap_fmax_final=0.0009275558060048774 gap_converged=1 pbc="F F F"
Au      13.22239862       7.12210771       9.88157658
Au      11.39560305       8.34537444       8.24546016
Au      14.23964680       8.73177824       7.92004631
Au      10.63260164       7.29080873      10.72453420
Au      12.92511793       8.06254673      12.41953953
Au       8.19284322       8.20707557      11.75919230
Au       8.74411707       8.30781906       8.94788695
Au      14.48336726       9.49574372      10.62121403
Au      10.36755026       7.88686931      13.38963594
Au      12.48639020      10.54979355       6.88926997
Au      11.78643079      11.10839891       9.69920496
Au      14.53382710      11.36802798       8.63213102
Au       9.80411770      10.44432759       7.30979852
Au       8.67869648       9.90681641      13.98689211
Au       7.17560393      10.37143035       7.78877214
Au       6.27184327       9.08068846      10.01400326
Au      12.80916726      12.45096578      13.59359466
Au       6.72917046      10.60347158      12.25477133
Au      14.48100288      10.28662559      13.21883519
Au      10.99840700      10.53208758      12.15820942
Au      11.11153145      12.90459583       7.51083741
Au      14.35431095      12.25918768      11.28232837
Au       9.10527886      10.81145772      10.31003399
Au      13.16021751      13.66572740       9.19614300
Au      10.39247965      11.88569615      14.76574604
Au       8.53462886      12.87614824       8.41757996
Au      12.11637790       9.74514631      14.52026446
Au       6.37303502      11.91919513       9.89605586
Au      10.54861806      14.16139637       9.96175447
Au      12.68490982      14.47117363      11.76368085
Au       7.94347219      12.56853058      13.70512121
Au      10.29280353      13.81710627      12.81200865
Au       8.16684967      13.50429781      11.14629354
33
Properties=species:S:1:pos:R:3 config_type=qcd gap_pre_relax_energy=-85.57330660364916 gap_pred_energy=-85.70839249384235 gap_fmax_final=0.0009212749481825649 gap_converged=1 pbc="F F F"
Au      12.59727948      11.91969136      11.64776402
Au      12.38871715      11.61519696      14.43714972
Au      15.53805207      12.89034216      11.29335746
Au      15.67664086      13.08804772      14.43805943
Au      13.41889707      14.15631564      13.08642807
Au      13.42535853      14.26556164      10.23989716
Au      10.98407414      14.16096217      11.62244177
Au      15.46759031      15.78792178      11.24489403
Au      12.71197668      16.60251134      11.70329665
Au      10.78709742      13.95032390      14.43837520
Au      15.18415943      15.75463764      14.43943352
Au      12.29366291      17.79003584      14.44045478
Au      12.59711250      11.91669821      17.22685616
Au      15.53786871      12.88695157      17.58249873
Au      13.41882676      14.15489633      15.79067081
Au      13.42511844      14.26103039      18.63731471
Au      10.98391102      14.15794766      17.25452029
Au      15.46739836      15.78448981      17.63405418
Au      12.71185182      16.59958818      17.17640481
Au      17.67836308      14.33428779      16.52473217
Au      17.67849176      14.33652987      12.35281288
Au      14.64833237      18.02317552      15.89443957
Au      14.64841263      18.02474260      12.98683474
Au      14.64452355      10.75371633      13.02127716
Au      14.64443018      10.75217102      15.85223089
Au      17.31269923      11.48540782      12.93090425
Au      17.31260544      11.48375547      15.94356166
Au      17.23949312      17.02535831      12.95427969
Au      17.23940101      17.02374088      15.92608486
Au      19.10809600      15.72646405      14.43953478
Au      19.01758379      13.01978767      14.43812751
Au      10.34497740      16.37215403      15.81284557
Au      10.34502416      16.37358570      13.06649019
34
Properties=species:S:1:pos:R:3 config_type=qcd gap_pre_relax_energy=-88.91942626103415 gap_pred_energy=-89.28788332565726 gap_fmax_final=0.0008592660485256092 gap_converged=1 pbc="F F F"
Au      12.21586312      15.00652926      11.65023422
Au      12.21782427      12.63381373      13.14327618
Au      16.04549179      13.13435687      18.51434899
Au      15.97154361      16.21622804      14.79629159
Au      14.70884314      11.59913368      12.70410568
Au      11.59973441      13.18537817      15.94103400
Au      19.45271702      15.28620539      16.03049301
Au      13.48515127      11.27587064      15.11665975
Au      13.53188039      12.21335526      17.67529913
Au      15.83936978      11.21917007      16.55431850
Au      15.91558983      19.07510168      15.16094590
Au      14.05554518      19.07747398      13.14147872
Au      17.89584154      17.52345901      16.36688904
Au      13.29385157      18.40854750      15.77163938
Au      15.50470451      17.93660073      17.60703465
Au      16.54069835      18.03005964      12.62896193
Au      18.51349467      16.39849346      13.70294664
Au      17.28364233      11.24026581      14.19240534
Au      17.54568895      15.36120803      18.00925688
Au      18.04309583      12.94163533      16.53783927
Au      12.90906875      17.38530494      18.31287184
Au      12.37087755      14.68271578      18.15035170
Au      12.04872854      17.30542875      13.51057028
Au      10.67776919      14.85434477      14.00317584
Au      14.32982570      16.75997081      11.58806068
Au      14.66684067      13.96266307      11.20746581
Au      11.48434752      16.32304883      16.13984644
Au      17.09714170      12.84192194      11.90439224
Au      15.01941493      15.70324269      19.10732364
Au      16.89277370      15.51627339      11.66980286
Au      14.64220632      14.71514600      16.60072270
Au      13.59866320      15.01492433      14.11254992
Au      18.74902681      13.69298103      13.91155721
Au      15.85274388      13.47914739      14.53585003
34
Properties=species:S:1:pos:R:3 config_type=qcd gap_pre_relax_energy=-88.76230527362357 gap_pred_energy=-88.97600635116208 gap_fmax_final=0.0008666540072558266 gap_converged=1 pbc="F F F"
Au      10.05211092      15.00798496      11.82443634
Au      15.32034940      10.13752910      11.82181220
Au      16.90400762      17.13518418      11.83180307
Au      13.60554853      12.54276585      18.33288361
Au      15.66509676      14.43894925      18.33652059
Au      12.99312369      15.27416801      18.33562433
Au      10.78383095      12.45718237      12.40632312
Au      17.16223877      12.04584737      12.41045778
Au      14.32908927      17.77549303      12.41567203
Au      12.17866946      16.58566022      11.18106102
Au      17.20723642      14.50627035      11.18194517
Au      12.89208623      11.19122197      11.17453341
Au      13.39459034       9.89391350      13.74353073
Au      18.07407774      15.58670655      13.75391004
Au      10.80413613      16.79282184      13.75043244
Au      13.20361389      17.82135199      14.95654278
Au      17.76499448      12.99144465      14.95357603
Au      11.30161271      11.45610133      14.94691327
Au      14.79533691      16.79593488      16.91477544
Au      16.08164091      12.12077618      16.91000025
Au      11.38956471      13.34437252      16.90816031
Au      17.09996054      15.34720464      16.26742702
Au      11.49355427      16.06535631      16.26442911
Au      13.67438929      10.85136267      16.25943694
Au      14.72923141      15.61253639      10.65216411
Au      15.08913161      12.78535225      10.64887110
Au      12.46067502      13.88736603      10.64827453
Au      16.01133435      10.75278219      14.54198460
Au      16.02013703      17.42251026      14.55030089
Au      10.23956655      14.09514905      14.54206461
Au      15.66194308      14.23399242      13.57742626
Au      13.42913180      12.65978462      13.57352970
Au      13.18204874      15.38045809      13.57725295
Au      14.08958761      14.08811208      15.88957133
35
Properties=species:S:1:pos:R:3 config_type=qcd gap_pre_relax_energy=-92.27038211107042 gap_pred_energy=-92.39657794226666 gap_fmax_final=0.000967642241389526 gap_converged=1 pbc="F F F"
Au      16.60673388      15.88162217      10.60081175
Au      14.48534989      14.25420810      11.15042317
Au      15.34323835       9.63606989      13.85952518
Au      12.19778332      15.70514326      11.47502778
Au      16.95625143      13.62659889      12.15074148
Au      14.88451474      11.81707603      12.27279328
Au      12.43398321      13.16336104      12.62148898
Au      14.55581985      16.89636533      12.05228303
Au      18.87327145      15.64633137      12.08271948
Au      17.22689482      11.58697343      13.91874686
Au      10.96285564      15.23108855      13.79536686
Au      17.11675523      17.68423484      12.69923926
Au      18.90323752      13.77383545      14.06228968
Au      15.58004343      11.02500309      16.20427710
Au      12.37706951      17.58906401      13.54298254
Au      13.39355595      11.48503645      14.57650712
Au      11.28329413      12.92238332      15.23939950
Au      14.84253815      18.93609532      13.74174614
Au      18.91395614      16.58666376      14.62690208
Au      19.65377545      14.75860046      16.48951282
Au      11.19193626      16.83301879      16.04304976
Au      11.61104273      14.49240206      17.46327055
Au      13.24686163      12.23772122      17.21690097
Au      15.26164265      20.36492910      16.03453844
Au      17.69166571      12.78958981      16.30514521
Au      17.08689410      18.44344375      15.32406770
Au      13.31283600      18.41027927      15.98525677
Au      15.73701950      12.82974896      18.22335701
Au      17.93126891      16.75687154      17.30152023
Au      13.18379901      16.67084667      18.10025282
Au      15.52914609      18.15433798      17.62037698
Au      13.57190845      14.14060781      19.24233212
Au      18.02464271      14.26854136      18.60933085
Au      15.68112639      15.61467492      18.41081370
Au       9.34728777      14.78723198      15.95700279
35
Properties=species:S:1:pos:R:3 config_type=qcd gap_pre_relax_energy=-92.14216204190477 gap_pred_energy=-92.36690915074992 gap_fmax_final=0.0008370549224772479 gap_converged=1 pbc="F F F"
Au      16.72441838      20.57560246      13.90000385
Au      18.13233628      18.88417437      15.52564477
Au      14.48548091      19.36889269      12.88499364
Au      16.98556359      17.97836362      13.06575612
Au      15.30034561      18.92432270      15.56652911
Au      19.38515945      17.10289597      17.11677331
Au      18.74879037      16.37293650      14.50902206
Au      14.73227483      16.73537143      12.09880023
Au      12.76676423      18.19312015      14.73426224
Au      16.65139066      17.18401895      17.18199313
Au      16.85286376      15.28877925      12.89450487
Au      12.31449786      18.01843874      12.00385382
Au      14.00253158      16.91015934      16.82153415
Au      18.86610831      13.73165270      13.85226990
Au      12.42052234      15.42777152      11.24605072
Au      18.94559695      14.35022577      16.51554604
Au      18.04530055      15.47345315      18.84195838
Au      11.21955737      16.04238258      13.66459160
Au      11.33175311      16.58344103      16.36877015
Au      17.60090964      12.10564506      15.63150591
Au      17.07478341      13.04510425      18.22764793
Au      15.31140201      15.22651939      18.54965669
Au      16.49265715      12.58288940      13.13359447
Au      12.71415378      12.81595500      10.44309843
Au      14.89239746      14.08639019      11.49430762
Au      12.70853865      14.76096496      17.85542189
Au      11.66896361      13.35295361      12.91185500
Au      11.20596938      14.01452514      15.50234036
Au      16.13679035      10.65369746      17.39956835
Au      14.35555269      12.61953074      18.39758619
Au      15.20932003      10.84065519      14.82174824
Au      13.96940144      11.63522022      12.55636005
Au      12.47687679      11.64308649      14.85761009
Au      11.75839891      12.23623350      17.48052086
Au      13.51262854      10.23462651      16.94431983
35
Properties=species:S:1:pos:R:3 config_type=qcd gap_pre_relax_energy=-92.1861052404493 gap_pred_energy=-92.37351462409738 gap_fmax_final=0.000957864731272408 gap_converged=1 pbc="F F F"
Au      16.48554443      11.72202002      18.21414906
Au      15.28191207      14.08145737      18.83031686
Au      17.32166435      18.75759397      16.81787968
Au      12.57019017      13.78350800      19.09234914
Au      17.45528451      14.12647532      17.17742357
Au      16.35793523      16.49193939      17.96651820
Au      13.66583411      16.14853037      18.13225592
Au      13.84965715      11.93806472      17.56240398
Au      18.32245005      11.64031507      16.22514046
Au      18.47810737      16.38413861      16.07789667
Au      10.93579338      15.57293072      17.87215900
Au      15.64079810      11.40226853      15.58176464
Au      18.99082361      13.90996407      14.91021855
Au      13.16696563      19.64803562      15.06995598
Au      11.87992801      13.43658163      16.40319148
Au      14.62943162      18.50788957      17.10478214
Au      12.03608674      17.68739794      16.57767672
Au      12.97695177      11.35567238      15.02698331
Au      17.48482365      11.82660107      13.62390881
Au      18.90201420      13.62206847      12.18218121
Au      10.83602222      15.62032663      15.11384170
Au      11.33414865      18.01478464      13.88445802
Au      15.76748482      19.19734044      14.56139340
Au      12.22439680      11.09220815      12.41445516
Au      18.79629696      16.13464658      13.34154655
Au      14.89648907      11.29274266      12.94517271
Au      11.40263363      13.34765284      13.71014163
Au      16.62194118      17.78125609      12.39073321
Au      16.20250698      13.25530476      11.56109316
Au      12.32391783      15.75260119      12.76161714
Au      13.46579102      13.45662260      11.77712276
Au      13.89785645      18.06843715      12.84469638
Au      17.46993344      15.61801403      10.99799967
Au      14.90930632      15.71324060      11.92853681
Au      18.41907847      18.61136878      14.31803635
36
Properties=species:S:1:pos:R:3 config_type=qcd gap_pre_relax_energy=-94.72303124020817 gap_pred_energy=-94.91237935655028 gap_fmax_final=0.0009020911836690902 gap_converged=1 pbc="F F F"
Au      12.34672583       8.76875616       8.71188951
Au      11.95092529       7.46932295      11.25986593
Au      12.07499384      10.45982006      12.63023062
Au      12.23320143      11.30430239       7.58368559
Au      14.47084993       8.12282093      10.32333456
Au      14.45082308      10.54099665       9.14542228
Au      13.26345083      12.41963168      15.96579984
Au      14.91610145      12.89792362      10.60745732
Au      10.03321916       7.46434637       9.36852499
Au      14.50657017      12.91009546       7.83513522
Au       9.31234490       8.19940518      12.00092159
Au       9.38654190      10.13490674      14.11747939
Au      12.09622863      14.13017378       7.41681858
Au      10.70846206      12.57744753      14.69816257
Au      13.83699785      15.15402745       9.26159020
Au       9.98554437      12.79885329       8.42509027
Au       9.90619705      10.03775434       8.36397931
Au      12.20049175      12.16331244      10.54948913
Au       7.68878443      11.62754717       9.18767517
Au       7.78393329       8.87963383       9.78706417
Au       5.49740633      10.28378923      10.28559983
Au      13.16289904      14.80853394      11.84851517
Au      11.10588970      14.92528097       9.93640824
Au      13.91900797       8.16905035      13.00144863
Au       8.68906109      13.88251818      10.69835542
Au      15.13563199      10.42096831      11.85549948
Au       9.85866268      11.02651561      11.12187929
Au       6.34091657      12.63387931      11.42594664
Au       7.34550956      10.17211335      12.35026917
Au      14.36694163      12.74890610      13.29018276
Au      10.50869431      14.49019301      12.64507225
Au      11.72456718      10.18833110      15.58465845
Au       8.44837813      12.67241005      13.21970865
Au      11.27619049       8.05379903      13.90526641
Au      14.35239690      10.34796824      14.57077063
Au      12.57819899      14.57740497      14.48354248
36
Properties=species:S:1:pos:R:3 config_type=qcd gap_pre_relax_energy=-94.60736216037482 gap_pred_energy=-94.77673785440761 gap_fmax_final=0.0007721594237460201 gap_converged=1 pbc="F F F"
Au       7.74155056      12.23679892       9.89982298
Au       8.04863857       9.61028264      10.57173888
Au       7.89644073      14.99571430       9.24667556
Au       9.27890353       7.12952604      11.27205698
Au       9.56057765      13.36289777       7.85827047
Au       9.51738444      10.67837276       8.28740671
Au       9.34824708       8.04592115       8.56675056
Au       7.90550432      11.50754625      12.60312648
Au       9.46365841       5.42823241       9.18887109
Au       9.16458926       9.02872747      13.11829595
Au       8.14964095      14.23014255      11.86930679
Au      10.55020490      12.65479385      10.47662682
Au      10.88411706       9.81080450      10.79646285
Au       9.37902891      10.90770280      15.10566695
Au      10.27847527      15.52918066      10.58874600
Au      11.84189818       7.61650343      12.40842846
Au      12.01119743      11.95939948       7.66832318
Au       8.80447955      13.48396556      14.36012929
Au      11.03196783      11.59611933      13.01717122
Au      11.87956975      14.61110695       8.57252656
Au      13.26355755      11.19008180      15.02398304
Au      13.00390422      11.57075578      11.11994590
Au      11.69432444       6.84840681       9.71186744
Au      10.99751891      14.65428414      13.08531284
Au      13.51349829      13.59376380      13.68607970
Au      11.49187096       9.16067296      14.61998247
Au      11.90420392       9.20097025       8.14804843
Au      11.31535129      13.06857475      15.39848791
Au      14.17778712      13.27261418       9.02923150
Au      13.65030370       8.48618096      10.46301500
Au      15.25198976      13.26958740      11.55298590
Au      13.95270830       9.19910061      13.25623698
Au      14.20648845      10.56732681       8.69267626
Au      12.98488638      14.83995925      11.13054592
Au      15.51276923      10.34609068      11.20062141
Au      15.58218899      11.54731683      13.64400139
37
Properties=species:S:1:pos:R:3 config_type=qcd gap_pre_relax_energy=-97.57118761645728 gap_pred_energy=-97.93737944238731 gap_fmax_final=0.0009747335167282781 gap_converged=1 pbc="F F F"
Au      14.76772619      11.61304556       8.91035052
Au      13.31770082      13.93674086       9.25212288
Au      15.18673814      13.06196470      11.13339026
Au      13.18008859      14.71901522      12.07093243
Au      14.79984787      13.39142767      13.87615921
Au      15.60186243      10.91088020      12.88368726
Au      11.40896018      15.63897629      10.22100237
Au      12.15687317      13.51385544      14.56261762
Au      10.52429016      14.93673062      12.82906914
Au      14.93054922       9.53839674      10.64583048
Au      13.62091490       9.18120817       8.27389796
Au      12.59569240      12.07894503       7.21236183
Au      10.63435355      13.65467270       8.35390301
Au       8.93170344      14.56656835      10.29607049
Au      11.85907661      11.15625068       9.70898229
Au      13.57418373      11.07028690      14.95764013
Au      12.92579044      11.56375172      12.23870362
Au      10.41494175      12.47924625      11.62863888
Au       7.93646205      13.46263203      12.70319728
Au      14.01523553       8.66804495      13.07664008
Au       8.13404253      12.26372641       8.93073294
Au      10.85178726      11.11927631      15.37351190
Au       9.93539650      10.95257572       7.49677128
Au      12.04242587       9.67409038       6.08101810
Au      12.81497096       7.76888986      10.52717912
Au       9.44606438      13.41732744      14.96308542
Au      10.79638403       9.86407029      11.99344941
Au       6.31854156      13.73267882      10.46894391
Au       8.28992241      11.06406195      13.98351141
Au       8.49062761       9.50385145       9.44251751
Au      12.33228588       8.68632609      15.29001966
Au      10.92287102       8.48433400       8.39615914
Au       7.11517031      11.20952331      11.26741569
Au      11.64920887       7.32305159      12.97651395
Au       9.72759124       8.78460754      14.47909069
Au      10.01288699       7.49324915      10.72001938
Au       8.15583186       8.93472010      12.19386324
37
Properties=species:S:1:pos:R:3 config_type=qcd gap_pre_relax_energy=-97.69891766865233 gap_pred_energy=-98.06334981772028 gap_fmax_final=0.0009379341958127985 gap_converged=1 pbc="F F F"
Au       9.64346808       6.83070768      10.66892396
Au       7.87997426       8.50101329      11.89099538
Au      12.16322656       6.26241383      11.60396183
Au      10.32117373       7.68703909      13.17460755
Au       6.88245084      10.59170529      10.18938236
Au      11.87381543       7.25609668       9.07205203
Au       6.41169032      10.56448293      12.89598873
Au       8.61628928      11.04131410       7.75737228
Au      10.51611384       9.04155554       7.50480874
Au      11.36819434       9.55664611      14.83224723
Au      13.20752912       8.10770397      13.25604173
Au       8.73871292       9.88065388      14.15230981
Au       8.26644542       8.59942630       9.05106662
Au       5.98001538      12.91331783      11.49755285
Au      10.55645270       9.56228525      10.35063908
Au      14.05684581       8.01101603      10.48281385
Au       9.69560963      12.21594245      10.58554434
Au       7.34073988      13.05832424       9.10523180
Au      10.58680248      15.01302386      10.18025810
Au       8.08209546      12.65971906      13.39151144
Au      13.23493808       9.31566155       7.99373120
Au      11.33873345      11.58409044       7.06825623
Au       9.74534591      13.61393904       7.94663291
Au      10.34520111      12.17963843      14.72401219
Au      12.43305454      11.57788293      10.02276445
Au      11.36766805      11.00071072      12.43350715
Au       8.19121013      14.55489382      11.42062116
Au      15.44840466       9.50314345      12.27473419
Au      13.76620687      10.64384833      14.07782591
Au      10.47207352      14.37310771      12.91956076
Au      13.99866027      11.87641504       7.49973260
Au      12.40102875      14.03317530       8.38648309
Au      15.05568698      10.48824109       9.78710862
Au      12.75751356      13.16700057      13.82233183
Au      14.80015899      12.24550472      12.14776085
Au      12.93227372      14.37652940      11.40080131
Au      14.76898808      13.35662227       9.67561805
38
Properties=species:S:1:pos:R:3 config_type=qcd gap_pre_relax_energy=-100.41333063423447 gap_pred_energy=-100.73068876044984 gap_fmax_final=0.0009146416762037428 gap_converged=1 pbc="F F F"
Au       7.42815379      12.40326602      15.32945822
Au       9.96775897      13.50069588      14.70166807
Au       7.91576542      13.45210196      12.80379872
Au      10.19593512      15.05196506      12.31585500
Au       8.48365984      14.12036860      10.29977613
Au       9.69617700      10.80567256      15.25270764
Au      12.37390962      14.43181060      13.98446493
Au       7.54800442      10.55719225      13.32465504
Au       8.90241131      14.95765820       7.65893469
Au      10.89108986      15.22934885       9.56760265
Au       7.45665370      11.52413164      10.64442118
Au      12.53442535      12.52002571      11.85818504
Au      12.29955822      11.85924565      15.14614478
Au      12.84417904      15.30499595      11.39966632
Au       7.65246212       8.81633776      11.21937719
Au      11.10265938      11.62525390       9.73341235
Au       8.49895451      12.31232804       8.21763642
Au      11.74242486       9.18823088      14.61417389
Au       9.51674533       8.49251069      13.22811022
Au      10.06036689      11.42280401      12.24990978
Au      15.09346217      13.65012010      11.18845632
Au      14.59611555      12.80756249      13.77521352
Au      14.18505791      10.13533708      13.96278153
Au      11.17769762      13.45200708       7.45269859
Au      12.20763105       9.76039025      11.68879910
Au      13.40261079      13.89796062       9.00410426
Au       8.87871758       9.67012242       8.95392903
Au      11.86517704       7.14126634      12.79179560
Au      10.45545440      10.80808697       6.97467028
Au      13.10176464      11.35918000       7.71513714
Au      15.39008924      11.93645612       9.06158432
Au      10.16126291       7.81169925      10.59162708
Au      15.41350739      10.91978784      11.65048250
Au      14.25695663       9.48709032       9.47167957
Au      11.67120574       8.97108097       8.55838781
Au      14.65197487       8.29124111      12.01244279
Au      13.99095348       5.65596909      11.99332367
Au      12.83898963       7.11862114      10.05285201
38
Properties=species:S:1:pos:R:3 config_type=qcd gap_pre_relax_energy=-100.56240317326385 gap_pred_energy=-100.78795818952173 gap_fmax_final=0.000831344689328564 gap_converged=1 pbc="F F F"
Au      15.76037771      12.77975878      10.92136300
Au      14.53040830      14.90143419       9.71730894
Au      12.49455635      15.91424011      11.17321231
Au      10.29611832      15.41375215       9.45258022
Au      14.48483533      12.41306390       8.49938203
Au      12.32544312      14.01111198       8.33470732
Au       9.82721272      12.89078409       8.42635486
Au      14.45467297      14.57244036      12.53184025
Au      11.86115579      15.02034254      13.72410501
Au      15.22670863      11.94124338      13.47546624
Au       9.85314486      16.04378743      12.08379963
Au      12.06216244      11.25139981       7.78456123
Au      14.14766643       9.73780536       8.95486232
Au      13.16393462      11.42185973      11.06087366
Au      11.25008799      13.33479566      11.17454983
Au       8.41321083      13.87226308      10.91402555
Au      15.53097065      10.04758018      11.36743739
Au      13.89590789      13.76268503      15.06895901
Au       9.55458770      10.21328264       7.91925797
Au       9.28304481      13.82680707      13.58106137
Au      13.34043099       8.20513396      11.15502148
Au      11.28257523      12.95648659      15.48574999
Au      11.45343512      11.41083570      13.17369743
Au      13.46342861      11.10906028      15.48099836
Au       7.64060181      11.64469440       9.60691887
Au      10.47864963      10.69803689      10.64902233
Au      14.28678445       9.25448182      13.60622066
Au      11.71717937       8.57663370       8.83935814
Au       7.94617221      11.55830789      12.36682933
Au      10.59937075       7.76387554      11.24146947
Au       9.01406982      11.47978577      14.88399521
Au       9.37364375       9.20672563      13.29150503
Au       6.97795487       9.27859343       8.38565080
Au      10.99489253       9.75461638      15.52991047
Au       8.02476539       9.15339450      10.96077931
Au      11.90398179       7.89705450      13.58632756
Au      13.26758974       8.35197951      15.98540254
Au       9.11512767       7.62672728       8.90229611
39
Properties=species:S:1:pos:R:3 config_type=qcd gap_pre_relax_energy=-103.344882001026 gap_pred_energy=-103.48827997171342 gap_fmax_final=0.0008144880157212366 gap_converged=1 pbc="F F F"
Au      13.57350041      13.60278883      15.40147691
Au      12.17393285      13.09119814      17.75697204
Au      13.75362449      11.13116332      16.70693029
Au      14.82646816      11.29915835      14.16064930
Au      14.50928124      13.83161899      12.85122453
Au      15.66635728      11.49713357      11.61822752
Au      12.15242098      15.20230277      13.66142817
Au      10.66476096      13.94794696      15.65984664
Au      15.19193540      14.03573701      10.20954914
Au       8.99257135      12.10784970      14.38682103
Au      12.84122166       9.39650931      14.79053236
Au      10.98962257      11.15284034      16.06712611
Au      12.96235499      15.41444633      11.05286755
Au      14.33917019       9.91458042       9.73308236
Au      14.28027791       9.16913639      12.41127644
Au      15.34962451      13.95319983       7.43841330
Au      12.05358130      12.07319460      13.50063125
Au      10.56354746      16.47794890      11.76648667
Au       9.30786595      14.79718729      13.50937196
Au      10.08160792       9.50291382      14.08738919
Au      11.93897330       7.61607586      13.00793695
Au      12.93775047      12.41699114      10.77200910
Au       8.13505198      15.41060185      10.93202565
Au      12.83430366      14.44645747       8.43416763
Au      12.80944727       7.79252769      10.34341037
Au      16.16324366      11.79297517       8.91360913
Au      11.57813828      10.15771597      11.47941822
Au      10.28041955      12.60613470      11.50005899
Au      10.43366218      14.95974995       9.49139907
Au      13.54025632      11.83170476       7.79508951
Au       7.47838954      13.12523841      12.26047805
Au       8.30290832      10.55790438      12.16623686
Au      11.83101724       9.83886937       8.40658313
Au       9.45929108       8.17433495      11.72099908
Au      10.92215551       5.89957365      11.07868001
Au      10.82446189      12.43603880       8.33128158
Au      10.24522059       7.73778262       9.12182811
Au       9.30400967      10.33680284       9.55272499
Au       8.36261771      12.91871139       9.57680658
39
Properties=species:S:1:pos:R:3 config_type=qcd gap_pre_relax_energy=-103.25727413897302 gap_pred_energy=-103.58028530576836 gap_fmax_final=0.0007809861938672262 gap_converged=1 pbc="F F F"
Au       9.04408138       7.05254107      13.51949795
Au       7.20215511       7.19550685      11.55219447
Au       9.94872662       9.46803168      14.41047541
Au       9.82819038       6.93072631      10.74313068
Au      12.50988607       8.69049702      14.88316946
Au      11.68730158       7.08808627      12.80768743
Au       7.54787461       9.46934689      13.21306990
Au       5.97795847       9.53197382      10.89761956
Au       9.08935466      11.94594922      13.73550066
Au      10.82864018       9.56940863      11.77066724
Au      13.92570867       8.68577155      12.47350969
Au      14.34786572      10.63597858      14.39986842
Au       7.91046410       8.32883100       9.16991008
Au      11.73826261      11.48021764      14.70472136
Au      10.50538614       8.13269799       8.36944495
Au       7.06871646      11.81778990      11.90204210
Au      10.92916067      14.04484351      13.66064393
Au      12.59142842       7.40657465      10.21745061
Au       6.77312451      10.79295199       8.64051738
Au      11.72090522      10.63243570       9.43157430
Au       8.92908317      10.02338602       7.12753192
Au       9.17962972      11.09199252      10.21360559
Au      13.12414816       8.52974313       7.74602917
Au      14.35771313       9.51254751       9.93761253
Au       8.93193581      13.93184123      11.71675553
Au       7.34510675      13.33299445       9.61458137
Au      11.54491264      12.17443048      11.68698081
Au      14.87188991      11.37476403      11.83928367
Au      13.76181482      13.18183588      13.66788178
Au      11.35967920       9.63256827       5.98658188
Au      12.96475830      15.70101656      12.94213034
Au       8.04155813      12.67441251       7.04835388
Au      10.71906446      12.23250184       6.79541760
Au      13.25856634      11.28558792       7.16010102
Au      11.35920262      14.94783358      10.76498515
Au       9.85710223      14.00761666       8.73237111
Au      14.85899871      12.08590113       9.18767224
Au      13.94255467      13.91845644      10.94887696
Au      12.56548096      13.60880083       8.52894315
40
Properties=species:S:1:pos:R:3 config_type=qcd gap_pre_relax_energy=-106.3243749509178 gap_pred_energy=-106.53697951665261 gap_fmax_final=0.0009986644134984085 gap_converged=1 pbc="F F F"
Au      17.40841786      12.27443474      10.95529291
Au      15.95216506      12.10088521      13.29977634
Au      15.69644551      10.11313750      11.34734949
Au      15.43939034      14.21006560      11.23389702
Au      15.17605311      14.65547414      13.91397193
Au      15.20443554      12.14562292       9.30178329
Au      14.26518753       9.93227253      13.85476244
Au      13.88882900       8.17650125      11.70985630
Au      13.33114330      12.03414279      11.50762122
Au      13.96216718      12.41309721      15.11541727
Au      13.74545110       9.70268316       9.33804889
Au      12.16447919       8.05820658      14.01499145
Au      13.28534350      14.39002927       9.52482994
Au      12.64477401      14.88237262      14.85441684
Au      12.86991709      12.01771030       8.00506819
Au      13.15381203      15.46908861      12.13775432
Au      12.08947932       6.07646664      12.13684485
Au      11.92807490      10.46271856      15.28892139
Au      11.49905966      10.15693173      12.26472119
Au      11.67553480       7.95206193      10.06381354
Au       9.31008966      11.35437235      16.15950566
Au       9.84411120       7.63457988      12.22201105
Au      10.72874144      12.12913901      10.46607059
Au      11.40329645      12.84012501      13.19411568
Au      11.51928584      12.93117454      16.36607792
Au      10.97958713      14.03387773       8.12782947
Au      11.19454217       9.83536359       8.19609566
Au      10.82719104      15.13163534      10.62536732
Au      10.61916153      11.84227694       6.39478657
Au      10.58343603      15.65696721      13.27628299
Au       7.67118473       9.29721264      12.44997866
Au       9.59620737       9.30577072      14.40738343
Au       7.83448847      11.64092180      11.01295740
Au       9.36228917      13.78207956      14.86067319
Au       9.25856217       9.37435532      10.18143382
Au       7.98342660      11.66128230      13.76484630
Au       8.49913812      13.96166128       9.54751277
Au       8.78539681      11.35263955       8.41616950
Au       8.65126083      13.98333746      12.22420128
Au       8.56299857      13.62187990       6.83211734
40
Properties=species:S:1:pos:R:3 config_type=qcd gap_pre_relax_energy=-105.52489462903347 gap_pred_energy=-105.89777157304096 gap_fmax_final=0.0009995753217193614 gap_converged=1 pbc="F F F"
Au      14.82572447       9.42799543       8.05782462
Au      15.88416534       7.93753567      10.05801895
Au      12.29795208      10.09866766       7.38824150
Au      12.18422501      12.76779442       6.87480863
Au      14.26906950      12.18506475       8.50574686
Au      15.49543844      10.68541748      10.46004731
Au      12.89046711       8.24385785       9.66252333
Au      10.34502332       8.79329655       8.73871572
Au      15.91931166       8.86011565      12.62129060
Au       9.82277999      11.28971294       7.58899310
Au      12.66498821      14.37046521       9.20144900
Au      14.03669580       7.02084053      11.88875638
Au      12.28727506      10.93770889      10.20335778
Au      11.48070306       7.69994832      12.00099364
Au      14.55131428      13.26390607      11.00758879
Au       9.01695527       7.87568834      10.85067177
Au       7.99280410      10.06702567       9.44197436
Au      10.14347436      13.98701456       8.13565288
Au      14.80815072      11.27438952      13.04125830
Au      13.35853387       8.99351012      13.77529494
Au      10.43023456      10.19396056      12.04291807
Au       7.50945926       9.79857474      12.24992918
Au      10.32338644      15.29828533      10.51131559
Au       6.35730006      11.80528128      10.95425520
Au      12.04107431      12.31649466      12.55410401
Au      14.50482980      13.90468110      13.64595744
Au       9.91280791      12.42991237      10.58803318
Au       7.73911396      12.75864403       8.63190867
Au       9.28375020       8.04359790      13.57447529
Au      12.60279820      15.03595409      11.92511239
Au      10.98792787       9.70091290      14.87710052
Au      12.98942257      11.44236768      15.14507665
Au       7.80534628      14.35409783      11.22187222
Au      14.02883254      13.68653287      16.30699015
Au       7.85466108      12.41171066      13.26289259
Au      10.08080084      12.31848945      14.94510992
Au      11.93960634      14.32535297      14.69557513
Au       5.60078584      14.05537679       9.68502473
Au       9.80139300      14.44869464      13.08684136
Au       8.26429549      10.22400074      14.92517746
41
Properties=species:S:1:pos:R:3 config_type=qcd gap_pre_relax_energy=-108.96984563490867 gap_pred_energy=-109.5627046357715 gap_fmax_final=0.0009392782414904573 gap_converged=1 pbc="F F F"
Au      12.64755400       8.96110339      14.04751212
Au      14.63503374      13.02590189      10.74129408
Au       7.81512466      13.61116779      10.54420523
Au      14.36921514      13.35441303      13.44341573
Au      11.45151064       7.42725033      11.95420292
Au      11.47681883      16.05297995      13.48782131
Au      12.74721131      14.41380882       9.11620185
Au       7.49010208      10.89841600      10.91889999
Au       8.65815650       8.33875446      11.47992811
Au      12.47626320      14.18941879      15.24394600
Au      12.67433084      10.55671814       6.20899326
Au       8.48644122       9.31925148       8.89154591
Au      14.69461967      10.68162338      13.15948362
Au      10.18043921      11.95061203      10.66431842
Au       9.94322091      14.31499195       8.97233787
Au      15.70747666       7.71560601       9.70683226
Au       9.69491269      14.25340287      14.89150252
Au       7.75636117      10.08216626      13.48081931
Au       8.53412436      12.01882795       8.39311018
Au       9.88825872       8.38479336      13.92462737
Au      11.39384388      12.71227913       7.34251327
Au      11.47448914      10.07794253       9.15809465
Au      15.19143647      10.41515717      10.39796509
Au      10.30619949       7.40402047       9.49093270
Au      11.07120748      15.96110847      10.75254574
Au      10.93274398      10.01706493      15.89935367
Au      14.28348740       9.30359777       8.02074707
Au       9.02139155      15.14820735      12.38675205
Au      11.57192664      13.50210247      12.49047396
Au      13.57293237      15.32400964      11.66934911
Au      13.90985727      12.02407665       8.31661494
Au       9.95369491      10.34641839       6.78781662
Au       7.66094952      12.87507799      13.17565128
Au      11.77779512       8.14203479       7.23559569
Au      14.09915866       8.27771619      11.87514782
Au      12.49786679      10.91587911      11.51157068
Au      13.19216200      11.54808997      15.28327320
Au      13.00702011       7.19562239       9.57013305
Au       8.65573994      11.78243229      15.48646904
Au      10.41571144      11.15491703      13.32986274
Au      10.93236640      12.57019347      16.79729570
41
Properties=species:S:1:pos:R:3 config_type=qcd gap_pre_relax_energy=-108.93829271074365 gap_pred_energy=-109.30711902213955 gap_fmax_final=0.0008984560693649515 gap_converged=1 pbc="F F F"
Au       7.32013269      10.67029090      13.45206485
Au       8.48526121      12.87464242      14.83355643
Au       8.03326674      14.31526036      12.52741282
Au       7.12240389      12.22957750      11.02247114
Au       9.34296285      10.23667975      15.20255475
Au      10.96888240      13.18675235      15.84256025
Au       7.24947628       9.51492980      10.97385282
Au      11.73266752      10.59172153      16.35363102
Au       9.85315079      15.95053344      11.41147072
Au      10.17827709      15.10357419      14.10166113
Au       9.09058019       8.56923933      12.93373500
Au       9.61971692      11.91401794      12.45539018
Au      13.63474821      12.51286895      16.47866798
Au       8.93534042      13.86816769       9.76590615
Au      12.28593993      15.80886928      12.52764995
Au       8.72497510      11.11460180       9.09964635
Au      11.58253933       8.80684096      14.31013747
Au      12.15712625      11.81467715      13.61883706
Au      13.04982738      14.59871964      14.76736524
Au       9.66669620       8.62794539      10.16438462
Au      11.63883983      13.34868500      11.24706431
Au      15.14264119      12.80372228      14.24479924
Au      11.30419096      15.30040474       9.19995024
Au      11.56292281      10.48709278      11.16617007
Au      14.86372730      15.03869526      12.58695133
Au      14.08348545      10.18071296      14.81803460
Au      11.45125037       7.55942420      11.92414621
Au      11.04384375      12.63001942       8.39216375
Au      13.65884359      16.21639690      10.22429227
Au      13.88217374       8.70562688      12.49187344
Au      11.03700284       9.93281042       8.21456362
Au      14.03202470      11.90945858      11.53350631
Au      16.71835570      13.02599536      12.01383508
Au      13.57073874      13.69103255       9.00045371
Au      16.03550678      10.40021915      12.92760120
Au      13.52471804      10.97988532       8.49221752
Au      12.87626566       8.51671384       9.76641518
Au      15.97980440      14.81876248      10.07185578
Au      15.33174266       9.56994985      10.21183197
Au      15.88344996      12.19444655       9.26028506
Au      17.75186377      10.78739874      10.77639682
42
Properties=species:S:1:pos:R:3 config_type=qcd gap_pre_relax_energy=-111.91658466505211 gap_pred_energy=-112.11114119310037 gap_fmax_final=0.000988434024689605 gap_converged=1 pbc="F F F"
Au      11.75262752       8.21707222      13.25672341
Au      14.37337427       8.95985686      13.33101164
Au      17.04573941       9.61126429      13.42389082
Au      10.17490403       9.29806741      15.23841955
Au       8.93842767       8.91626214      12.81311892
Au      13.29783540       8.26121505      10.85300325
Au      12.80316308       9.90457897      15.38649227
Au      15.74127251       9.72983888      10.98502688
Au      15.36825591      10.95704755      15.11192684
Au      10.69827473      11.93768668      15.81176389
Au      10.50413033       8.06866623      10.78525239
Au      14.19030485      10.11116667       8.78838967
Au      11.81020761       8.75252661       8.50199599
Au       8.31530050      11.25056728      14.40377769
Au      12.21781467      10.76259172       6.73257920
Au      10.87453547      11.19945452      13.05340566
Au      16.16585120      12.06211721      12.56899923
Au      13.39534508      12.39142060      16.40045794
Au       6.60204917      10.27447557      12.40367906
Au      13.44924175      11.23973797      11.71237653
Au      12.75980414      13.08789938      13.70764902
Au       8.43737301      10.28096373      10.33593502
Au      15.40074592      13.71028563      14.61014946
Au      14.10001673      15.07045050      16.63182603
Au       9.79309156      10.88731876       8.00402155
Au      11.13955256      10.75701080      10.37640217
Au      15.42205776      12.42941825       9.90231783
Au       9.36218774      13.82486267      14.20490105
Au       8.03116029      12.58062912      12.00546997
Au      11.50319589      14.59617877      15.78255711
Au      11.63955900      13.31428262      11.15104021
Au      14.13147592      12.54430800       7.49596060
Au       9.12377929      13.12299594       9.53058230
Au      14.62837069      14.21161349      11.92036549
Au      13.58305897      15.81151206      14.02215084
Au      11.46645413      13.19651057       7.93422484
Au      13.60711101      14.49372800       9.32132659
Au      10.83481597      16.17562748      13.63144145
Au       9.25725081      14.94260463      11.66940594
Au      10.85727661      15.40375505       9.39437956
Au      12.71852995      16.08661184      11.44122329
Au      10.34113668      17.42247810      11.22103864
42
Properties=species:S:1:pos:R:3 config_type=qcd gap_pre_relax_energy=-112.03901284139394 gap_pred_energy=-112.46037998284748 gap_fmax_final=0.0008275167885140648 gap_converged=1 pbc="F F F"
Au      13.09332426      13.26245158      15.75266617
Au      14.17780219      10.98550734      14.44140146
Au      14.29106941      13.55700805      13.31768644
Au      11.89473116      10.81224095      15.93045918
Au      11.73073985      14.72152968      13.80733206
Au      14.59730181       8.82379020      12.84535023
Au      15.58074636      11.35028769      12.07801413
Au      15.20620545      13.69764063      10.72125742
Au      10.31036941      13.17795450      15.58857262
Au       9.80582190       9.38374632      14.86281562
Au      10.33935503      15.43149351      11.55849528
Au      10.88372751      11.68289722      13.35535958
Au      15.96021428      11.46857729       9.34997454
Au      15.65844889       8.98123308      10.29314880
Au       8.23359920      11.59729833      14.56092859
Au      15.20849147       6.52157759      11.38135256
Au      12.88057428      10.84380674      11.66553777
Au      11.25062020      12.89717565      10.86648827
Au      12.39104439       8.58769645      14.46031281
Au      13.10546002      15.29170978      11.53083757
Au      12.71584577       6.77272398      12.44013899
Au      14.08228528      15.41957541       8.95985211
Au      13.78902175      12.77236107       8.34103197
Au       8.85246211      14.03805520      13.40197474
Au      11.50548900      14.19452230       8.43871932
Au      13.45262106      10.19633976       9.01467029
Au       7.88291782       9.39912828      12.91785827
Au       9.25591354      15.84173871       8.98054102
Au      13.31293660       7.55333315       9.70288069
Au       7.09440266      12.12548306      12.16468754
Au      10.28097586      10.33324805      11.13037710
Au      11.76859406      16.73507394       9.45318920
Au      10.17386691       7.63042921      12.83532322
Au       7.93986421      14.33124275      10.80851577
Au       8.98604509      13.18814644       8.30964919
Au      11.26169120      11.52312970       7.90910339
Au      11.05702880       8.88615172       8.84132860
Au       6.63118804       9.93920909      10.53649912
Au      10.86805651       6.57071914      10.37391171
Au       6.63951311      12.39309511       9.39553380
Au       8.78672811      10.52956319       8.81329982
Au       8.68266043       8.17086313      10.48267795
43
Properties=species:S:1:pos:R:3 config_type=qcd gap_pre_relax_energy=-114.51928319000598 gap_pred_energy=-114.86220323218939 gap_fmax_final=0.0009869807076523785 gap_converged=1 pbc="F F F"
Au      16.81084564      13.62124456      11.09245998
Au      17.51635051      11.79668180      13.02554896
Au      16.99495730      16.11067652      12.26132311
Au      16.31019008      14.07782805      13.96872032
Au      16.22819007       9.42571185      13.10581197
Au      15.99306504      10.98000212      10.76442312
Au      14.78327782      13.01685630       9.33511172
Au      15.12323897      15.73949970      10.30880097
Au      14.50814072       8.70265874      11.13093428
Au      14.12588721      12.90539425      12.31429570
Au      14.27479392      15.76158501      12.96384187
Au      15.39331385      11.58480376      14.82282673
Au      13.79623005      13.88210160      15.04376001
Au      13.91176650       9.34229288      14.50185209
Au      13.67365573      10.48209582       9.17844777
Au      12.65050525      10.56218435      12.24986925
Au      13.35374902      15.20498369       8.37120597
Au      11.92745376      12.75249424      10.58373547
Au      12.56287883      12.59515676       7.77145774
Au      12.34105015      15.83795760      10.94396028
Au      11.85447994       8.60033308      10.22833993
Au      12.54940897       7.69771977      12.77859920
Au       9.90728884      12.78359651       7.16231999
Au      10.70674540      14.77365569       8.94948958
Au      12.74375218      11.40938918      15.83410510
Au      11.65853235      15.50178562      13.61305765
Au      11.32365424      12.66857581      13.30287706
Au      11.21614625       9.07585929      14.81614073
Au       9.76522039      14.90003757      11.55115506
Au       9.86607857       7.95673052      12.60069528
Au       9.15254933       8.74773133       9.96304976
Au       9.93267688      10.87713739      11.67726913
Au      10.78005546      10.61413123       8.68074848
Au      11.22478816      13.83211568      15.88928701
Au       8.82643607      12.91187336       9.70890734
Au      10.03480124      11.39030227      15.63866538
Au       9.15735111      14.41726005      14.19278477
Au       8.48245431       9.61469566      14.33322190
Au       7.72097255      13.08072386      12.23833528
Au       7.23343843       8.45577981      11.94285785
Au       7.30721894      10.87214505      10.65558428
Au       7.59579447      12.30871953      14.86740433
Au       6.23199540      10.67887205      13.18809748
43
Properties=species:S:1:pos:R:3 config_type=qcd gap_pre_relax_energy=-114.51614477377485 gap_pred_energy=-114.70484761994604 gap_fmax_final=0.0008826545224156191 gap_converged=1 pbc="F F F"
Au      18.10882942      10.92335743      17.11829673
Au      18.22470686      13.60600521      16.50053857
Au      17.90291983      16.88350009      20.56709490
Au      18.54745189      16.16555405      15.71326623
Au      18.07535870      14.31851681      13.71862027
Au      17.75970874      11.68868867      14.42636622
Au      17.31995873      19.72015968      13.05062129
Au      18.07934902      17.03865829      13.16758922
Au      17.44281110       9.02970017      15.27997686
Au      17.32211825      14.92576535      18.77526461
Au      17.91523021      17.58527092      17.95154585
Au      16.52870816      18.01345576      11.10460811
Au      16.13103255      12.60113238      18.07864702
Au      16.60914369      15.24245816      11.47232149
Au      17.80614999      18.76685451      15.54192452
Au      16.20862481      12.70307208      12.37698724
Au      15.36832703      10.59466426      16.34679533
Au      15.58769185      10.00424593      13.56873379
Au      15.44661989      17.02079686      19.46306105
Au      15.46680566      13.34075493      15.05949757
Au      15.82808856      15.71128049      16.54576113
Au      14.14543110      13.80078896      10.94633837
Au      13.92196621      11.26589683      11.91015883
Au      14.35681611      14.55631274      18.76953760
Au      15.25564637      15.94878381      13.86491336
Au      15.50825081      20.23504156      15.03361596
Au      15.42865771      18.66002718      17.24029407
Au      14.14075223      16.65016317      11.14402302
Au      14.62873279      18.55468147      13.06394494
Au      13.27580169      15.01743126      15.44272795
Au      13.27766802      11.21935485      14.64705796
Au      12.94237821      15.34901095       9.07975648
Au      13.45305056      12.34527562      17.24065865
Au      12.14842065      13.06386013      12.94210403
Au      13.30359603      18.63132907      15.50697719
Au      13.27608258      17.00337751      17.85838394
Au      12.27023633      17.20405817      13.35595973
Au      11.64711905      15.29427714      11.44181913
Au      11.79438351      14.57434286      17.82953990
Au      11.28711928      12.86371237      15.57146642
Au      11.24039643      16.93560376      15.99396545
Au      10.54789863      15.09865116      13.88321327
Au       9.46996077      14.84412738      16.40602575
44
Properties=species:S:1:pos:R:3 config_type=qcd gap_pre_relax_energy=-117.69514204683331 gap_pred_energy=-117.89396823461196 gap_fmax_final=0.0008858755174349115 gap_converged=1 pbc="F F F"
Au      14.47678968       9.16492945      10.61349217
Au      11.94419084      13.91434866       8.91950370
Au       7.44043625      12.80482714      10.71575430
Au      14.12775557      16.84792186      12.05315980
Au      14.50511451      12.39619488      15.26968032
Au       9.73054823       9.03997602      10.72022304
Au       7.53518694      10.26194147      12.15184476
Au       9.76025708      16.73684459      12.15373029
Au      12.08244153       8.70771814       9.26699272
Au      11.92452846      16.15953146      10.55950554
Au       9.66363614      14.66243984      14.03298849
Au      14.20935898       9.78638837       7.89910983
Au      12.18037213      11.32029389      16.36253200
Au      12.02049912      13.69273212      12.07143022
Au       9.78948628       9.00874065      13.46166464
Au       9.60082042      12.33417157       8.84898286
Au       7.57879608      15.09110345      12.19394911
Au      12.09070121      13.86128748      15.23808445
Au      16.66899578      10.48827880      11.94302552
Au      14.32510935      14.81064568      10.14510009
Au      16.64577860      13.00741593      13.42352027
Au      12.11559604      11.23910131      13.47024005
Au       9.75836411      11.99847976      12.11100514
Au      14.36735982      12.12413062      12.01203173
Au      11.99650694      16.12998182      13.63723762
Au      12.15286402       8.41208232      12.03056893
Au       9.57964403      14.68783386      10.25550460
Au       7.51050052      12.77777946      13.63531309
Au      14.39872345       9.72005785      16.08673896
Au      14.41817734      14.78618442      13.92785643
Au      12.05245317      11.25268668      10.64542838
Au      14.54553959       9.13126456      13.35369002
Au      16.38815583      15.31259183      11.99156700
Au      11.98146083      11.39328583       7.75404457
Au      14.35869992      12.45381977       8.74425762
Au       9.75834303      12.27388586      15.37475250
Au       9.84544383       9.67713660       7.99712870
Au       7.63692983      10.40827998       9.43221110
Au      16.44277602      10.62960608       9.22992761
Au      16.57624266      13.03346177      10.50744596
Au      12.20988778       8.66586479      14.79636409
Au      16.56823675      10.58312648      14.66594334
Au       7.76074682      10.35792844      14.86614512
Au      10.03367860       9.61083259      16.18745743
44
Properties=species:S:1:pos:R:3 config_type=qcd gap_pre_relax_energy=-117.6611476597543 gap_pred_energy=-118.03380901149185 gap_fmax_final=0.0009759658558515853 gap_converged=1 pbc="F F F"
Au      15.27533812      10.43505659      14.93440564
Au      15.57449858       9.24468559      11.10922120
Au      14.01968623       8.53312967      13.19077912
Au      16.80915024      11.23223852      12.65200409
Au      14.50640456       9.84593441      17.52293693
Au      14.44203330       9.50331272       8.62984673
Au      12.72406332       9.15169027      15.45124373
Au      12.85338770       8.62948391      10.65789268
Au      15.73361486      13.14822613      14.38729211
Au      11.32942701       9.01577308      12.97885860
Au      15.89690289      11.63461671       9.86674774
Au      14.10943047      11.38292275      12.51914383
Au      11.96199769      10.96997059      17.37262305
Au      15.79837493      13.73164910      11.63462690
Au      14.62645640      12.49657352      16.93400893
Au      11.91141395      10.64676539       8.78532779
Au      10.36999878      10.57998554      15.00991037
Au      14.11614105      12.00814012       7.70505819
Au      10.20946653       9.35971421      10.48009149
Au      12.75919049      12.25425610      14.93730942
Au       8.97698822      10.76488643      12.45927501
Au      13.16801841      12.80330684      10.37827540
Au      15.35412521      14.20707719       8.92041999
Au      15.22540141      16.29495475      10.64382836
Au      15.43668815      15.76833890      13.45034797
Au      12.12243204      13.73832266      17.42089873
Au       9.68462519      12.41652241      16.86684817
Au      13.54255312      14.48114321       6.72435735
Au      13.95686596      14.87216500      15.66712787
Au       9.96515299      12.13771331      10.16752981
Au      11.51295851      13.42446795       8.26587294
Au       8.08170708      12.12233251      14.63016565
Au       9.08096535      14.61725195      15.14097949
Au      13.15896758      14.19599708      12.90615924
Au      12.96249512      15.71948503       9.09546791
Au      11.45113427      12.06469564      12.56381189
Au      14.77644824      18.24529430      12.47763568
Au      11.02615399      14.64860510      10.83542473
Au       9.64026366      14.95085464      17.83293123
Au      13.01544577      17.08457501      14.23623049
Au      11.35696186      16.00600892      15.99987681
Au       9.07864469      13.64678196      12.53724776
Au      12.54491668      16.85257178      11.51910261
Au      10.61959569      15.89900882      13.26734269
45
Properties=species:S:1:pos:R:3 config_type=qcd gap_pre_relax_energy=-120.7236140278192 gap_pred_energy=-120.9103161130654 gap_fmax_final=0.0008752070580542786 gap_converged=1 pbc="F F F"
Au      14.63917528       9.42902229      10.68784047
Au      12.12100219      14.16829035       8.95264991
Au       7.62590195      13.08620709      10.71059796
Au      14.29507463      17.08113379      12.10405019
Au      14.66615135      12.60276934      15.27619738
Au       9.88231750       9.25531913      10.76668809
Au       7.67685445      10.53717826      12.21579015
Au       9.94096213      16.96577072      12.19494013
Au      12.25014273       8.95746807       9.33398795
Au      12.10140943      16.41090316      10.59321123
Au       9.83392909      14.88582902      14.07183119
Au      14.37819262      10.03981698       7.96867894
Au      12.35141472      11.61329610      16.46039025
Au      12.17591759      13.93225888      12.11250460
Au       9.95123008       9.31482448      13.51509838
Au       9.76593888      12.59527051       8.85405711
Au       7.75245985      15.32835206      12.25356265
Au      12.26064948      14.06908361      15.26437906
Au      16.82900487      10.75194974      12.02342865
Au      14.50870865      15.08371270      10.16521774
Au      16.84283648      13.21116640      13.46475612
Au      12.27889237      11.47119216      13.54619206
Au       9.93106913      12.22789847      12.09833635
Au      14.52826161      12.42939207      12.05836219
Au      12.16979057      16.35738416      13.69042807
Au      12.31131816       8.69512244      12.10301573
Au       9.75277846      14.93875214      10.28301902
Au       7.67830277      12.99570578      13.65899446
Au      14.63233794       9.91993469      16.21625753
Au      14.60301525      15.04426506      14.01130549
Au      12.23734759      11.50581029      10.70000349
Au      14.66973066       9.48093606      13.43157275
Au      16.54742360      15.52824454      12.07183888
Au      12.15689640      11.64711849       7.79369829
Au      14.53705568      12.70944489       8.78746620
Au       9.95714978      12.45064597      15.33312308
Au      10.02561327       9.93173211       8.04916872
Au       7.82184276      10.65199736       9.50196245
Au      16.61585282      10.85840475       9.30927440
Au      16.73032884      13.29743303      10.51693460
Au      12.35808362       8.84308449      14.82960117
Au      16.73561481      10.80197229      14.77122454
Au       7.91840115      10.58054382      14.94845212
Au      10.11999734       9.81088081      16.30919414
Au      12.42186044       9.09072044      17.57895511
45
Properties=species:S:1:pos:R:3 config_type=qcd gap_pre_relax_energy=-120.33686204171876 gap_pred_energy=-120.73235512906398 gap_fmax_final=0.0009568814840138115 gap_converged=1 pbc="F F F"
Au       7.36838210      11.19673071       7.43485969
Au       7.76375709      10.55509915      10.07202881
Au       9.47761995       9.51419647       7.79792875
Au       8.71041348       9.91097522      12.60004454
Au       7.24270114      13.19840343       9.31407085
Au       9.78108572       8.71331536      10.37517782
Au       9.73826211      12.35333528       8.26516139
Au       7.78083255      12.52079304      12.00124734
Au       8.74442307      12.00012473      14.52207244
Au      11.52276192       7.87230062       8.44642997
Au      10.70272546      11.70736533      10.95768931
Au       7.49273586      15.23620370      11.01744702
Au      10.24269315       9.74419144      14.85939106
Au       8.68724209      14.67522915      13.40823894
Au       9.88052971      14.54325396       9.89112468
Au      10.99752087       8.28157351      12.70247540
Au      11.89868595      10.66549932       8.56382898
Au      10.02144802      14.22222459      15.76412757
Au      10.73418747      11.78851609      16.57957460
Au      11.10235014      13.20250798      13.29018485
Au      13.57853176       6.31928193       9.20351166
Au      13.19831239       8.31384667      14.27019980
Au      13.32937077       7.32858314      11.75819811
Au      15.77684438       7.41461827      10.50252332
Au      12.26502671      10.76507445      13.01619626
Au       9.76817871      16.62510886      11.67775683
Au      13.40913979      12.91754400      11.88645221
Au      12.46507952       9.68534707      16.47496025
Au      11.02620753      16.15626525      14.10156865
Au      14.49916314      10.71885365      14.64941758
Au      12.19671357      13.42118557       8.95047624
Au      13.94026680       9.03059169       9.24969922
Au      12.72173825      14.57838697      15.54156628
Au      15.01475788      13.44214420      14.64126423
Au      14.30761170      11.70189360       9.38170511
Au      12.33048163      15.58110572      10.72849428
Au      15.41004863       9.02002906      12.75261999
Au      13.71654381      15.74334789      13.24019333
Au      16.23801689      11.68912797      12.76339695
Au      13.42114808      12.23514344      16.59805025
Au      15.88347686      14.44676059      12.27034667
Au      16.30569685      10.10451718      10.40261900
Au      14.61232534      14.43717081       9.74239075
Au      16.74645739      12.77785189      10.24769009
Au      12.14383189      17.83970916      12.28092710
46
Properties=species:S:1:pos:R:3 config_type=qcd gap_pre_relax_energy=-123.57361379305752 gap_pred_energy=-124.3599311923966 gap_fmax_final=0.0009031787926982076 gap_converged=1 pbc="F F F"
Au      10.99454983       6.73819354      10.26454873
Au      12.39977148       7.31856128       7.97686561
Au       9.93533349       8.52723267       8.53582601
Au      13.19446393       7.30828434      12.95800085
Au       8.59573226       8.01664683      10.95783607
Au      11.94467252       9.96656149       7.33748660
Au      10.53440859       7.54043104      12.75129294
Au       7.46688933       9.58334066       8.98131087
Au      13.69587803       6.91845905      10.35125463
Au      14.19448030      11.49306316       7.46302318
Au       8.52615988       9.08731098      13.57531985
Au      15.60313763      11.46736793      12.78675545
Au      14.86842510       9.05167861      11.55991591
Au      14.67828983      12.21549638      15.32110642
Au      14.33902478       9.08658603       8.76173135
Au       9.38830899      11.11803728       7.65929647
Au      11.08626368      10.80759109       9.88877393
Au       7.63967516      10.59074930      11.49382312
Au      11.70228219       8.49126806      14.94537755
Au       9.93462706      10.48776480      15.40988092
Au      14.05035296       9.68013697      14.19509043
Au      15.02427557      11.39354310      10.07363287
Au      11.73835068      12.76528177       7.49928068
Au      13.84141156      13.70360216       9.03057684
Au      15.57860640      13.83408977      11.17162499
Au      12.91030894      10.97344624      11.96977851
Au       7.95467217      11.84786210      14.01940673
Au      12.12991482      12.83724021      13.82530047
Au      11.62365272      13.23470619      11.16464516
Au      16.27303065      13.87815419      13.84289883
Au      12.51653667      10.73852181      16.22629403
Au      12.30950685      13.45741605      16.46043688
Au       7.53849019      12.31727341       9.34338370
Au       9.24616333      13.84809770       7.82249891
Au      10.24381143      11.16551368      12.51490483
Au      13.36380885      15.62186094      10.88956113
Au       9.71264011      13.21085452      15.58212129
Au      13.94463483      14.97200552      14.84028528
Au      10.75343730      15.87324959      11.91215769
Au      15.40669993      16.16682803      12.63738027
Au      11.32420110      15.04064533       9.13569814
Au       6.91423955      13.20716404      11.87990081
Au      11.07102043      15.43401074      14.66733933
Au       8.99663189      14.33366303      10.53529770
Au       8.78129680      14.53375524      13.34584850
Au      12.86840918      16.95493214      13.27370848
46
Properties=species:S:1:pos:R:3 config_type=qcd gap_pre_relax_energy=-123.51503883745713 gap_pred_energy=-123.74480696129467 gap_fmax_final=0.0009972247751606751 gap_converged=1 pbc="F F F"
Au      16.07390752       9.41487131      13.36290898
Au      16.15899276      12.06492493      12.77469729
Au      15.37215373      10.37083851      10.78997330
Au      15.01554899      11.19671968      15.20146727
Au      13.73762027       8.68744842      14.57476114
Au      16.70140185      14.72049839      12.64629422
Au      14.20172546       8.07613058      11.89950826
Au      15.85324945      13.33433299      10.35105734
Au      14.80719442      13.95416904      14.50121992
Au      13.10439488      10.20916395      16.85177786
Au      14.54556936      11.52465975       8.46694692
Au      11.95667243       9.86213620      12.08659966
Au      13.32306377       9.17900872       9.31456004
Au      11.53283078       7.41280884      13.37024965
Au      12.77093293      12.81280312      15.99529878
Au      11.90860133       7.26504494      10.65556534
Au      14.04038650      14.88585228      11.99738359
Au      13.21861678      12.02675941      13.19364905
Au      11.34320294       8.34511128      15.91779446
Au      13.43649015      14.57173545       9.35852253
Au      12.59190186      12.05329792      10.47526956
Au      10.57829387      11.00377777      16.15578267
Au      15.55614363      13.93506411       7.67144210
Au      13.02514498      13.33448647       6.85671525
Au      12.05936007      14.57128341      13.94241049
Au      11.85433150      10.91755852       7.77677974
Au      10.17579194      13.70841736      15.78416630
Au      10.54094301       8.67397460       8.78635908
Au      11.40300598      14.97957605      11.21937092
Au       9.61218217       9.34669575      14.02613207
Au      10.52802766      12.15780047      12.49889932
Au      10.82715759      13.88839358       8.72205602
Au       8.54068949      11.77231760      14.50687947
Au       9.49317042       8.34157979      11.45176201
Au       9.43940732      14.83959407      13.14679298
Au      10.45531923      12.77088967       6.21813229
Au       7.60286056      14.30600842      15.08708589
Au       9.88562792      11.34263923       9.93678067
Au       9.16754105      10.48493637       7.23603731
Au       8.78239636      14.09945130      10.55885490
Au       7.78436368      10.41826721      12.21582856
Au       7.08730571      13.19352102      12.62086070
Au       8.28601910      13.08821810       7.97020307
Au       7.86632606       9.40878541       9.54176364
Au       6.48191127      10.95870703       7.70505447
Au       6.87544481      12.09296452      10.18156841
47
Properties=species:S:1:pos:R:3 config_type=qcd gap_pre_relax_energy=-126.23620435586679 gap_pred_energy=-126.77024928279266 gap_fmax_final=0.000962947845205508 gap_converged=1 pbc="F F F"
Au      12.02884904      18.17316604      13.51156323
Au      17.54824874       9.77993530      14.47057503
Au      17.81064577      10.77137993      11.94827193
Au      13.95510517      12.96362623      12.04036787
Au      12.74335497      11.62306753       9.76804400
Au      14.59477217      19.22288346      14.00809980
Au      13.56451592      12.63384160      17.06805581
Au       9.91158525      15.37535156      10.25685694
Au       9.27459364      12.10096894      15.23921261
Au      15.18590990       8.62727575      15.20821100
Au      13.81248064      16.30204127       9.57617105
Au      13.16617698      13.67227384      14.51478130
Au      15.38271744      11.08823236      10.55846390
Au      15.65755383      11.28772446      15.83638291
Au       8.79435975      11.54111932      12.49794043
Au      13.22953616      18.08241453      16.05125075
Au      16.44684589      17.62925724      12.80617934
Au      11.05879898      16.52898701      15.55359615
Au      13.75774214       9.89155057      17.24447441
Au      11.35837037      10.96644274      16.52902703
Au      16.20567625      15.77233332      10.78810036
Au      17.45805918      12.50319661      14.13262143
Au       9.79707076      16.65017387      12.87446988
Au      14.36836596      15.61391047      12.98852069
Au      13.36937763       9.40138603      11.36280943
Au      12.40178348       8.81463680      15.08263539
Au      13.79995089      10.88272375      13.82463273
Au      10.03779495      12.64358474      10.23151086
Au      11.40979826      12.04604614      13.16717454
Au      13.40289730      15.39696162      16.64722470
Au      11.28829733       7.96420646      12.59528775
Au      11.07185177      13.81238992      16.56189873
Au      14.82794407      13.69276580       9.50429664
Au      10.77322393      10.13557936      11.02850662
Au      15.47484666      16.68633962      15.30536856
Au      14.11016283      18.19511824      11.51101504
Au      16.88718397      13.24550958      11.42947102
Au      12.14022770      14.21480109       9.19327666
Au      17.12983157      15.08177626      13.52583430
Au      11.88923642      14.79204898      12.23492190
Au      11.64527798      17.35725678      10.86962223
Au      10.01320949       9.71904383      14.21308814
Au       8.40440289      14.18184836      12.15352191
Au      13.83360564       7.29160263      13.22498950
Au      15.84891021       8.94143776      12.39795047
Au      15.78443495      13.99426910      15.80246529
Au       9.33966558      14.70276353      14.65651005
47
Properties=species:S:1:pos:R:3 config_type=qcd gap_pre_relax_energy=-126.29444807059843 gap_pred_energy=-126.7149046085598 gap_fmax_final=0.00099177002611319 gap_converged=1 pbc="F F F"
Au      13.74951874      17.42001301      11.47528693
Au      11.21002465      17.43327394      12.63399799
Au       8.85928592      17.11841645      11.09175335
Au      13.44118623      17.59143033      14.17079121
Au      15.27734582      15.70238530      13.44961660
Au      11.34226338      16.72451575       9.98318432
Au      15.98185766      15.88251347      10.84750175
Au       9.21295217      15.62532900      13.38867718
Au      13.80911603      16.06345081       9.12106285
Au      13.42125133      13.63518428      13.77236563
Au      11.72692055      14.12084059       8.87844326
Au      14.05755094      15.56988082      15.93577063
Au      16.58457362      13.46073256       9.73135786
Au       9.34038574      14.55072244      10.11334219
Au      13.95092917      13.80605297      10.96590254
Au      11.44115708      14.41666356      12.02047455
Au       7.11530578      15.03363156      11.64488251
Au      14.31832328      13.62115812       8.01584661
Au       9.83472866      13.61181716      15.12686924
Au      16.75137379      13.54750417      12.46111723
Au      11.43583746      15.83040410      14.98683749
Au      10.45153375      12.03976621      10.31716178
Au      12.85113468      11.52831768       9.03401397
Au      15.64910553      11.26909868       8.40659244
Au      16.07432304      13.62547725      15.11051318
Au      12.06050821      13.73396902      16.72776696
Au      11.27430148      11.84610395      13.36269690
Au      11.60849614       9.51842200      10.45864711
Au      14.79338930      13.56378805      17.59046081
Au      16.54587051      11.08531907      11.08411664
Au      13.51489445      11.06469023      14.65051801
Au      16.60042651      11.09042355      13.86446346
Au       9.42943320      10.09525907      12.06545876
Au       8.72698787      12.90190217      12.40799425
Au      13.57053178      11.25282272      11.91236870
Au       8.70750526      11.16446676      14.53798267
Au      15.73080954      11.25496961      16.45226507
Au      10.64961073      11.24198161      16.47700361
Au      14.45028378       9.37511056       9.89236353
Au      13.14832256      11.40227614      17.62648080
Au      10.31468018       8.98507593      14.71393822
Au      10.67474837       7.67105610      12.35550556
Au      15.03686169       8.86727815      15.14428271
Au      15.43566947       9.00068733      12.47018877
Au      12.45387451       9.07664463      16.43847082
Au      12.75236490       7.64389494      14.18288774
Au      13.29469322       7.59752684      11.56302425
48
Properties=species:S:1:pos:R:3 config_type=qcd gap_pre_relax_energy=-129.1046585866291 gap_pred_energy=-129.42376519940365 gap_fmax_final=0.000879725464534796 gap_converged=1 pbc="F F F"
Au      10.15943416       8.31667838      14.69848245
Au      12.09249668      10.21715071      15.63976872
Au       8.13429494      13.14365433      15.10349751
Au       9.37754599      10.78411443      15.70006683
Au      14.66254522       9.83905885      14.55862907
Au       7.07316400      10.76266476      14.25464489
Au      11.11541614      12.87157420      15.84378511
Au      10.46862097       7.60245157      12.03918443
Au       8.62994879       8.58758627      10.24551970
Au       7.98020883       8.56453574      12.92630646
Au       9.95571321      15.17972155      14.92639428
Au      12.77549873       7.96215066      13.94130860
Au      10.42184405      10.39685187      12.91186522
Au       7.72335646      15.45479700      13.41348180
Au      13.78166179      12.43050293      15.30642700
Au      10.26028922      13.09405549      12.85733970
Au       6.56439323      13.06609814      12.79292518
Au      12.98008619      11.92769067      12.69134177
Au      14.00334263       8.21210133       9.53126264
Au      16.32010206      12.07382503      14.39902261
Au      11.21918624       8.20499239       9.43640230
Au      14.98714641       8.13250944      12.23621063
Au       7.12621999      10.47141945       8.98584077
Au       6.31599679      10.34893222      11.66726771
Au       8.72983591      11.62795340      11.10582510
Au      16.98881982       9.82908189      12.98279504
Au      12.65565140       9.34524707      11.58648158
Au       6.23336698      12.80190713      10.09711134
Au       9.75900331      10.32949905       8.27798664
Au      16.37699729       9.57817672      10.33510610
Au      12.46003602      14.59677220      14.02948977
Au      12.45296885      10.03212421       7.80030070
Au      11.40782334      11.67772675      10.45735430
Au      10.29724143      15.74686602      12.14691604
Au       8.64972996      12.99124996       8.61552822
Au       8.06982513      14.72869170      10.78095202
Au      14.91338578      14.01126642      13.00823168
Au      15.22052885       9.92133959       7.80122196
Au      14.10522742      11.37645169      10.18742612
Au      16.67039943      12.24722736      11.68492974
Au      11.25748136      12.64677434       7.79228575
Au      10.62970267      14.69141736       9.62669406
Au      12.85632844      15.06179450      11.34817966
Au      16.50487964      12.11804657       8.94317549
Au      13.95143293      12.29406250       7.22823573
Au      13.14393402      14.54649885       8.63998003
Au      15.34776475      14.32533868      10.34627106
Au      15.71741371      14.35765981       7.59883761
48
Properties=species:S:1:pos:R:3 config_type=qcd gap_pre_relax_energy=-128.98795084267047 gap_pred_energy=-129.86786514996948 gap_fmax_final=0.000934889344923056 gap_converged=1 pbc="F F F"
Au      10.40794718       6.66592881      11.60390000
Au      12.87818918       7.89854991      12.10802404
Au      11.22126825       9.95914611      15.88180971
Au      10.75417981       8.18154055      13.86083691
Au      15.36744589       8.89808481      12.52520594
Au       8.77221833       9.99054468      14.68316339
Au      13.69665501      10.75332513      16.65028460
Au      12.21937463       7.00722655       9.58061840
Au       9.81561657       8.42962251       9.54020803
Au       8.61135809       8.61721346      12.14704093
Au      12.50856349      13.14832551      16.34352154
Au      14.57067119       8.29522118       9.87773316
Au      11.77841008      10.21250091      11.13182657
Au       9.79505587      12.27178364      16.10286462
Au      15.72970809      10.17059051      14.92066726
Au      11.50419825      12.55335455      13.87413824
Au       7.76903863      12.56150454      14.32775571
Au      13.36357280       8.79789447      14.64292019
Au      14.71908448      10.45101712       8.15009765
Au      14.93796636      12.80167988      15.06762263
Au      12.22550018       9.38250818       8.23910413
Au      16.26391873      10.35163333      10.42078756
Au       7.59886517       9.91003442       9.80898685
Au       6.92367524      10.71155819      12.49481057
Au       9.64453633      11.30890533      12.38288627
Au      16.61730120      11.67174611      12.83443735
Au      13.65290154      11.32635304      12.86205738
Au       5.59100964      11.78470611      10.36507665
Au      10.03491299      10.97791290       8.57611155
Au      16.51170365      13.05913174      10.49875559
Au      10.59700339      14.84260939      15.35828340
Au      12.43174947      12.13850426       7.64638115
Au      11.31039387      13.12666886      11.25751170
Au       8.75990190      14.91463081      13.36076711
Au       8.00384020      12.60313189       9.40212384
Au       6.86203677      13.58767359      11.94867729
Au      13.33899209      15.06343688      14.40350826
Au      15.05008027      13.18191701       8.14133424
Au      13.66713164      12.06790082      10.27697387
Au      15.29723077      14.16091208      12.68709593
Au      10.37779910      13.70788849       8.56615200
Au       8.92375019      14.83012991      10.66470560
Au      11.16337335      16.04244003      12.98980891
Au      15.21293256      15.32511121       9.89450217
Au      12.88892194      14.85761889       8.15247409
Au      11.43190706      15.69378562      10.31351007
Au      13.66510787      16.27688842      11.94329008
Au      13.40751710      17.30372407       9.36416328
49
Properties=species:S:1:pos:R:3 config_type=qcd gap_pre_relax_energy=-132.02997823698865 gap_pred_energy=-132.7236859338248 gap_fmax_final=0.0009416273489477504 gap_converged=1 pbc="F F F"
Au       7.67575819      10.34580688      14.49490114
Au       8.92137145       8.06570650      13.70106509
Au       9.52843089       9.00342808      16.15735859
Au       7.45697232      12.52774158      12.71889911
Au       7.75090804       9.82325634      11.76271418
Au       9.55652374       7.75465015      11.10016604
Au       8.95241563       9.60732445       9.24064095
Au       7.89980556      12.07684720      10.05048560
Au      11.94943737       8.03267849      15.46298830
Au       8.22238663      12.88457661      15.32539875
Au       8.32871388      14.74989329      11.29591958
Au      10.33610650      11.25119390      14.77488149
Au      11.91581582      10.37447675      16.84533907
Au      11.61495640       9.59030372      12.73772863
Au       7.79483680      15.17935574      13.89339048
Au      11.25335496      13.00541267      16.73133691
Au       9.98848230      11.63183859      12.01618440
Au      13.93141085       7.98480532      13.60068086
Au      11.29489881      11.11870893       9.69905088
Au      11.29439704       8.11079607       9.10194762
Au      13.22665678       7.82284298      11.00318824
Au      11.34713394       6.90159914      12.95869584
Au       9.48711677      11.70601642       7.59630217
Au       9.80490863      15.04360249      15.75854867
Au      12.35569052      14.49543935      14.72862638
Au      12.04124068      13.54440302      10.63207703
Au      11.77943303      10.03260430       7.22748573
Au      15.37908414       9.37398698      11.81308749
Au      14.29759654       9.49658474      15.83014699
Au      12.38105507      12.17608799      13.12913171
Au       9.26898619      14.06775696       8.86974050
Au      13.74677318      12.25497588      15.75060364
Au      13.02617137      15.67810682      12.34787163
Au      13.69889923      11.41405407      10.85221615
Au      11.88065052      12.69297672       6.75082358
Au      15.46417942      11.04112482      13.98683739
Au      13.84903653       8.83238148       8.58369183
Au      10.70896954      15.94902754      10.46640819
Au      10.39572122      15.64339447      13.13041248
Au      15.94416030      13.03408026       8.99717939
Au      14.71044385      13.70656507      13.48189602
Au      15.90338948      10.37838454       9.35419511
Au      11.57665353      15.06526696       7.95882442
Au      14.27589260      11.35798052       7.33382138
Au      16.27357850      12.13612869      11.65316049
Au      13.49748167      15.90149722       9.67430928
Au      15.52293921      14.78335601      11.15147034
Au      14.09411856      14.16135677       7.29363646
Au      15.94827961      15.74284034       8.52775758
49
Properties=species:S:1:pos:R:3 config_type=qcd gap_pre_relax_energy=-131.9356435229933 gap_pred_energy=-132.82726464920853 gap_fmax_final=0.0009743622338339565 gap_converged=1 pbc="F F F"
Au      12.84166340      10.22916119      16.09944269
Au      12.73684485      14.00760440      14.69235727
Au      14.97724650      13.88994218      13.04787349
Au      14.37944076      11.83325815      14.63734627
Au      11.01879725      12.13579165      15.57906065
Au      14.57384125       9.21201751      14.02710014
Au      12.29980261       7.85056965      14.96822835
Au      15.64010243      11.18102709      12.23939003
Au      11.73521141      15.81155360      12.88684909
Au       9.91812934      14.35379695      14.44958290
Au      10.17514220       9.51491415      15.51079782
Au      13.83730209      15.49135599      11.13580849
Au      15.45925045      13.33266029      10.46742938
Au      11.52164846       8.53488888      12.33603960
Au      10.54371441      11.04120975      12.86083475
Au      13.00478881      10.66738609      11.53993404
Au      14.94353852       8.62626498      11.17627416
Au      13.77876781       6.84188353      12.89429910
Au       8.47886902      11.80689597      14.64715173
Au       9.14262250      15.94758621      12.22399690
Au      11.19939773      16.18524282      10.20537407
Au       9.80898678       7.11019617      13.92940278
Au      12.24369511      13.23641547      11.99302521
Au       7.87868854      13.63653974      12.78248975
Au      13.08031049      15.07901258       8.59939686
Au      15.07194612      10.76034072       9.45666992
Au      11.89335064      12.47079497       9.38809575
Au      10.52916674      14.72574584       7.69263978
Au      13.51561632       6.37107254      10.21330470
Au      11.33545449       5.83266950      11.81971755
Au       8.77700042      15.08167573       9.71881375
Au       9.57218088      12.56580142      10.77985802
Au       6.72198952      11.19366648      12.38649739
Au      10.58601489      10.05887816      10.21242278
Au      14.68834241      12.98525541       7.94165277
Au       6.86081639       8.53598773      11.49262210
Au      13.26002366       8.71298088       8.83018908
Au       8.18891134       9.27819111      13.69152454
Au       6.87731083      13.15059544      10.28968315
Au      10.94052756       7.19069269       9.35326637
Au       8.86180253       6.78481435      11.34535927
Au      12.60990837      13.59518314       6.29625956
Au      10.44782044      11.99902059       6.68799695
Au       8.25398548      13.13243628       7.91728066
Au      12.99977789      10.93755011       7.28867071
Au       6.81584801      10.52549844       9.69145201
Au      10.79942523       9.30661800       7.56288620
Au       8.32142954      10.49193611       7.46063756
Au       8.43547702       8.33734883       9.13494341
50
Properties=species:S:1:pos:R:3 config_type=qcd gap_pre_relax_energy=-134.72983411708884 gap_pred_energy=-135.24204714644003 gap_fmax_final=0.0009520775663689326 gap_converged=1 pbc="F F F"
Au       8.76060760      11.49556295      14.91367792
Au       8.53035194       9.26121851      13.34614720
Au       9.97557869       7.66396204      11.47205113
Au       8.52726031      13.97671289      13.90947138
Au       9.66768133      11.76566248       7.15724462
Au       8.17133484      12.06518133       9.60138041
Au       9.53714557       9.00742631      15.88170966
Au      11.49890845       7.28145711       9.19820975
Au      11.25962009       8.34226482      13.87833712
Au      10.35309771       9.01542921       7.15868991
Au       9.85214087      13.77458862      16.30859468
Au      11.65545563      13.62260854       7.48307004
Au      11.34278539      11.95934171      14.05735701
Au      10.46722139      15.73925977      14.53453367
Au      14.22543521       7.47681696       9.34177754
Au      12.96613510       8.37212867       7.10354565
Au      13.29426025      11.43325977      11.04971114
Au      12.38089184      11.03564400       7.01726863
Au      10.43548523      15.07150040       9.38045821
Au      10.99663140      11.62633373       9.50741623
Au      15.41904232      14.63840244      10.31803031
Au      17.30021187      13.43411576      11.97403971
Au      15.15513373       9.24498553      11.16735017
Au       8.81867952       7.60761612       8.98107638
Au      14.52616806      10.16725337       8.55884162
Au       7.84273543       9.92967606       7.91227413
Au      14.17910263      12.88370423       8.32363063
Au      12.75153264       7.91320284      11.63092561
Au      13.62038447      13.22362388      13.32710868
Au      16.50140576      13.26226408      14.58081446
Au       7.94430910       9.56356957      10.70906588
Au      11.35403347      13.26812125      11.66125718
Au      13.10355373      15.24185905       9.19555623
Au      13.78194562       9.47636368      13.65117107
Au      15.97563454      11.87478680      10.17598363
Au      15.72826649      11.24402329      12.91830219
Au      11.68442307      17.90268376      13.37158987
Au      13.37123954      16.33479072      11.65133653
Au      10.72403152      10.39368994      11.86861286
Au       8.71077913      14.14262474      11.24192548
Au      10.68698205      15.90987290      11.85973073
Au      15.51963841      15.27021133      12.98279470
Au      14.53858350      11.43255672      15.48381328
Au      12.23411307       9.99335088      15.88652911
Au      12.07377599      15.32053487      16.72334706
Au       7.72760224      11.83350953      12.33059238
Au      12.43773057      12.57893786      16.97547394
Au      14.45580016      14.19504168      16.04904423
Au      13.31089691      15.98066778      14.35836578
Au      10.10922661      11.23659053      17.31575527
50
Properties=species:S:1:pos:R:3 config_type=qcd gap_pre_relax_energy=-134.95378463694283 gap_pred_energy=-135.24638534744332 gap_fmax_final=0.0009073299996892151 gap_converged=1 pbc="F F F"
Au      11.29557205      13.15821296      17.38842601
Au      11.65768851      15.43098050      15.92076849
Au      12.00499758       9.22805732      16.83145581
Au       9.09993043      13.33393758      15.69337599
Au       9.63065179      10.99073005      17.08948946
Au      13.58334183      11.44708881      17.17663142
Au      13.81956428      14.16168793      17.05645173
Au       9.42836199      15.67003492      14.23233216
Au      11.98252909      16.54693100      13.43066324
Au      11.51985191      11.31497087      15.12261474
Au       9.61952149       8.70342056      15.56461733
Au      11.30753026      13.75745217      13.66101224
Au      15.14055924      12.52672470      15.19526513
Au       8.52065481      10.93400699      14.35456526
Au      14.19870568       9.66758882      15.11552081
Au       8.14494416      13.37212275      13.01862207
Au      14.15524400      15.13151680      14.50800252
Au      14.21645035       8.51110092      12.60012898
Au       9.25708438      15.38919823      11.53239266
Au       9.36480293       8.71123575      12.83615128
Au      13.34922292      11.94001350      13.11771911
Au      11.92261559       8.30668812      14.11069020
Au      15.66632189      13.63173788      12.72192654
Au      10.64991094      11.33510599      12.46666882
Au      13.93982989      15.50605765      11.74806909
Au      12.10536713      13.44233625      11.01988026
Au      11.57389127      16.55007564      10.75976174
Au      11.95583018      13.79886849       7.00499181
Au       7.95882474      10.92318964      11.65438219
Au      17.13141073      12.01721609      11.07512232
Au      15.86511548      10.71824603      13.13378513
Au      12.88824198      10.39898939      10.87695347
Au       8.27114899      13.28899870      10.14993629
Au      13.89167810       7.70997920       9.97652110
Au      11.54395366       7.83714476      11.40850189
Au      13.32037399      12.27340886       8.85908792
Au      10.57173957      11.39174482       9.72355777
Au      15.63526587      14.13798394       9.99965528
Au      10.24481671      14.92396720       8.94059132
Au      13.25968484      15.33364112       9.00830259
Au      15.76642465       9.70188456      10.49212347
Au       9.27325423       8.82889282      10.10466604
Au       7.74394312      10.92172412       8.93711349
Au      16.05139536      11.70912189       8.58303554
Au       9.54843233      12.63142399       7.50645436
Au      14.84976627      13.92906119       7.32024600
Au      14.16476956       9.72482973       8.10200729
Au      11.66497546       8.62508274       8.64108702
Au      11.83745524      10.92288306       6.97163196
Au       9.47816935       9.62451979       7.32885941
51
Properties=species:S:1:pos:R:3 config_type=qcd gap_pre_relax_energy=-138.1060801101213 gap_pred_energy=-138.92184910195832 gap_fmax_final=0.0009736194711897153 gap_converged=1 pbc="F F F"
Au      12.69790019      16.29661844      11.77276855
Au       9.93601656      16.11535175      11.84880912
Au       9.34982078      12.83093573      10.63751604
Au      11.42292113      16.00406086       9.36826462
Au       8.83654639      15.25696706       9.33750924
Au       8.12081004      13.03988322       7.90091927
Au       7.46270548      14.89818878      11.67395262
Au      10.65737855      13.99208304       7.49035228
Au      10.02402359      11.17817801       7.40872367
Au       9.62891048       8.70064858       8.50505837
Au       7.50200503      10.48065457       8.68766011
Au       6.59988119      12.80005663      10.15731409
Au      12.01649845      13.65662284      10.65625444
Au      11.59674341      15.13412048      13.95113015
Au      10.79648262      12.33938100      13.04695110
Au      10.52518846      13.61944228      15.99176959
Au       9.17694319      10.28003328      11.79811247
Au       8.91796454      14.36664391      13.88186799
Au       6.37196056      10.37345167      11.28245256
Au       8.66985225       7.75982013      12.88590972
Au       7.14508277       9.91281347      13.85324031
Au       6.82437498      12.57396982      13.03867294
Au       8.64801139      11.83836912      15.06511583
Au       7.69341395       8.19434925      10.31813825
Au      11.55255326       6.74304247       8.49161485
Au       9.99221260       6.74618810      10.68928619
Au      11.29128005      10.98779468      10.09856321
Au      11.73692409       9.70533064      12.61131305
Au       9.35175725       9.08474005      15.17416265
Au      11.24223130       6.92775031      13.11185318
Au      13.88694621      10.32441045      14.87499643
Au      11.25007816      10.99024464      15.89753441
Au      16.29733959      10.51865370      10.12096311
Au      13.02718425      12.99655911      15.05884257
Au      11.96078552       8.43177056      15.25024657
Au      13.87455197       7.96240430      13.21651351
Au      12.89551364       6.66865054      10.91373326
Au      13.41700990      11.87499914      12.18843958
Au      15.77515062      10.01268985      12.80563456
Au      15.57979361      12.37978206      14.19413535
Au      13.57491530       9.62212360      10.45552413
Au      14.15170470       7.60390212       8.57499767
Au      15.59775144       7.89337886      10.98685848
Au      14.73606364      10.24122384       7.86673574
Au      13.33046024      14.53353061       8.06601404
Au      12.64138194      11.98821625       7.52329420
Au      14.36712658      14.65096098      13.21325677
Au      16.07838541      12.83329790      11.53988106
Au      15.28913374      12.74337088       8.78744566
Au      12.12050246       9.29215056       7.51966270
Au      14.60256001      14.84292337      10.45276721
51
Properties=species:S:1:pos:R:3 config_type=qcd gap_pre_relax_energy=-137.81789908067293 gap_pred_energy=-138.440527370523 gap_fmax_final=0.0009203013460027381 gap_converged=1 pbc="F F F"
Au      15.35120551       8.25952745      10.86581142
Au       9.82671189      11.76695104       8.07780466
Au      14.93348770      15.45573357       9.96730346
Au      15.50325849      15.03582093      12.63381103
Au      16.26916259      12.32070552      13.33183777
Au      14.35951753      11.37001943      15.09041800
Au       7.63880055      10.33622192       8.90644855
Au      11.41502575      11.54193764      10.42595436
Au      12.75516468      10.20875511      12.48085449
Au      11.13136017      16.52145466      10.20108254
Au      13.38385350       7.48156822      12.56943095
Au      16.53815279      13.39660884      10.72871965
Au      10.09327735      14.48283946       8.50812663
Au       7.93757320      13.03578671       9.62355185
Au      10.74477313       8.86993692      16.11488546
Au       7.46404735      13.35320949      12.35223390
Au      10.51515405       7.98102485      11.73570072
Au      15.04048145      14.05890908      15.12627426
Au      12.09655246      10.24684880       7.81067578
Au       8.22894364      13.08296998      14.92336870
Au      10.36067751      13.32484520      12.72377167
Au       9.90418529      10.63885236      12.48688392
Au      16.24570745      11.75090712       8.60471430
Au      10.15016152      12.66988868      16.88744571
Au      14.13289048      11.74626878      10.50490851
Au       8.94264997      15.16113976      10.99419460
Au      10.35762078      14.78611770      15.16259449
Au      16.59494869      10.66771113      11.16721241
Au      12.68659497      15.52490103       8.18308615
Au       8.87907633       8.51208623      14.01339775
Au      12.52792789      13.99937863      10.54546534
Au      12.70717615      13.60417683      16.46854495
Au      12.63329630       8.25643553       9.95910184
Au      12.87153584      15.59536257      14.50260237
Au      13.28690061      16.45091793      11.94110714
Au      15.42412317       9.51986271      13.35020703
Au       8.65003113      10.56044003      15.90176445
Au      14.58195537       9.56201372       8.63573370
Au       6.26132530      11.25275105      11.04984344
Au       7.96791094       9.07852567      11.35887275
Au      11.25214235       7.02779347      14.19095046
Au      10.69552529      16.20202557      12.87550823
Au      14.33473370      11.45607152       6.64974571
Au       7.24333395      10.84278832      13.57128668
Au      11.34945422      11.40673708      14.64469811
Au      12.11926576      12.99384934       7.16489870
Au      13.26309687       8.84860118      15.05006904
Au      13.22017814      12.94808967      12.94880405
Au      14.79877103      13.90468722       7.75890634
Au      10.07301074       9.16202243       9.28488914
Au      12.40599141      10.88662491      17.09319978
52
Properties=species:S:1:pos:R:3 config_type=qcd gap_pre_relax_energy=-141.08648508493272 gap_pred_energy=-141.55665482179936 gap_fmax_final=0.0008771312232208775 gap_converged=1 pbc="F F F"
Au      15.73844897      15.00243760      15.95748201
Au      14.90297453      14.97739159      19.69428822
Au      16.36989054      10.92399116      17.27902018
Au      13.61795610      13.55716335      16.88136694
Au      13.62117945      16.44033536      16.90003528
Au      16.37900397      19.06074198      17.33495273
Au      18.91194188      14.99198698      16.89434232
Au      14.60956792      12.77211395      14.37543094
Au      12.94068931      15.01609398      14.44822585
Au      14.61468853      17.25681742      14.40517184
Au      17.34325233      16.51497788      14.38113738
Au      17.33977003      13.50775823      14.36032861
Au      15.32842332      15.02348226      12.90966245
Au      14.80426736      12.21605903      19.16327849
Au      12.40010970      13.62942974      19.37237484
Au      12.40378886      16.33528030      19.39034902
Au      14.81073877      17.74618196      19.20048901
Au      16.98433009      16.35329265      18.37847084
Au      16.98250206      13.61341042      18.36119669
Au      18.67354876      12.26914134      16.66671626
Au      13.58388207      10.71061440      17.20846508
Au      11.20250033      12.20597274      17.29974079
Au      10.70328969      14.99750501      17.46465576
Au      11.20863198      17.78988279      17.33817306
Au      13.59354867      19.28139843      17.26627996
Au      18.67946767      17.71834291      16.70498420
Au      17.59901193      10.64001967      14.76112154
Au      14.96458696       9.99828242      14.98298503
Au      12.07496389      11.11057804      14.91711205
Au      10.54257074      13.56214799      15.01914808
Au      10.54533515      16.46666142      15.03915237
Au      12.08242754      18.91613514      14.97070406
Au      14.97657696      20.02129390      15.05114384
Au      17.60975764      19.37669687      14.82207035
Au      20.13482260      16.37631367      14.72272240
Au      20.13174163      13.63563918      14.70339875
Au      16.31609978      11.14458094      12.37897263
Au      13.62083682      10.59896389      12.67164055
Au      11.90349121      12.74401366      12.64167297
Au      10.40218608      15.03086407      12.66524939
Au      11.90761254      17.31505838      12.67268802
Au      13.62899943      19.45609588      12.73307455
Au      16.32408976      18.90852636      12.43419843
Au      18.94507607      17.95941645      12.73343460
Au      19.21370163      15.02324815      12.41083864
Au      18.93848358      12.08321963      12.69248636
Au      14.36520735      12.73255812      11.12818464
Au      12.73568563      15.03843482      11.22566836
Au      14.37022156      17.34197679      11.16131948
Au      17.13254860      16.47963854      11.21400379
Au      17.12959662      13.58858322      11.19354606
Au      15.16194828      15.04522221       9.92281719
52
Properties=species:S:1:pos:R:3 config_type=qcd gap_pre_relax_energy=-140.57546549413874 gap_pred_energy=-141.1304269031541 gap_fmax_final=0.0009912276095486578 gap_converged=1 pbc="F F F"
Au      14.20610715      16.04947968      11.91414228
Au      13.17925938      17.01372260       9.47676377
Au      11.83638379      17.61560004      11.73098700
Au      14.93622718      14.91875243       9.48771896
Au      14.71009775      14.64280568      14.23083326
Au      16.22501369      14.06721097      11.95262990
Au      12.34208869      16.13679718      13.96546907
Au      14.89977236      12.93091459      16.48723492
Au      13.39166156      13.34535737      11.82072139
Au      16.48626877      12.69886965       9.52563149
Au      17.25035330      11.50036291      11.84008321
Au      16.08963220      12.19337954      14.15630258
Au      12.78115348      14.65834759      16.26862087
Au      12.48474361      14.69037227       8.21289101
Au      10.58539872      15.92729568       9.87543364
Au      14.38760088      12.82034241       7.69015998
Au      13.04528318      12.18844861      14.39005806
Au      14.48454110      11.07827948      10.77698876
Au      12.51642519      11.81013130      17.19328507
Au       9.82694333      15.97692541      12.55104275
Au      16.48149970       9.24326796      10.51465237
Au      10.64698352      13.79893069      17.71336308
Au      14.58454381      10.25632215      15.60871029
Au      16.01300298       9.47584932      13.35051607
Au      15.66433785      10.43878007       8.17896645
Au      10.21961158      10.93472933      14.05739084
Au      12.17504571      12.22212860       9.57647926
Au      14.08020079       8.32729458       9.22217283
Au      13.03765725      10.37778809       7.55513349
Au      14.92810336       7.41486750      11.77228762
Au       8.48658460      14.27211207      10.74076565
Au       9.85073998      11.33082655      16.69142226
Au      10.16059051      15.18919140      15.31896744
Au      11.02534710      13.53124530      13.23496190
Au       8.25459560      13.51796789      16.37108464
Au       9.93389683      13.74357813       8.39874834
Au      13.47302660       8.43745100      13.84318883
Au      12.24591339      10.63464552      12.15769585
Au       7.60295511      11.54179388      14.66145635
Au       8.19113335      14.04323548      13.57284707
Au      11.85063371       9.53994160      15.75245875
Au      10.40252180      11.08672497       7.77478376
Au      11.36239186       8.61379579       8.76675837
Au      12.29036778       7.68191023      11.22140220
Au      10.02980388      11.90593380      11.30270259
Au       7.26893011      11.99988220      11.94221525
Au       8.18160520       9.44621404      12.99060023
Au      10.75901382       8.28158852      13.43799947
Au       8.20342987      11.80697317       9.25662825
Au       9.64331659       8.39210149      10.94539672
Au       8.68544777       9.06275994       8.44685837
Au       7.04987696       9.63483766      10.52245179
53
Properties=species:S:1:pos:R:3 config_type=qcd gap_pre_relax_energy=-143.69072130775828 gap_pred_energy=-144.47751980344967 gap_fmax_final=0.0009431123449846023 gap_converged=1 pbc="F F F"
Au      13.55980202       8.07565522      12.82819995
Au      10.97402580       7.23701871      11.61026926
Au      11.21098630       7.62393207      14.25830219
Au      13.03551912       8.19721879      10.12050279
Au      15.70554679       9.50737308      13.92133303
Au      13.43641642       8.78105876      15.51997483
Au      15.44011678      10.26001942      16.54454779
Au      11.85152506      10.34887788      13.60262613
Au      16.79476575      11.56734085      12.25277396
Au      14.51861971       9.78816055       8.57019473
Au      15.12488848       9.66272405      11.22987306
Au      10.66099339       9.55754395      10.25363324
Au       9.46555461       9.30669021      12.64692891
Au      17.23362769      11.52790791      14.99523315
Au      14.25410869      12.30143732       7.55439307
Au      16.06412348      11.81939939       9.61023861
Au      16.95392844      14.03787805      10.92824524
Au      10.83495545       9.40491842      16.24233351
Au      17.87524911      13.72202567      13.51755012
Au      14.14851520      11.68322308      12.98556834
Au      12.87934355      10.87125561      17.43016684
Au      12.03426408      10.92886373       8.42768314
Au      14.79844820      12.76180836      17.23625204
Au      14.62441876      14.06257728      14.51959461
Au       9.78005176      12.04976652       9.71673102
Au       8.64200266      11.79309129      12.20665173
Au      10.40331692      11.94842181      16.95574127
Au      12.06184646      11.96123458      11.24009209
Au      16.88600534      14.01901820      16.04278357
Au      12.08526155      13.64756307       8.69803263
Au      13.75742451      14.17736041      11.96260994
Au       9.14146007      11.04661536      14.71062521
Au      12.28845933      13.77499935      17.35352430
Au      14.42941777      15.46806808      16.96542321
Au      17.23360606      16.15501311      12.60838802
Au      12.05419349      13.05671628      14.17559142
Au      14.70939253      14.30123423       9.32604362
Au       7.56494363      13.57499425      10.48007311
Au      12.54774444      15.77044931      13.81069956
Au       9.57570220      13.68268667      15.15187058
Au      10.01859217      14.75616832      10.12882612
Au       8.89769418      14.45963411      12.67581204
Au      15.12633549      16.46398680      10.93142121
Au      10.54542186      16.70163694      11.96520723
Au      16.20573080      16.47073614      15.09127324
Au      11.73812691      16.22224252      16.40330951
Au      12.49537493      15.91243470      10.15053433
Au       9.67473943      16.25220603      14.54180421
Au      13.03160057      17.94962851      11.92344537
Au      13.92991386      17.85523735      15.63437896
Au      15.57161802      18.23003034      13.09604112
Au      11.46235788      18.27576263      14.31043120
Au      13.58790352      19.91413605      13.86219690
53
Properties=species:S:1:pos:R:3 config_type=qcd gap_pre_relax_energy=-143.63638248645086 gap_pred_energy=-144.41472709719267 gap_fmax_final=0.0008037572333174118 gap_converged=1 pbc="F F F"
Au      16.24667995      13.17271747      12.73958303
Au      16.15468413      11.03858889      14.43969596
Au      16.45096036      10.64098543      11.73497181
Au      15.03124194      15.62160798      12.95362957
Au      14.92506433      14.15636930      15.20710448
Au      15.58278788       8.56627952      13.41037007
Au      15.76347483      11.98187244       9.52303608
Au      13.69517337      12.27552628      13.53251459
Au      14.28156854       7.32539892      11.35714869
Au      14.71204794      11.86692348      16.57924823
Au      15.05261781       9.25684675       9.57546772
Au      13.20038411       7.29695254      13.94333441
Au      12.79212859      16.97348374      12.22552668
Au      15.29458880      14.44445241      10.52868572
Au      14.40295092       9.27234582      15.77886131
Au      13.99458337      13.81280691       8.19473706
Au      12.90181912      15.98881045      14.80920468
Au      13.75603713      10.16771368      11.85058397
Au      12.63993105      13.75574087      16.72191549
Au      12.74072182      14.15051171      11.76891406
Au      11.78282100      10.38587999      13.78625055
Au      11.69653686      15.19798227       7.30971829
Au      13.13607859      16.06093853       9.56747866
Au      12.75005332      11.94118294      10.02441663
Au      11.28503167      13.34729756      14.09463438
Au      14.07860981      10.98496211       7.63996777
Au      11.86179909       8.37556656      16.05312309
Au      10.96678459      14.01893239       9.65598383
Au      11.58665596       6.95568198      11.67709361
Au      12.65001651       7.82736547       9.24598091
Au      11.81324440      12.35147486       6.95854768
Au      11.73446856       9.66402832       7.47656110
Au      12.19187513      10.94473192      16.94592068
Au      10.63371188      16.87454106      10.61248213
Au      10.33054231      16.43786111      13.33953752
Au      10.41300403      15.26193761      15.85939053
Au       9.13153594      15.78399015       8.62686128
Au      10.50629411      12.24585567      11.74250974
Au      11.23321083       9.70561751      10.98363806
Au      10.26008006       7.83405989      13.91752009
Au       9.67292103      10.01383050      15.78264227
Au       9.38485665      13.58272884       7.03369621
Au       9.36605723      10.99952427       7.84293510
Au       9.01551179       7.86654025      11.47092509
Au       9.85883287       8.42684291       8.94951140
Au       8.54040934      14.48719135      13.96030841
Au       8.55737621      15.19875776      11.33027138
Au       8.26990403      13.03172525       9.51555873
Au      10.05118164      12.62301555      16.61294016
Au       8.87408452      10.14770917      13.07807892
Au       8.41561662      10.44038050      10.39036176
Au       8.04430574      12.01214798      14.88088450
Au       7.68427222      12.60091378      12.15686652
54
Properties=species:S:1:pos:R:3 config_type=qcd gap_pre_relax_energy=-146.6122685009725 gap_pred_energy=-147.093447420067 gap_fmax_final=0.0009589504042436456 gap_converged=1 pbc="F F F"
Au      16.18165156      11.87242618       8.43066052
Au      14.69042132      14.18589864       8.65464288
Au      14.79784136      15.63577706      11.07682770
Au      15.98272682      13.13899546      10.89599499
Au      15.79120658      11.61499761      13.15451831
Au      15.06717092       8.97228321      12.89912082
Au      15.41481707      14.28573845      13.44753444
Au      14.56817177       9.64790622       8.19721949
Au      15.60233452      10.39023518      10.63805027
Au      15.54130932      10.15116773      15.46134378
Au      13.89508645      12.13573618       6.96428413
Au      13.04080168      15.08309862      14.96685943
Au      12.64464939      15.95350546       9.28715768
Au      14.55803410      16.87195533      13.57048806
Au      10.62541042      15.12341453      16.43217436
Au      14.32140788      12.59267922      15.35660405
Au      13.01306213      13.41709482      10.83856950
Au      14.39792152       7.91983680      10.38649069
Au      11.28333983      11.38671576      10.08100839
Au      13.24020995      10.93035285      12.04587926
Au      14.13863304       7.83426080      15.27745490
Au      13.24392113       6.93102999      12.88687916
Au      12.41712599       9.90279991       6.50414492
Au      12.42019256      16.77210711      11.92370709
Au      12.49943796      14.51352867       6.98818368
Au      12.84383321      10.21048475      15.98068053
Au      10.23936106      16.29042539      10.44302439
Au      12.18867742      12.89824700      13.59190819
Au      10.12458465      14.55444848       8.34333818
Au      11.69735208       8.85359293      11.16082267
Au      10.80230846      16.26493229      13.97736818
Au      11.71129233      12.66260239      16.36163750
Au      11.14378367      12.19756528       7.40172118
Au      12.08853240       6.23161628      10.48277587
Au      11.44657341       8.05122627      14.89687861
Au      10.38980189      13.58550860      11.73048102
Au       8.29566787      15.59152625      15.08681356
Au      12.38575600       7.92821294       8.34365612
Au      10.11613563       9.77500948       8.03118688
Au      10.18466232      10.51200737      15.47238278
Au       8.53353119      16.17635764      12.46058539
Au       8.14546695      14.33993307      10.30547918
Au      10.50445229       6.63812273      12.70468357
Au       9.04350181       8.69462444      13.70702668
Au       8.80485628      12.06891441       8.85759125
Au      10.48560729      10.85603110      12.66019524
Au       9.84931846       7.47150254       9.40632525
Au       8.97527479      13.00800493      15.65979611
Au       7.95279549       9.50998165       9.73816698
Au       7.94962465      11.17016950      13.94404868
Au       7.63690767      13.71368116      13.13637086
Au       8.15532885       7.27943155      11.49378729
Au       7.32244595      11.85907282      11.14841541
Au       6.71863649       9.45618086      12.22000985
54
Properties=species:S:1:pos:R:3 config_type=qcd gap_pre_relax_energy=-146.54103460462926 gap_pred_energy=-146.96821181893566 gap_fmax_final=0.0009759262855226763 gap_converged=1 pbc="F F F"
Au      15.17017733      16.17537774      12.95525297
Au      14.79152901      14.92468153      15.33793846
Au      15.93495805      13.49911094      13.13180344
Au      13.26684824      17.22956410      14.57586747
Au      14.77456692      12.16138170      15.35139848
Au      15.60507795      10.79510298      13.09436945
Au      12.89772473      13.55042057      16.84029793
Au      12.63149058      10.82543759      16.74096920
Au      15.67641620      14.86734491      10.56157335
Au      14.40884320       9.37901885      15.15343644
Au      15.55803422       8.07830844      13.01170158
Au      13.63974383      16.81406844      10.75627092
Au      10.45099566      17.01620502      14.69292051
Au      15.80049374      12.11119842      10.67574205
Au      13.34116695      14.21472481      12.02658251
Au      10.51471569      15.13722106      16.70123317
Au      12.12388380      14.70178895      14.40452659
Au      13.23992517      11.45011319      11.62690826
Au      13.16522673       7.13293096      13.94640283
Au      12.06850475       8.22034465      16.20465588
Au      11.66477597      17.68465506      12.38553917
Au      15.12664688       9.48088950      10.60403549
Au      13.81536969      15.30666708       8.54271948
Au      10.40592345      12.49687262      16.09952111
Au      15.68510579      13.34476069       8.24105111
Au      12.07456538      11.12866035      14.04439694
Au      14.58971371      10.88356313       8.29583510
Au      10.85998640      13.18584675      12.47832317
Au       9.93851696       9.87879448      15.52642034
Au       9.11518609      14.52179137      14.41004372
Au       8.65696353      11.82570835      14.04980976
Au      13.77686767       7.20444066      11.11297635
Au       9.57731209      15.94248955      12.07422359
Au      13.11469737       8.64016809       8.91144440
Au      11.98659167      13.26670307       9.82213909
Au      11.81439380       9.07021844      12.23136620
Au      11.06318072      16.77716931       9.89764559
Au      10.67249399      11.04651687      10.80937624
Au      10.30853891       7.53102293      14.20536088
Au      11.42780231       6.21311911      11.96955945
Au       8.22793596       9.15709879      13.43671968
Au      13.09403469      13.00721581       7.16872716
Au      12.15293037      10.47874602       7.01479277
Au       8.08506479      13.66119370      11.92160483
Au       7.05445382      11.15096977      11.93596780
Au       8.40073514      12.06623097       9.63490813
Au      10.59698786       7.60240675       9.76679181
Au       9.17536200      14.69214377       9.56586399
Au      11.15477311       7.90939883       7.13286560
Au       8.55011628       9.30818490      10.63908809
Au       8.82032055       6.92569910      11.90560627
Au      11.21662945      15.13053069       7.77948149
Au      10.31006674      12.56345564       7.62310297
Au       9.77080296       9.97749191       8.31800968
54
Properties=species:S:1:pos:R:3 config_type=qcd gap_pre_relax_energy=-146.36100804875224 gap_pred_energy=-146.61350140664254 gap_fmax_final=0.0009269042332645755 gap_converged=1 pbc="F F F"
Au      15.69981608      15.74136919      14.01609670
Au      18.64162827      15.93739563      13.69542712
Au      15.57860815      19.29367467      13.61757272
Au      12.78906575      15.84174558      13.95282313
Au      10.00616646      15.86067846      14.00436132
Au      12.82280089      18.71227088      13.95631632
Au      12.79004024      13.07414844      13.98144044
Au       9.97858909      13.12062915      13.96034311
Au      12.78532563      10.29917230      13.95866149
Au      15.59214243      12.89678848      13.89722920
Au      18.70242659      13.18489781      13.75674380
Au      15.49638509      10.09343718      13.84844460
Au      14.27790332      14.31945943      16.00317728
Au      17.12248395      14.42713042      16.12204695
Au      10.72559759      14.44067113      16.40169821
Au      14.17752977      17.23020984      16.06644838
Au      14.08187366      11.37764766      16.32384901
Au      16.94512670      17.22923250      16.03783332
Au      11.30700435      17.19647754      16.06295283
Au      11.34453001      11.70231653      15.95771108
Au      16.83437150      11.31684658      16.26253462
Au      14.21455205      14.46893038      12.02781720
Au      17.46323321      14.50638755      11.64852681
Au      10.84021849      14.51107976      11.62769688
Au      14.16913276      17.90476296      11.58689980
Au      14.14824142      11.10767274      11.56556090
Au      16.91573424      17.39248849      12.00537576
Au      11.40211549      17.28037323      12.02297347
Au      11.38219494      11.72941256      11.96550834
Au      17.00262027      11.60266649      11.84393639
Au      15.55034194      15.80472383      17.99145632
Au      12.11450903      15.85014680      18.43237111
Au      12.62678114      13.10354448      18.01389780
Au      15.51288126      12.55604296      18.37074953
Au      15.59161928      15.92328996      10.10315970
Au      12.78160296      15.91118782      10.08780468
Au      12.76465587      13.10707363      10.04916344
Au      15.57706622      13.08115638      10.05788098
Au      18.91159924      15.87103150      18.45371550
Au      18.41660293      13.01665291      18.17534193
Au      15.50819553      19.17905769      18.39157407
Au      12.73890184      18.61716310      17.99629570
Au      19.92583534      14.52288497      16.17083374
Au      14.15859958      20.01310914      16.01490787
Au      14.09597940      14.42765952      19.91611400
Au      16.93811302      14.44220983      19.96139501
Au      14.10808429      17.23767589      19.93146673
Au      16.91219851      17.25462025      19.97011023
Au      19.72010301      17.23394453      16.06061448
Au      18.31696180      18.67473995      14.06156254
Au      16.89864887      20.04068388      16.05892828
Au      18.28986248      18.63707826      18.05376534
Au      19.59149015      11.78696584      15.98836761
Au      18.23230440      10.42777983      14.03091266
55
Properties=species:S:1:pos:R:3 config_type=qcd gap_pre_relax_energy=-150.26445618435415 gap_pred_energy=-150.69581595753996 gap_fmax_final=0.0009844033615590965 gap_converged=1 pbc="F F F"
Au      10.70011429      15.16848263      15.93666799
Au      13.90400250      11.47225681      17.04150389
Au      12.92048557      13.99576459      17.06392987
Au      10.66802045      16.42786305      11.55058821
Au      10.58664643      12.67890994      17.12136045
Au      11.40540697      17.09659493      14.09161562
Au      13.05421904      12.84160386      13.12832251
Au      13.76112295       8.98588490      15.88003198
Au      13.14254238       8.04964207      13.32655646
Au       8.09504840       9.23120041      11.77620741
Au      15.03044118      13.30864556      15.39787453
Au      16.78248902      10.28846014      12.57323304
Au       9.76014109      15.16701252       9.09878881
Au      11.15645269      11.35588516       9.87677352
Au       7.69930700      13.47546099       9.84343780
Au      10.32187730      12.46628404      13.12354326
Au       7.88017562      11.12104189      13.82973406
Au      12.46901425      15.90579141       9.56290418
Au      11.33051005      13.79045949      10.99555620
Au      11.77521566      14.27429191       7.40744300
Au      10.50733747       8.17520569      12.50328375
Au      15.74966922       8.25598613      14.15014736
Au      13.34290768      16.38559032      12.17303252
Au      16.35857646      12.73617927      11.24359610
Au      14.01933903      13.06858265       6.31876262
Au       9.12153888      10.60267043      16.17977280
Au      12.06870827      10.45067795      12.26284170
Au       9.04705269      15.75265984      13.81816630
Au      13.71490412      11.95173567      10.51991302
Au      11.15951577       8.26317265      15.21068381
Au       8.05716324      15.82965990      11.20073315
Au      13.25355084      15.22754567      14.66414537
Au      11.85415077      11.51026784       6.74760536
Au      15.56407920      13.02353335       8.66845747
Au      16.12186687      10.39505117       9.84978211
Au      17.17096307      12.65123491      13.84286654
Au      15.21744587       8.31435194      11.49112932
Au      14.35569155      10.73179461       7.71827132
Au       7.85364908      13.58969201      12.69144770
Au      12.16862600       9.02195858       8.07503038
Au       9.96320541       8.60674354       9.81285608
Au      11.88776524      11.12075646      14.92261464
Au      15.26169034      14.52344445      12.95925905
Au      14.38464100      15.35810213       7.72482870
Au       8.58359222       8.56761151      14.42167940
Au       6.58507508      11.52252997      11.43914142
Au       9.59383418      12.68577575       7.94464552
Au       8.24151249      10.77483082       9.46484185
Au      15.08509653      15.21382442      10.36152667
Au       8.68192983      13.32488039      15.29481374
Au      14.66261083       8.26299695       8.85115009
Au       9.71420394       9.93497814       7.33569427
Au      12.56289682       8.14885086      10.66428503
Au      11.55324453      10.07489785      17.38408968
Au      15.94369014      10.69564739      15.31778989
55
Properties=species:S:1:pos:R:3 config_type=qcd gap_pre_relax_energy=-149.66532863885845 gap_pred_energy=-150.0972124768757 gap_fmax_final=0.0009648227422750243 gap_converged=1 pbc="F F F"
Au       9.00486084       8.63280529       6.70717647
Au      13.16742422       7.34064602      10.18437845
Au      10.54079557       6.85509565      10.95713033
Au      10.01357742      10.56836653       8.70097044
Au       8.50490954      13.12957332       8.38806766
Au      10.86915403      12.72173754       6.79954997
Au       8.61127418      11.30810825       6.28713340
Au       6.34052043      11.30785596      12.88959599
Au      11.80491887      10.37542175      12.95349355
Au      12.24751318      12.60609051       9.45692608
Au      13.74414161      11.81968914      11.59394627
Au      12.36950615       7.45531711      12.94869161
Au       7.18377705      10.33725444       8.41473690
Au       8.71816180       8.60026539      15.87978516
Au       6.93742843       8.71263230      13.74626302
Au      16.13324515      11.79866109      10.26021300
Au      13.97363699      15.32529918      12.23992457
Au      15.76914737      10.63853186       7.78322584
Au       9.73910440      12.21909150      10.86839098
Au       7.17554959      13.85127985      12.49052544
Au       8.40984523       7.90874740       9.24320881
Au      11.93731530      15.71821308      14.03780385
Au      11.40013169       9.91627161       6.35134831
Au      15.82421018      10.24824022      12.52195192
Au      15.11531046      13.30227375       8.17001792
Au      15.92344946      14.56068002      10.46256862
Au      10.73186830      14.89667147       8.64370691
Au      11.62825757      13.17448941      12.51969695
Au       9.28000320      11.23325225      13.40613624
Au      15.34010067      11.49856022      14.93204331
Au      14.99557976       7.64929177      12.26286539
Au       6.53526022       9.42996413      10.92531327
Au       9.97013203      11.14200732      16.13355854
Au       8.40089624      13.36913538      14.92603331
Au       9.53649573       9.46887136      11.38174822
Au      13.55113675       9.02808249       7.86674592
Au       6.77450620      12.21310129      10.35111084
Au      13.47193269      11.65822976       6.66997833
Au      15.78227794      13.19092146      12.82478439
Au       7.79803558       7.12608179      11.75015939
Au      14.03233210       9.12404726      14.42688294
Au       9.71576128       7.35701052      13.66782958
Au      11.40329852       8.83277995      15.29894251
Au      13.39786271      15.20837359       9.55140697
Au      11.30808229      15.85228979      11.23345639
Au       8.76872033      14.85870291      10.52910491
Au      12.68265015      11.29609791      15.61903165
Au       9.39626256      15.23654585      13.22158411
Au      12.95142848      14.43439665       6.95484946
Au      11.07134622      13.57533687      15.53979347
Au      11.10135284       7.86177362       8.39764605
Au      15.35745572       9.07691781       9.97709955
Au      12.20634763       9.99043472      10.26131331
Au      13.74862756      13.73844471      14.65500049
Au       7.27680464      10.89376395      15.40887807
