3
Properties=species:S:1:pos:R:3 config_type=qcd gap_pre_relax_energy=-1.5878025823876996 gap_pred_energy=-1.607101767830305 gap_fmax_final=0.0005438646705491617 gap_converged=1 pbc="F F F"
Ba      10.12632621      11.04281255      13.27166518
Ba      13.58479616      10.38139001      11.20346401
Ba      11.71735932      14.00427914      10.95335251
4
Properties=species:S:1:pos:R:3 config_type=qcd gap_pre_relax_energy=-2.86002333458275 gap_pred_energy=-2.875603431743955 gap_fmax_final=0.0004963403941693664 gap_converged=1 pbc="F F F"
Ba      12.52152910      11.25091014       9.74074937
Ba      10.33405346      10.62895223      13.17714265
Ba      14.21738787      11.98481569      13.42413046
Ba      11.25678370      14.46507608      11.98773167
5
Properties=species:S:1:pos:R:3 config_type=qcd gap_pre_relax_energy=-4.047025375430107 gap_pred_energy=-4.07751451328289 gap_fmax_final=0.0004182900707650436 gap_converged=1 pbc="F F F"
Ba      16.03432739      13.66969571      13.66987100
Ba      13.66945627      17.14819863      13.66976323
Ba      13.66947721      10.19115857      13.66975964
Ba      12.48779543      13.66974807      15.71702302
Ba      12.48743745      13.66969276      11.62207685
6
Properties=species:S:1:pos:R:3 config_type=qcd gap_pre_relax_energy=-5.3864351911673305 gap_pred_energy=-5.412075210378881 gap_fmax_final=0.0008660882919740625 gap_converged=1 pbc="F F F"
Ba      15.28039194      15.27249776      13.33483067
Ba      11.14347281      15.52512617      13.32370981
Ba      11.38670700      11.38774995      13.33262086
Ba      15.53139637      11.12765996      13.32291381
Ba      13.32153087      13.34030205      16.44533726
Ba      13.32746408      13.33762717      10.23155064
7
Properties=species:S:1:pos:R:3 config_type=qcd gap_pre_relax_energy=-6.772898534032683 gap_pred_energy=-6.786072059701345 gap_fmax_final=0.0009840991581696963 gap_converged=1 pbc="F F F"
Ba      11.62262858      10.31710722      12.09932270
Ba      12.72038185      13.00782697      15.25542795
Ba      14.07533618      13.78680032      11.54126539
Ba      16.63996036      14.67120024      14.84347313
Ba      15.78292586      10.48091482      13.65877915
Ba      13.02192213      17.09798753      14.03672770
Ba       9.91080427      14.41212212      12.33896320
8
Properties=species:S:1:pos:R:3 config_type=qcd gap_pre_relax_energy=-7.944530420728457 gap_pred_energy=-7.959324128582894 gap_fmax_final=0.0008844387598220996 gap_converged=1 pbc="F F F"
Ba      16.41261318      14.30064757      17.05057234
Ba      16.74123005      13.08550061      12.96390918
Ba      14.16762290      10.97324482      15.57573874
Ba      12.91493355      11.75783492      11.54722782
Ba      14.29977847      15.67102339      10.21181785
Ba      13.19291675      14.80225721      14.28424711
Ba       9.89621431      12.05636037      14.67943364
Ba      10.04120687      15.01964721      11.35356942
9
Properties=species:S:1:pos:R:3 config_type=qcd gap_pre_relax_energy=-9.440574758052874 gap_pred_energy=-9.451905663977852 gap_fmax_final=0.0008472953837819269 gap_converged=1 pbc="F F F"
Ba      12.72258688      14.28631472      13.53369338
Ba      13.14177344      12.72381937       9.62126664
Ba      10.90975570      11.80121309      16.44291274
Ba      15.15475834      12.75458685      16.46661758
Ba      13.55248531      10.18368965      13.25034103
Ba      15.77624120      16.82978362      14.87694153
Ba      16.51792087      13.31800575      12.30082109
Ba      14.50065874      16.78503116      10.61515551
Ba      12.26855479      15.86229105      17.43698579
10
Properties=species:S:1:pos:R:3 config_type=qcd gap_pre_relax_energy=-11.105053214789615 gap_pred_energy=-11.10643184001878 gap_fmax_final=0.0008987709296661252 gap_converged=1 pbc="F F F"
Ba      15.20939920      15.58806747      10.74188341
Ba      11.62930512      11.67459795      11.19084122
Ba      16.06963846      11.26386015      11.46782835
Ba      10.91079767      16.03095604      11.87843963
Ba      13.87980157      17.29074450      14.97101939
Ba      13.69372614      13.69359551      13.69413419
Ba      13.78157037      10.15861817      15.14320605
Ba      17.36239223      14.07269990      14.69385957
Ba      10.29910585      13.37579597      15.42010739
Ba      14.09943812      13.78623908      17.73385555
10
Properties=species:S:1:pos:R:3 config_type=qcd gap_pre_relax_energy=-10.832005801869736 gap_pred_energy=-10.94205108906021 gap_fmax_final=0.0009767598904234687 gap_converged=1 pbc="F F F"
Ba      14.87450422      15.28445299       9.78148158
Ba      15.90554877      11.35505172      11.52739339
Ba      11.76287684      12.86693177      11.72182388
Ba      11.93008926      17.22157467      12.45784363
Ba      14.80441569      14.57596776      13.96206016
Ba      17.82593330      12.00438349      15.45676193
Ba      13.59991397      10.82562731      15.25428467
Ba      13.82042469      17.90436225      16.39636780
Ba      11.10929635      14.49896642      15.83881010
Ba      14.86517761      13.96086231      18.10135357
11
Properties=species:S:1:pos:R:3 config_type=qcd gap_pre_relax_energy=-12.696112605118406 gap_pred_energy=-12.708100432980592 gap_fmax_final=0.0007586785031110457 gap_converged=1 pbc="F F F"
Ba      11.56596684      11.50336076      10.27132082
Ba      17.39594923      14.34955577      13.20358090
Ba      11.42696081      14.52829312      16.71434987
Ba      10.07181819      14.91674634      12.38991833
Ba      15.17325892      11.38423135      16.40679965
Ba      14.29275919      14.79072540       9.90696684
Ba      15.56665281      15.62734358      16.86275118
Ba      13.56569762      13.56594039      13.56560812
Ba      11.14787873      10.59885427      14.44037329
Ba      15.37013790      10.47276204      11.95543732
Ba      13.65144649      17.49071370      13.51142040
12
Properties=species:S:1:pos:R:3 config_type=qcd gap_pre_relax_energy=-14.169182680052034 gap_pred_energy=-14.175974448304048 gap_fmax_final=0.0009919307460254571 gap_converged=1 pbc="F F F"
Ba      15.38479020      17.51229832      12.65906611
Ba      11.32942519      11.80308049      11.08778316
Ba      17.84180670      13.84824009      13.51271496
Ba      12.10900739      13.90825902      17.93686284
Ba      11.43547710      16.25320137      11.15265174
Ba      15.70339972      11.62504755      16.77582298
Ba      15.02493516      13.96398841      10.00663803
Ba      15.81053227      16.07095404      16.84076030
Ba      13.62403131      13.93620781      13.96183153
Ba      11.75535267      10.35584680      15.28489728
Ba      15.22644535      10.31913876      12.56069051
Ba      11.91343996      17.56238033      15.37892354
13
Properties=species:S:1:pos:R:3 config_type=qcd gap_pre_relax_energy=-16.141350148315183 gap_pred_energy=-16.14736539204401 gap_fmax_final=0.0009908542057746655 gap_converged=1 pbc="F F F"
Ba      14.20284352      14.20284352      14.20284352
Ba      14.20523088      14.20284353      18.44402346
Ba      15.37644452      10.59466169      16.10572778
Ba      11.13238782      11.97178422      16.10160517
Ba      11.13238778      16.43390277      16.10160516
Ba      15.37644446      17.81102537      16.10572774
Ba      17.99717281      14.20284356      16.10217631
Ba      13.02924257      10.59466166      12.29995928
Ba      10.40851422      14.20284347      12.30351072
Ba      13.02924251      17.81102534      12.29995925
Ba      17.27329920      16.43390281      12.30408186
Ba      17.27329925      11.97178426      12.30408187
Ba      14.20045615      14.20284350       9.96166357
14
Properties=species:S:1:pos:R:3 config_type=qcd gap_pre_relax_energy=-17.246285612540117 gap_pred_energy=-17.254705438431568 gap_fmax_final=0.00042877148321032054 gap_converged=1 pbc="F F F"
Ba      14.98863006      14.57191671      18.63522106
Ba      11.69565129      16.97702789      19.99280624
Ba      13.85580314      10.95495232      16.18984285
Ba      11.27440942      14.64744464      16.40551110
Ba      13.84279618      18.13645852      16.45498010
Ba      18.13828544      16.77218179      16.27209534
Ba      18.10992179      12.30926215      16.16302154
Ba      15.04984371      14.58789387      14.32416523
Ba      14.95844257      14.71436434      10.13079763
Ba      11.92182721      12.43496211      12.44835339
Ba      16.14219446      11.03133177      12.38371009
Ba      11.94540307      16.89824824      12.55463439
Ba      16.20099748      18.24788436      12.53048758
Ba      18.79618186      14.63645895      12.43476111
15
Properties=species:S:1:pos:R:3 config_type=qcd gap_pre_relax_energy=-18.670881029581828 gap_pred_energy=-18.683075195115343 gap_fmax_final=0.0009959681496689854 gap_converged=1 pbc="F F F"
Ba      15.37064777      14.83265337      18.38800802
Ba      11.95607417      12.67053780      19.80355640
Ba      11.98342506      16.99739621      19.86494045
Ba      14.13387985      11.29454695      16.07085734
Ba      11.58548801      14.88808984      16.15891213
Ba      14.17960048      18.45035577      16.17141264
Ba      18.47650695      17.09146172      15.95507495
Ba      18.44814106      12.60479258      15.89157581
Ba      15.37926366      14.89419315      14.04515042
Ba      15.24679640      14.95355963       9.87175030
Ba      12.22925734      12.69603209      12.22769125
Ba      16.44468924      11.29551123      12.14877781
Ba      12.25811616      17.18221939      12.29101098
Ba      16.49033668      18.53065026      12.25075668
Ba      19.09653754      14.89676036      12.13928518
15
Properties=species:S:1:pos:R:3 config_type=qcd gap_pre_relax_energy=-18.34711459432497 gap_pred_energy=-18.360578556351065 gap_fmax_final=0.0009364399614083048 gap_converged=1 pbc="F F F"
Ba      14.65673284      15.43425558      10.96043886
Ba      14.30024211      11.33197684      12.67302358
Ba      18.31566045      13.53454200      12.76763492
Ba      21.56305673      16.23606970      13.59279157
Ba      17.53252368      17.72763878      13.56087437
Ba      11.11099494      14.31303140      13.41507155
Ba      13.01822480      18.35758935      14.06761150
Ba      14.94185269      14.66176862      15.12900751
Ba      11.70690307      16.07808443      17.53123072
Ba      16.88229320      11.11431082      16.30397979
Ba      11.85329969      20.37774684      17.67475113
Ba      15.52336027      18.14126229      17.60542063
Ba      18.88766199      15.13796107      16.76908413
Ba      12.50541391      11.64324115      16.70645144
Ba      15.27000715      13.97874865      19.31085586
16
Properties=species:S:1:pos:R:3 config_type=qcd gap_pre_relax_energy=-20.08753282018512 gap_pred_energy=-20.098441134951887 gap_fmax_final=0.000988411922160618 gap_converged=1 pbc="F F F"
Ba      15.26553278      14.60633473      17.94266550
Ba      11.94313589      12.39168477      19.55751820
Ba      12.16720731      16.86463635      19.63050853
Ba      16.37194048      18.40845534      19.63740406
Ba      14.01966114      11.06917071      15.76222684
Ba      11.46622390      14.67859937      15.85519835
Ba      14.09412858      18.24833002      15.90276903
Ba      18.30013337      16.88365565      15.83978327
Ba      18.32529130      12.38414851      15.65711008
Ba      15.26579431      14.66273545      13.70858556
Ba      15.20106029      14.76537688       9.58278605
Ba      12.14483007      12.51168185      11.87985234
Ba      16.36700911      11.09268017      11.82218098
Ba      12.17338710      16.96275530      11.93990521
Ba      16.41549027      18.31245429      11.95733977
Ba      19.02540287      14.70352936      11.87039501
17
Properties=species:S:1:pos:R:3 config_type=qcd gap_pre_relax_energy=-21.757028812416095 gap_pred_energy=-21.786457000598105 gap_fmax_final=0.0005450594992637258 gap_converged=1 pbc="F F F"
Ba      14.73472376      19.57851749      17.44677232
Ba      11.18628556      16.96085420      16.78372030
Ba      12.38528874      19.57752441      13.37814991
Ba      14.73471642      14.73473675      18.44748080
Ba      14.73472396      16.65674039      14.73459068
Ba      14.73474695      16.96042984      10.63756114
Ba      11.51934557      14.73473249      12.87878859
Ba      14.73472323       9.89094791      17.44676846
Ba      12.38529730       9.89194252      13.37815284
Ba      11.18630271      12.50863368      16.78370923
Ba      18.28314909      16.96083362      16.78373927
Ba      17.08418441      19.57752369      13.37817025
Ba      14.73474188      12.81271813      14.73457883
Ba      17.95013617      14.73473505      12.87881060
Ba      18.28315749      12.50862379      16.78374062
Ba      14.73475151      12.50902934      10.63755721
Ba      17.08418685       9.89193827      13.37817052
18
Properties=species:S:1:pos:R:3 config_type=qcd gap_pre_relax_energy=-23.217537468424407 gap_pred_energy=-23.228183233935706 gap_fmax_final=0.0009423386782563468 gap_converged=1 pbc="F F F"
Ba      14.92450251      14.89178523      17.33991159
Ba      16.07888782      11.23301118      19.07247411
Ba      11.82302684      12.64689324      19.09063962
Ba      11.85244877      17.12830830      19.15139924
Ba      16.12638946      18.48454928      19.17289472
Ba      18.73820001      14.84090356      19.12090655
Ba      13.72908310      11.32175707      15.28365004
Ba      11.13334551      14.94453822      15.33341885
Ba      13.77680314      18.53187104      15.38333910
Ba      18.00678599      17.12629674      15.36494751
Ba      17.97706636      12.67059528      15.30348530
Ba      14.92544929      14.94960976      13.14537271
Ba      14.92638680      15.00627060       9.05512080
Ba      11.84119696      12.76342543      11.33451587
Ba      16.07360857      11.35694809      11.31606393
Ba      11.87086438      17.22547320      11.39649972
Ba      16.12267286      18.57605129      11.41601686
Ba      18.72071521      14.94914608      11.36677708
19
Properties=species:S:1:pos:R:3 config_type=qcd gap_pre_relax_energy=-25.197573202210698 gap_pred_energy=-25.212065843102188 gap_fmax_final=0.0007995777767593965 gap_converged=1 pbc="F F F"
Ba      16.18689467      16.15793616      18.30344978
Ba      16.18631139      16.10202341      22.42039823
Ba      17.33911947      12.51384308      20.04311742
Ba      13.09950672      13.91917020      20.06171138
Ba      13.12605259      18.38515675      20.12235660
Ba      17.38209782      19.73988281      20.14123225
Ba      19.98572036      16.11108370      20.09233550
Ba      14.99054971      12.57822934      16.13765893
Ba      12.38477609      16.20968948      16.18672156
Ba      15.03363160      19.80972087      16.23592355
Ba      19.27623463      18.40315313      16.21735636
Ba      19.24955150      13.93411336      16.15664068
Ba      16.18737741      16.21588571      14.07054628
Ba      16.18772538      16.27193763       9.95333108
Ba      13.10025220      14.02545359      12.25150975
Ba      17.33997303      12.62005035      12.23295492
Ba      13.12694179      18.49151557      12.31209015
Ba      17.38302715      19.84624226      12.33106714
Ba      19.98680714      16.21746327      12.28214911
20
Properties=species:S:1:pos:R:3 config_type=qcd gap_pre_relax_energy=-26.547867219668195 gap_pred_energy=-26.555512322493076 gap_fmax_final=0.00092736892224301 gap_converged=1 pbc="F F F"
Ba      12.70814416      11.03300007      10.43008536
Ba      11.33424405      14.80226507       8.68172643
Ba       8.37199516      12.18389687      10.94264219
Ba      10.30460424      17.49463640      15.42603808
Ba      15.16823688      14.77543635      10.79089284
Ba      17.06163925      10.82944922      10.81980031
Ba      11.39804027      14.35190094      12.92020125
Ba       8.19750834      16.58145106      11.60385194
Ba      18.43949883      13.98368430      13.80209560
Ba      12.33535587      18.21615173      11.52535070
Ba      14.47306302       7.95293344      13.22277793
Ba      17.97439918       9.80245290      15.25380544
Ba      15.00750596      12.54283110       7.07446948
Ba       7.87283139      13.79415580      15.06921136
Ba      14.70736947      12.05617206      14.15711406
Ba      14.70538345      16.34822486      14.95368255
Ba      10.72191717      10.28969133      14.36991216
Ba      16.50128646      13.20009395      17.73817145
Ba      11.96207595      13.57380416      17.14771567
Ba      14.06740859       9.50027609      17.38296285
20
Properties=species:S:1:pos:R:3 config_type=qcd gap_pre_relax_energy=-26.29497485964838 gap_pred_energy=-26.312970386869768 gap_fmax_final=0.0009879038777941673 gap_converged=1 pbc="F F F"
Ba      12.54951290      14.42738515      17.22658290
Ba      19.52506403      15.58508994      15.70238326
Ba      17.08790855      18.44792928      13.28175685
Ba      15.65344331      14.48480988      14.16903214
Ba      12.77517675      17.73966522      14.23639436
Ba      14.92652048      21.23200380      16.20351935
Ba      14.55446816      16.01937361      10.40874719
Ba      14.13031393      10.65099287      15.18916320
Ba      11.75708961      13.44029364      12.83227286
Ba      19.09671670      19.91744685      17.12602398
Ba      18.49646128      11.38730721      14.32484307
Ba      16.03490923      20.03383956      20.34722098
Ba      15.34438689      11.64529071      11.12078429
Ba      12.12543351      18.74578931      18.62413866
Ba      11.80447489       9.23706102      11.83214219
Ba      18.72741887      14.69973453      11.32900474
Ba      14.56735476      15.87924238      21.04870927
Ba      16.71706164      13.10905236      18.15141716
Ba      15.83030481      17.28289768      17.30006379
Ba      18.86676759      16.60558290      20.11658767
21
Properties=species:S:1:pos:R:3 config_type=qcd gap_pre_relax_energy=-27.947589198893525 gap_pred_energy=-27.95481206330851 gap_fmax_final=0.0009144663498146039 gap_converged=1 pbc="F F F"
Ba      16.89976619      15.99183630      18.48327315
Ba      16.81393381      16.00528764      22.58926724
Ba      18.02956731      12.39976917      20.26615049
Ba      13.78513994      13.74706833      20.24782173
Ba      13.66753477      18.29401111      20.07574609
Ba      18.03510753      19.61085052      20.29967933
Ba      20.64157108      15.99074008      20.30041441
Ba      15.68526592      12.36650435      16.32215473
Ba      13.15222336      15.98628004      16.36061678
Ba       9.87473089      16.39609469      13.61270270
Ba      15.71799730      19.66429571      16.41968804
Ba      19.98094284      18.25687813      16.37360565
Ba      19.94257290      13.76787948      16.31577911
Ba      16.91184505      16.04437484      14.27147319
Ba      16.76216908      16.15063498      10.15442186
Ba      11.24857714      19.73885859      16.30734749
Ba      13.59360076      13.94811084      12.55718366
Ba      17.93809006      12.47724394      12.37783459
Ba      13.64723219      18.39678060      12.73748914
Ba      18.05928779      19.69696822      12.51039281
Ba      20.59502046      16.05170886      12.39913420
22
Properties=species:S:1:pos:R:3 config_type=qcd gap_pre_relax_energy=-29.621788789633012 gap_pred_energy=-29.638811527337804 gap_fmax_final=0.0008357506002630723 gap_converged=1 pbc="F F F"
Ba      11.35655669      13.24755865      17.52582440
Ba      13.08572751      16.11943388      20.63586011
Ba      15.77038920      13.16408238      18.46172577
Ba      10.01751025      17.60987525      17.77292036
Ba      10.77064126      15.47784143      13.72485907
Ba      14.32025295      13.10945298      14.35771919
Ba      20.23278242      13.96994575      18.13902993
Ba      13.82348894      16.62293227      16.57275651
Ba      17.25203851      17.35769147      19.09365002
Ba      10.90590836      10.92204911      13.54653048
Ba      13.57634991      20.11993164      18.72911613
Ba      20.79969912      17.94776937      16.20620893
Ba      16.62201342      19.67479613      15.29570291
Ba      14.98570602       9.69573979      12.12050734
Ba      18.13937727      11.20808952      15.15574434
Ba      12.97306076      13.19097868      10.43261738
Ba      17.66203180      15.46877241      15.23181086
Ba      21.31526742      14.21289315      13.82606781
Ba      12.08633333      19.85151748      14.54653087
Ba      14.75133969      16.95526107      12.28181313
Ba      17.43577552      13.47428994      11.39612627
Ba      19.22431773      17.70566567      12.05344631
23
Properties=species:S:1:pos:R:3 config_type=qcd gap_pre_relax_energy=-31.514067840345795 gap_pred_energy=-31.535971500191202 gap_fmax_final=0.0008955628512771311 gap_converged=1 pbc="F F F"
Ba      17.40308635      16.15005639      18.30139154
Ba      17.18897892      16.11103205      22.40838925
Ba      18.40697903      12.51217789      20.09624297
Ba      14.02370995      13.92767561      19.84557877
Ba      14.08495616      18.43135637      19.89139472
Ba      18.50513904      19.72162601      20.16956588
Ba      21.05979747      16.08094564      20.18242511
Ba      16.13817263      12.52543841      16.15075207
Ba      13.75039093      16.22125865      16.18373969
Ba      10.30089027      16.29102846      13.94514564
Ba      16.23792043      19.85044730      16.22533183
Ba      20.47250813      18.38176871      16.21806377
Ba      20.41114757      13.87809745      16.17223722
Ba      17.41046476      16.19264359      14.07898664
Ba      17.21122227      16.23733770       9.97104848
Ba      10.29245955      16.24556667      18.41030583
Ba      11.58867496      12.64518631      16.14329658
Ba      11.68686715      19.85482454      16.21685571
Ba      14.03711853      14.00251593      12.47739635
Ba      18.42093522      12.59213532      12.21421773
Ba      14.09849801      18.50635651      12.52331286
Ba      18.51917720      19.80182102      12.28760758
Ba      21.07407374      16.16187172      12.20988203
24
Properties=species:S:1:pos:R:3 config_type=qcd gap_pre_relax_energy=-32.842058419548756 gap_pred_energy=-32.8587081477721 gap_fmax_final=0.0008218665665277376 gap_converged=1 pbc="F F F"
Ba      17.45626141      15.83590396      18.41500641
Ba      17.23278181      15.79919942      22.51317904
Ba      18.45408710      12.20245505      20.20035970
Ba      14.04587216      13.64773621      19.94803345
Ba      14.13542133      18.14686575      19.99190824
Ba      18.56496649      19.39927670      20.29971619
Ba      21.10749552      15.77024225      20.28864420
Ba      16.18840177      12.20522048      16.25397834
Ba      13.81130321      15.88731658      16.28476906
Ba      10.36291035      15.98955286      14.02203587
Ba      16.29120796      19.51232991      16.33775599
Ba      14.68310601      22.35034827      13.49979236
Ba      20.51814990      18.09909704      16.32741772
Ba      20.47479557      13.59964832      16.25707909
Ba      17.45486365      15.86021478      14.19298264
Ba      17.24033172      15.93805035      10.07351085
Ba      10.34385928      16.04013047      18.48152899
Ba      11.60945374      12.37488068      16.27256694
Ba      11.94063324      19.69321645      16.13535194
Ba      14.08617747      13.64412870      12.57359511
Ba      18.51476081      12.32322499      12.30802947
Ba      14.14160265      18.14741622      12.61150579
Ba      18.31163184      19.64550044      12.47762083
Ba      21.10150298      15.95962210      12.30520979
25
Properties=species:S:1:pos:R:3 config_type=qcd gap_pre_relax_energy=-34.380297605365556 gap_pred_energy=-34.38996933046023 gap_fmax_final=0.0009349315521035447 gap_converged=1 pbc="F F F"
Ba      16.94799260      13.51529991      17.50781342
Ba      20.59920491      19.26952566      15.32022554
Ba      16.94778422      20.38029552      17.50781288
Ba      13.29643145      19.26924099      15.32033097
Ba      14.71912386      16.94786930      11.64450380
Ba      19.17658342      16.94804567      11.64447487
Ba      16.94776776      20.67005643      13.12695764
Ba      16.94809478      10.15873674      19.86677083
Ba      20.57421770      12.68872842      19.48672868
Ba      16.94799404      14.40656837      21.67490917
Ba      13.32188941      12.68834122      19.48675304
Ba      14.72725118      10.32968475      15.98657208
Ba      19.16897874      10.32988186      15.98646553
Ba      20.59933554      14.62657449      15.32019361
Ba      19.24627377      16.94792750      18.87010645
Ba      14.64952854      16.94780223      18.87015385
Ba      13.29652889      14.62626912      15.32022908
Ba      16.94796124      13.22578130      13.12682061
Ba      16.94786892      16.94800557      15.14016287
Ba      13.32158325      21.20699972      19.48690664
Ba      16.94785498      19.48908944      21.67499949
Ba      20.57392131      21.20740527      19.48684391
Ba      19.16850942      23.56612474      15.98675958
Ba      16.94775403      23.73700265      19.86701563
Ba      14.72676756      23.56594465      15.98669131
26
Properties=species:S:1:pos:R:3 config_type=qcd gap_pre_relax_energy=-36.349063575805246 gap_pred_energy=-36.37127536886925 gap_fmax_final=0.0007935175252844684 gap_converged=1 pbc="F F F"
Ba      17.38685509      15.29597747      18.29585830
Ba      17.17880631      15.44550050      22.39611385
Ba      18.42248280      11.78882645      20.16829637
Ba      13.99408282      13.17318100      19.88573199
Ba      14.07118009      17.70191585      19.84728191
Ba      18.35237632      19.17941664      19.88682040
Ba      21.04135946      15.39737063      20.16955471
Ba      16.12070368      11.67714923      16.17618589
Ba      13.71784950      15.34026782      16.17477245
Ba      10.27391367      15.52790819      13.94379481
Ba      16.20766648      18.77034357      16.17477036
Ba      14.96089561      21.98713373      13.94342590
Ba      20.43513684      17.62328460      16.17831544
Ba      20.42270791      13.09397371      16.17884445
Ba      17.39030032      15.29568752      14.05704986
Ba      17.18793992      15.44441914       9.95668136
Ba      10.27184909      15.52927180      18.40248615
Ba      11.51543074      11.87267235      16.17465995
Ba      14.95816706      21.98858739      18.40236588
Ba      11.92849340      19.25712487      16.17237622
Ba      18.82075547      21.94064850      16.17548650
Ba      13.99906055      13.17189674      12.46436213
Ba      18.42915650      11.78880282      12.18681084
Ba      14.07548909      17.70003423      12.50074581
Ba      18.35730059      19.17826648      12.46575222
Ba      21.04732721      15.39762529      12.18874274
27
Properties=species:S:1:pos:R:3 config_type=qcd gap_pre_relax_energy=-37.80164873468056 gap_pred_energy=-37.81441952674022 gap_fmax_final=0.0009507947399688777 gap_converged=1 pbc="F F F"
Ba      16.79954597      23.00677814      16.31636044
Ba      16.79959617      10.59233620      16.31638260
Ba      10.10669303      19.04362961      18.35680133
Ba      23.49226863      14.55557275      18.35679882
Ba      23.49225403      19.04360922      18.35679178
Ba      10.10673087      14.55543846      18.35681125
Ba      23.32409234      16.79958330      14.52041601
Ba      10.27497421      16.79952083      14.52035505
Ba      16.79956440      20.78226584      12.44808313
Ba      16.79959735      12.81683493      12.44808642
Ba      12.45852716      16.79954819      21.38353828
Ba      21.14052085      16.79958283      21.38349790
Ba      20.56209003      13.06683689      15.07601370
Ba      20.56206828      20.53230245      15.07600441
Ba      13.03706777      20.53223812      15.07601142
Ba      13.03709979      13.06684418      15.07602275
Ba      14.38582077      20.49877676      19.36618224
Ba      19.21325501      20.49881087      19.36620869
Ba      19.21328684      13.10033440      19.36622340
Ba      14.38585784      13.10033086      19.36619654
Ba      19.01821077      16.79956262      13.02840595
Ba      14.58094873      16.79954625      13.02848410
Ba      16.79954167      16.79957201      20.07284975
Ba      13.37666003      16.79951936      17.31048582
Ba      20.22311455      16.79957618      17.31074161
Ba      16.79936897      14.68772560      16.15218202
Ba      16.79933696      18.91141613      16.15215761
28
Properties=species:S:1:pos:R:3 config_type=qcd gap_pre_relax_energy=-39.29440647711075 gap_pred_energy=-39.32226275914703 gap_fmax_final=0.0009028802919415822 gap_converged=1 pbc="F F F"
Ba      17.72821932      16.48836460      18.94522056
Ba      18.72640884      12.57003558      20.36942588
Ba      14.33274032      14.15869099      20.40249703
Ba      14.35361038      18.83728709      20.41925117
Ba      18.76121428      20.38707300      20.39722055
Ba      21.47969947      16.46546736      20.67115602
Ba      16.52568237      13.10278407      16.74216083
Ba      15.21608827       9.94861903      14.44957377
Ba      14.07690879      16.51227610      16.76463152
Ba      10.64689544      16.53560268      14.49911877
Ba      16.55588274      19.89954430      16.76659411
Ba      15.27383803      23.08181293      14.49650451
Ba      20.80091090      18.73472813      16.78648542
Ba      20.78100143      14.23002503      16.77038410
Ba      17.76378643      16.50367167      14.61279879
Ba      17.56756243      16.51938543      10.51622470
Ba      15.22922251       9.89701645      18.91812578
Ba      19.08859267       9.90471409      16.65838027
Ba      10.63693716      16.51960449      18.97228619
Ba      12.20658028      12.72562033      16.69930457
Ba      15.28753996      23.10136254      18.96534237
Ba      12.23999264      20.31554137      16.72665320
Ba      19.14670165      23.07569769      16.70543357
Ba      14.39960030      14.26497822      13.02553950
Ba      18.68053234      12.72384778      12.97572197
Ba      14.41956134      18.78321558      13.04181903
Ba      18.71405520      20.28662008      13.00293132
Ba      21.42768240      16.49386126      12.76666240
29
Properties=species:S:1:pos:R:3 config_type=qcd gap_pre_relax_energy=-41.1505484735479 gap_pred_energy=-41.168645504949694 gap_fmax_final=0.0009701257670477972 gap_converged=1 pbc="F F F"
Ba      17.37984420      16.13661562      18.28179099
Ba      17.16201676      16.12670073      22.37442929
Ba      18.29121370      12.33252138      19.87523570
Ba      13.99954580      13.87147043      19.84228594
Ba      14.01636925      18.41793007      19.85382830
Ba      18.31917527      19.92532186      19.89405022
Ba      21.03393416      16.11809373      20.13843043
Ba      16.13365516      12.74506509      16.13812331
Ba      14.83356492       9.56980367      13.89948623
Ba      13.67842399      16.15485967      16.14473578
Ba      10.24337645      16.17342201      13.90956234
Ba      16.15847897      19.54714625      16.15466387
Ba      14.88232819      22.74302930      13.93255991
Ba      20.42987444      18.40395179      16.15034495
Ba      20.41290881      13.85666625      16.13876042
Ba      17.37969419      16.14694598      14.00865691
Ba      17.15974537      16.15842099       9.91583591
Ba      14.83377295       9.56124916      18.36482264
Ba      18.70078719       9.55208533      16.13166178
Ba      10.24232671      16.16207404      18.38047436
Ba      11.81556674      12.36449656      16.13688990
Ba      14.88235149      22.72958598      18.39770412
Ba      11.84359314      19.95960820      16.15599859
Ba      18.74953121      22.72136074      16.16440479
Ba      13.99969025      13.88840951      12.43809095
Ba      18.28989359      12.34982742      12.39835321
Ba      14.01655146      18.43832885      12.44960906
Ba      18.31812285      19.94550495      12.41753646
Ba      21.03216003      16.13800168      12.15017085
30
Properties=species:S:1:pos:R:3 config_type=qcd gap_pre_relax_energy=-42.58127215355101 gap_pred_energy=-42.621222360465126 gap_fmax_final=0.0009576913396011043 gap_converged=1 pbc="F F F"
Ba      17.18823223      18.04203681       9.83335354
Ba      14.27658664      15.62898012      12.50435616
Ba      14.65694811      20.08524622      13.16102634
Ba      19.12357593      21.18048761      12.33682287
Ba      18.39053363      13.87470835      11.50634746
Ba      21.35926669      17.44909838      11.36716276
Ba      19.18171676      10.50056144      14.60492459
Ba      18.06195573      17.49467618      13.80063975
Ba      14.78359882      17.29980808      16.42789498
Ba      15.01030579      11.09336842      13.07142327
Ba      10.99201103      17.82597650      15.00897392
Ba      16.89400720      13.77289987      15.53632491
Ba      17.50312105      20.80976483      16.60114105
Ba      21.19438236      14.64601302      15.04805056
Ba      21.59465022      19.09923718      15.71217221
Ba      12.62236753      13.59420767      16.18675363
Ba      13.11817953      20.99788253      17.69707085
Ba      18.73692323      16.73707013      17.88224678
Ba      22.54142128      16.18440830      19.25628422
Ba      15.71695856      10.31221484      17.40172723
Ba      19.55915837      12.60851103      18.73738747
Ba      20.05648434      20.01154500      20.24909648
Ba      16.35651995      22.83826149      20.50306698
Ba      15.88611364      18.70740664      20.18533469
Ba      15.46088862      14.29993027      19.63786838
Ba      11.88637503      17.07259492      19.52999983
Ba      18.82397780      16.08636437      22.08129681
Ba      12.95051664      20.62132452      22.30912392
Ba      17.14993982      20.02392568      23.85387001
Ba      14.38693128      16.56513740      23.43190610
31
Properties=species:S:1:pos:R:3 config_type=qcd gap_pre_relax_energy=-44.13801227569672 gap_pred_energy=-44.16888626620743 gap_fmax_final=0.000926191157485532 gap_converged=1 pbc="F F F"
Ba      17.21387660      16.36751652      19.32224873
Ba      18.23179507      12.36444976      20.56491343
Ba      13.77895892      14.02913487      20.61658324
Ba      13.82235760      18.82752413      20.63716806
Ba      18.37033496      20.35787198      20.61937809
Ba      21.33474705      16.64157566      20.56675320
Ba      16.03774904      13.00213123      16.97683265
Ba      14.71199850       9.87632330      14.63203395
Ba      13.58483425      16.43578772      16.99734565
Ba      10.17504013      16.49223955      14.69331159
Ba      16.02346421      19.79782763      16.99887882
Ba      14.91290220      23.02286649      14.69623082
Ba      20.04974248      18.53164298      16.97943106
Ba      22.61010065      20.76313212      14.63685069
Ba      20.35388310      14.09060631      16.94203369
Ba      17.21499443      16.36840283      14.84093433
Ba      17.15423531      16.41463483      10.73594067
Ba      14.71602834       9.77698908      19.10932219
Ba      18.57023898       9.78915907      16.83979360
Ba      10.12561633      16.47560813      19.16295549
Ba      11.69495432      12.66011172      16.88957848
Ba      14.91149247      23.07237771      19.16586005
Ba      11.79110599      20.30276403      16.91870185
Ba      22.70385266      20.78748769      19.11403616
Ba      19.02654829      22.76598586      16.89402172
Ba      23.88934745      17.12127599      16.84295540
Ba      13.91903700      14.18857443      13.21816902
Ba      18.18991598      12.60033086      13.19002158
Ba      13.96121528      18.73000782      13.23154792
Ba      18.26530322      20.17956537      13.22071426
Ba      21.10059444      16.61235959      13.19171886
32
Properties=species:S:1:pos:R:3 config_type=qcd gap_pre_relax_energy=-45.923975235318274 gap_pred_energy=-45.94773226497694 gap_fmax_final=0.0009501466598033712 gap_converged=1 pbc="F F F"
Ba      17.23264840      16.38692983      18.89823105
Ba      17.20285349      16.40801954      22.97407661
Ba      18.20607915      12.58150319      20.46201818
Ba      13.92319925      14.17378658      20.47581267
Ba      13.96621690      18.75658083      20.48955600
Ba      18.30954421      20.21919953      20.47624844
Ba      21.15198715      16.64169452      20.46229702
Ba      16.03338615      13.02485656      16.73665211
Ba      14.70932850       9.87064868      14.48933088
Ba      13.57494329      16.46834028      16.75084159
Ba      10.14918705      16.52053311      14.52147118
Ba      16.02080062      19.83863399      16.75109151
Ba      14.90808909      23.07961863      14.52194239
Ba      20.05614151      18.56972663      16.73705262
Ba      22.64483808      20.80760341      14.49008458
Ba      20.37626671      14.10605124      16.72670366
Ba      17.22050160      16.39608647      14.58257239
Ba      17.16784528      16.43441127      10.50709611
Ba      14.72198351       9.86116665      18.97802023
Ba      18.57254114       9.82566603      16.72272277
Ba      10.16181232      16.51104600      18.99960849
Ba      11.70546150      12.69381126      16.74810965
Ba      14.92069088      23.07013525      19.00015683
Ba      11.79966721      20.32882458      16.76399442
Ba      22.65746547      20.79810140      18.97892569
Ba      19.02874427      22.78704027      16.74888120
Ba      23.88601111      17.14869556      16.72328520
Ba      13.90223212      14.18957183      13.01426333
Ba      18.18508340      12.59727445      12.99726849
Ba      13.94524988      18.77237577      13.01967309
Ba      18.28858694      20.23498336      13.01478769
Ba      21.13102485      16.65749430      12.99763496
33
Properties=species:S:1:pos:R:3 config_type=qcd gap_pre_relax_energy=-47.3705696875211 gap_pred_energy=-47.3872190234364 gap_fmax_final=0.0008581502787043984 gap_converged=1 pbc="F F F"
Ba      16.93006831      16.54632704      19.00514325
Ba      16.92856203      16.54629325      23.06602164
Ba      18.00743557      12.74516188      20.55196312
Ba      13.68970222      14.23371167      20.52434111
Ba      13.70129268      18.88902093      20.55265782
Ba      18.12361320      20.34354056      20.52591668
Ba      20.87754934      16.70015309      20.55299864
Ba      15.80836914      13.17440448      16.78526266
Ba      14.67868886       9.99685108      14.48453297
Ba      13.32147111      16.57809458      16.80531490
Ba       9.90656054      16.59624842      14.57294814
Ba      15.78145004      19.96793473      16.80616979
Ba      14.70585897      23.20960107      14.57459551
Ba      19.78856678      18.65900230      16.78667514
Ba      22.45976926      20.71893361      14.48727095
Ba      19.87434058      14.41017612      16.87734193
Ba      22.50021735      12.50513438      14.34292585
Ba      16.89257231      16.57463286      14.60194531
Ba      16.87291730      16.58996721      10.52221953
Ba      14.70169983       9.91864223      18.96793571
Ba      18.76790829      10.22256227      16.62329764
Ba       9.92104407      16.57613896      19.05667766
Ba      11.54950040      12.73186279      16.77625151
Ba      14.72841743      23.20062060      19.05834392
Ba      11.55926180      20.44441080      16.82553239
Ba      22.54023938      20.71989996      18.97068077
Ba      18.88875285      22.84516452      16.77881927
Ba      23.51258054      16.76053304      16.62499469
Ba      13.66123838      14.28843223      13.04338162
Ba      18.12496209      12.83829642      13.04947121
Ba      13.66827985      18.91487131      13.06770983
Ba      18.06456057      20.35613913      13.04495107
Ba      20.82728481      16.56197230      13.05044366
34
Properties=species:S:1:pos:R:3 config_type=qcd gap_pre_relax_energy=-49.1891871508582 gap_pred_energy=-49.21123434924337 gap_fmax_final=0.0009187577745140968 gap_converged=1 pbc="F F F"
Ba      16.71017172      16.70859369      18.92567108
Ba      16.71110378      16.70705453      22.99540165
Ba      17.93926010      12.93509392      20.45497831
Ba      13.50105455      14.37318546      20.45572297
Ba      13.49807764      19.03807024      20.45830922
Ba      17.93480624      20.48323469      20.45758971
Ba      20.67940164      16.71133190      20.45503510
Ba      15.60851655      13.31313384      16.70858706
Ba      14.55891083      10.07618975      14.46424441
Ba      13.13895546      16.70692710      16.70993395
Ba       9.73557299      16.70582933      14.46643702
Ba      15.60362790      20.10541478      16.71198848
Ba      14.54921965      23.34196646      14.47120198
Ba      19.59704272      18.81039960      16.70893364
Ba      22.34760650      20.81339092      14.46429623
Ba      19.59988293      14.61288373      16.70847565
Ba      22.35406726      12.61487100      14.46419728
Ba      16.70910895      16.71029170      14.49387603
Ba      16.70801730      16.71204172      10.42388189
Ba      14.55904730      10.07506601      18.95130444
Ba      22.35523246      12.61416588      18.95124834
Ba      18.74817136      10.45033283      16.70819357
Ba       9.73639017      16.70319059      18.95343886
Ba      11.38643688      12.83643398      16.70814855
Ba      14.55077577      23.33955548      18.95813620
Ba      11.38117958      20.57514091      16.71325198
Ba      22.34934115      20.81150647      18.95131857
Ba      18.73955270      22.97176353      16.71170362
Ba      23.29266928      16.71431152      16.70710346
Ba      13.50026347      14.37611807      12.96202756
Ba      17.93799166      12.93733250      12.96181319
Ba      13.49675518      19.04218715      12.96489781
Ba      17.93151393      20.48651705      12.96399436
Ba      20.67694249      16.71314175      12.96132595
35
Properties=species:S:1:pos:R:3 config_type=qcd gap_pre_relax_energy=-50.489372556497 gap_pred_energy=-50.508115231232225 gap_fmax_final=0.0006686890780558157 gap_converged=1 pbc="F F F"
Ba      16.81437296      16.66288133      18.64944053
Ba      16.47613158      16.66181734      22.74704218
Ba      18.05363358      12.87762545      20.19072624
Ba      13.65443594      14.25718172      20.19909770
Ba      13.65087391      19.06322707      20.20006456
Ba      18.04820775      20.44931639      20.19225413
Ba      20.76805152      16.66543711      20.20488322
Ba      15.71467333      13.24775574      16.44238317
Ba      14.64229718      10.03041255      14.18927642
Ba      13.26059714      16.66066978      16.48763410
Ba       9.77045089      16.65841812      14.41866203
Ba      15.70973087      20.07725101      16.44379907
Ba      14.63261756      23.29395542      14.19204562
Ba      19.69400549      18.76497635      16.44687732
Ba      22.44274780      20.76004174      14.19305288
Ba      19.69700361      14.56584869      16.44600129
Ba      22.44859545      12.57563038      14.19134534
Ba      16.79235219      16.66376980      14.23354285
Ba      16.75241367      16.66470966      10.16914451
Ba      11.89651362      16.65822415      23.31904138
Ba      14.70175108       9.98974597      18.67085674
Ba      22.46310335      12.57196689      18.68155121
Ba      18.86178674      10.40101587      16.42828425
Ba      10.02417364      16.65767045      19.05994100
Ba      11.49682987      12.76506783      16.50330748
Ba      14.69202052      23.33284134      18.67363031
Ba      11.49102984      20.55359227      16.50493280
Ba      22.45725268      20.76189289      18.68325050
Ba      18.85266544      22.92858634      16.43087261
Ba      23.38538537      16.66803981      16.44739701
Ba      13.53936477      14.34148958      12.74573850
Ba      18.02000149      12.89715510      12.69171013
Ba      13.53593212      18.98186211      12.74674230
Ba      18.01456972      20.43281387      12.69331751
Ba      20.75432818      16.66701069      12.69205394
36
Properties=species:S:1:pos:R:3 config_type=qcd gap_pre_relax_energy=-52.05173390841929 gap_pred_energy=-52.07347630246391 gap_fmax_final=0.0009621839490680532 gap_converged=1 pbc="F F F"
Ba      16.67020290      16.19651256      18.15717795
Ba      16.27584871      16.47904317      22.29521331
Ba      17.87561781      12.44008758      19.70803204
Ba      13.40318058      13.90631140      19.82128350
Ba      13.52912222      18.47674099      19.52055596
Ba      17.83395322      20.00983596      19.82910534
Ba      20.61213337      16.20921900      19.71482308
Ba      15.49333329      12.84719427      15.97603981
Ba      14.40063369       9.63671311      13.72597576
Ba      13.02809949      16.23240573      15.98003025
Ba       9.53186723      16.26904569      13.94316846
Ba      15.51216999      19.65278557      15.98443186
Ba      14.39759606      22.96936978      13.95088561
Ba      19.49363385      18.35669842      15.98523382
Ba      22.21282402      20.39366135      13.74476484
Ba      19.49984268      14.14494776      15.95010993
Ba      22.22375858      12.17071394      13.66036156
Ba      16.57397892      16.27311154      13.75798331
Ba      16.51746343      16.32053417       9.69970464
Ba      11.80600776      16.88881164      22.90011694
Ba      14.50221550      20.60248701      22.90455702
Ba      14.47982587       9.60390212      18.20804740
Ba      22.27032818      12.12913632      18.15816926
Ba      18.63339017       9.99269472      15.93393965
Ba       9.78715685      16.30338502      18.57840276
Ba      11.26774498      12.36778370      16.04973189
Ba      14.43785081      22.70938237      18.58568168
Ba      11.25021821      20.13537253      16.08938079
Ba      22.26012999      20.32000539      18.22690142
Ba      18.64174928      22.52316204      16.06426919
Ba      23.18010030      16.25407959      15.94550590
Ba      13.30935997      13.95201217      12.26750534
Ba      17.78075662      12.51024901      12.20289871
Ba      13.31580602      18.64037686      12.30390604
Ba      17.77376888      20.09850894      12.27670377
Ba      20.52849194      16.29387990      12.20956258
37
Properties=species:S:1:pos:R:3 config_type=qcd gap_pre_relax_energy=-53.92296907961333 gap_pred_energy=-53.964580239858556 gap_fmax_final=0.0009118761252976155 gap_converged=1 pbc="F F F"
Ba      17.19827892      16.38757012      18.37164464
Ba      16.84082975      16.64645787      22.52418116
Ba      18.39967756      12.63035398      19.90186579
Ba      13.92275829      14.08279395      20.03959651
Ba      14.11011688      18.62810520      19.76003907
Ba      10.95033972      20.92057607      20.94375368
Ba      18.37301158      20.21621941      20.04037488
Ba      21.14259801      16.41062640      19.90238040
Ba      15.98560738      13.05265597      16.18241275
Ba      14.86995582       9.85247533      13.92527409
Ba      13.53397749      16.42696858      16.20549502
Ba      10.01539521      16.47267867      14.20541407
Ba      16.02443395      19.85928627      16.20593558
Ba      14.88980924      23.19045057      14.20624640
Ba      19.99277190      18.57532878      16.18318081
Ba      22.68937150      20.62902337      13.92675050
Ba      19.99853510      14.35606946      16.13198919
Ba      22.70652059      12.39147090      13.81588927
Ba      17.05754075      16.49031876      13.96690129
Ba      16.96885625      16.55523794       9.91051179
Ba      12.27610059      17.20114312      23.10161167
Ba      14.89731895      20.81379863      23.10201183
Ba      14.98246018       9.80456763      18.40812065
Ba      22.78371875      12.33474535      18.31293636
Ba      19.13149350      10.20263550      16.10764681
Ba      10.31760949      16.73286040      18.89642978
Ba      11.77230387      12.56195102      16.27182265
Ba      14.73542384      22.82158586      18.89719352
Ba      11.74519683      20.34453606      16.40699417
Ba      22.76916594      20.53617224      18.40959796
Ba      19.15233094      22.73295961      16.27316727
Ba      23.67807458      16.46866689      16.10853952
Ba      13.77558386      14.17270521      12.49283371
Ba      18.25129547      12.73354217      12.39103993
Ba      13.77698067      18.87084384      12.54291570
Ba      18.24299857      20.32953057      12.49366626
Ba      20.99951053      16.52104076      12.39158774
38
Properties=species:S:1:pos:R:3 config_type=qcd gap_pre_relax_energy=-55.13854451555194 gap_pred_energy=-55.15890851651211 gap_fmax_final=0.0009106584403424118 gap_converged=1 pbc="F F F"
Ba      20.22028731      20.11978148      14.21779993
Ba      14.36727790      15.44311673      19.61743289
Ba      18.05511971      16.97928088      19.61743289
Ba      16.22036872      18.20814977      12.80664473
Ba      15.55978710      18.90656424      16.80551378
Ba      12.28400393      19.77823223      14.11771178
Ba      13.99186376      20.25785224      10.01036425
Ba      18.95437162      16.64349774      15.61864980
Ba      21.71338042      18.47482994      18.60486437
Ba      19.94604152      16.32107808      11.49392155
Ba      14.89051319      19.70608061      20.92918724
Ba      14.12164870      11.02436324      18.19635599
Ba      13.46802599      15.77889987      15.61864980
Ba      12.20211030      12.30261612      14.21779993
Ba      16.21119880      16.21119880      23.44036650
Ba      10.70901718      13.94756767      18.60486438
Ba      20.13839368      12.64416538      14.11771179
Ba      17.53188442      12.71631700      20.92918724
Ba      20.79872053      15.70107752      22.41419904
Ba      12.47635609      16.10131952      11.49392155
Ba      16.21119880      16.21119880       8.98260820
Ba      18.43053385      12.16454536      10.01036425
Ba      16.21002503      10.26514639      13.81990260
Ba       9.43161729      16.10924124      14.78761206
Ba      22.99078031      16.31315637      14.78761206
Ba      21.00793257      13.93909910      18.30592463
Ba      16.20202889      14.21424783      12.80664473
Ba      16.21237258      22.15725121      13.81990260
Ba      13.72421530      22.51743286      17.63421428
Ba      13.21759007      12.60469984      22.38390856
Ba      11.41446504      18.48329850      18.30592462
Ba      16.86261051      13.51583336      16.80551378
Ba      18.69818230       9.90496474      17.63421428
Ba      18.30074891      21.39803437      18.19635599
Ba      19.20480754      19.81769777      22.38390856
Ba      11.62367708      16.72132009      22.41419904
Ba      14.01740858      12.07138372      10.03708244
Ba      18.40498902      20.35101388      10.03708243
39
Properties=species:S:1:pos:R:3 config_type=qcd gap_pre_relax_energy=-57.13974842094885 gap_pred_energy=-57.18697919950918 gap_fmax_final=0.000859610257911861 gap_converged=1 pbc="F F F"
Ba      17.54011457      16.74040773      18.02940820
Ba      17.14708167      16.72820823      22.22041963
Ba      18.61548174      12.98425654      19.76022324
Ba      14.36674692      14.61154438      19.45226766
Ba      11.12512266      12.57131239      20.79126457
Ba      14.36987306      18.86529728      19.46475139
Ba      11.13122230      20.90254491      20.81570787
Ba      18.62106460      20.48438003      19.78251141
Ba      21.46640156      16.73281787      19.54659429
Ba      16.23215348      13.35152180      15.91087393
Ba      15.02990589      10.03564651      13.96326500
Ba      13.75219904      16.74972840      15.83506699
Ba      10.19845583      16.75812620      13.90701672
Ba      16.23729945      20.14361389      15.93094540
Ba      15.04024337      23.47280205      14.00304298
Ba      20.23498385      18.87174640      15.83409222
Ba      22.88526914      20.91543041      13.53989933
Ba      20.23171560      14.61786429      15.82149077
Ba      22.87882493      12.58391710      13.51496343
Ba      17.26510926      16.75350172      13.66049366
Ba      17.12450667      16.76554782       9.61985501
Ba      15.08980438      12.62444659      22.90924098
Ba      12.65140906      16.73015327      22.70336239
Ba      15.09574050      20.83088059      22.93354534
Ba      14.87808527      10.47539729      18.70846516
Ba      23.00678983      12.63285275      18.00816155
Ba      19.34436725      10.48011725      15.94354556
Ba      10.57161895      16.74375784      18.62619520
Ba      11.91577529      12.90182356      16.18441647
Ba      14.88748281      23.00518658      18.74556444
Ba      11.92165242      20.59825091      16.20702568
Ba      23.01297248      20.83953763      18.03274501
Ba      19.35391696      23.01010660      15.98082845
Ba      23.90348048      16.74231390      15.73804808
Ba      13.96086915      14.36540939      12.24314250
Ba      18.40240456      12.90869837      12.16890230
Ba      13.96461175      19.15499377      12.25735853
Ba      18.40835845      20.60537453      12.19175056
Ba      21.18173764      16.75533606      12.05840092
40
Properties=species:S:1:pos:R:3 config_type=qcd gap_pre_relax_energy=-58.12474430735367 gap_pred_energy=-58.42829130738992 gap_fmax_final=0.0009011741203659413 gap_converged=1 pbc="F F F"
Ba      16.67452965      16.26432129      17.33642340
Ba      16.60420398      16.31004750      21.44442329
Ba      17.81110841      12.61920257      19.02584433
Ba      13.46464078      14.00290774      18.99914351
Ba      13.66701055      18.42855168      18.89483254
Ba      10.65329612      20.59769857      20.45407158
Ba      17.80016627      20.02291942      19.00664926
Ba      20.48996999      16.33914066      19.03071347
Ba      15.49419966      12.88517224      15.30438982
Ba      14.41250957       9.57716593      13.28320468
Ba      13.02130895      16.27628630      15.29775071
Ba       9.49683232      16.31531364      13.37769859
Ba      15.50780966      19.72822456      15.30178672
Ba      14.35566234      23.06116240      13.38473819
Ba      19.50801031      18.45812142      15.31176677
Ba      22.30546147      20.53599194      13.29799049
Ba      19.52713397      14.21277067      15.29402758
Ba      22.34809880      12.18351069      13.27158872
Ba      16.59229578      16.32882275      13.07262037
Ba      16.55832326      16.35877091       9.04824731
Ba      15.31959375      12.31918738      22.52555874
Ba      19.96612964      13.88701247      22.53217695
Ba      12.24798145      16.57906201      22.32079319
Ba      14.96688831      20.35516828      22.32537266
Ba      19.98062323      18.79117933      22.53364786
Ba      14.52390707       9.86563335      17.96278004
Ba      22.09334154      12.36126609      17.94241729
Ba      18.66174246      10.05627150      15.42841858
Ba       9.88921573      16.54001006      18.12632763
Ba      11.27531572      12.40321292      15.44518669
Ba      14.26159931      22.61143857      18.13286630
Ba      11.23490985      20.18370246      15.67626100
Ba      22.06140328      20.33144129      17.97613321
Ba      18.62729322      22.61204768      15.45756906
Ba      23.19513407      16.35025425      15.43677601
Ba      13.31951316      13.95753441      11.63992189
Ba      17.84350356      12.51051646      11.62094048
Ba      13.29050701      18.70762104      11.67505480
Ba      17.80631140      20.18626253      11.64764513
Ba      20.61248818      16.35504875      11.62621492
41
Properties=species:S:1:pos:R:3 config_type=qcd gap_pre_relax_energy=-59.83147294461832 gap_pred_energy=-60.14080314868453 gap_fmax_final=0.0009391087133352615 gap_converged=1 pbc="F F F"
Ba      16.93867000      16.45931666      17.23380029
Ba      16.80006343      16.45629638      21.37063639
Ba      17.99408582      12.73007710      18.93411231
Ba      13.88849163      14.31822685      18.80218953
Ba      10.83135907      12.25694106      20.39262772
Ba      13.88693756      18.59541548      18.80491752
Ba      10.82771275      20.65223272      20.39853578
Ba      17.99099840      20.18704961      18.93927930
Ba      20.70284388      16.45960631      18.95557811
Ba      15.69186503      13.03768519      15.21393187
Ba      14.51715922       9.71655202      13.31150293
Ba      13.21127887      16.45919795      15.17886098
Ba       9.64808492      16.45898612      13.32245440
Ba      15.68890970      19.88260510      15.21874303
Ba      14.51156438      23.20548094      13.32086971
Ba      19.70415697      18.60039594      15.20535915
Ba      22.49244553      20.66216042      13.18005757
Ba      19.70553126      14.32344916      15.20252890
Ba      22.49608611      12.26647742      13.17415148
Ba      16.76282902      16.46208544      12.98106025
Ba      16.69149912      16.46494816       8.96409007
Ba      15.13909862      12.45909431      22.27161821
Ba      20.17111330      14.00696038      22.45380697
Ba      12.36838855      16.45397672      22.14016642
Ba      15.13574688      20.45112746      22.27724255
Ba      20.16914458      18.90720101      22.45723949
Ba      14.42479014      10.17204051      18.07491114
Ba      22.25504412      12.46503871      17.86816868
Ba      18.82069649      10.17574948      15.35460834
Ba      10.12272433      16.45582722      18.11897429
Ba      11.39388455      12.60446810      15.62188225
Ba      14.41955893      22.74333585      18.08364429
Ba      11.39068543      20.31174276      15.62722343
Ba      22.25170810      20.45705721      17.87364505
Ba      18.81552534      22.74703202      15.36329563
Ba      23.36871129      16.46326278      15.33281132
Ba      13.44946369      14.07291968      11.59189745
Ba      17.97482074      12.61006929      11.54950836
Ba      13.44745504      18.85064432      11.59518451
Ba      17.97164584      20.31731723      11.55480536
Ba      20.77209486      16.46482245      11.52895242
42
Properties=species:S:1:pos:R:3 config_type=qcd gap_pre_relax_energy=-61.774107522797635 gap_pred_energy=-61.835880867239666 gap_fmax_final=0.0009843739913824963 gap_converged=1 pbc="F F F"
Ba      17.16534313      16.48060753      17.40928635
Ba      17.02526779      16.58038588      21.59425233
Ba      18.24653497      12.82824083      19.15194564
Ba      14.11212087      14.43685773      19.02252374
Ba      11.05114344      12.39999946      20.62028078
Ba      14.12571718      18.68553389      19.01046548
Ba      11.17951313      20.82269443      20.64995206
Ba      18.16063624      20.01607669      19.02484910
Ba      19.14708058      23.55706769      20.62500356
Ba      20.97212023      16.58427849      19.15360199
Ba      15.92859284      13.14705273      15.40442045
Ba      14.75390915       9.84032990      13.50022902
Ba      13.44515890      16.58936165      15.38228468
Ba       9.88425088      16.62799999      13.54261458
Ba      15.90900390      19.98462118      15.38373884
Ba      14.76869502      23.35903380      13.54542600
Ba      19.95180934      18.69111035      15.40695701
Ba      22.73223264      20.83434235      13.50522704
Ba      19.97481636      14.44264016      15.39644915
Ba      22.77471737      12.41162024      13.36900362
Ba      17.01309127      16.59289809      13.17568640
Ba      16.95744706      16.63513335       9.16824892
Ba      15.39433244      12.59648044      22.49040959
Ba      20.41815058      14.11780100      22.66533016
Ba      12.61473761      16.57273143      22.36171098
Ba      15.66433753      20.77544136      22.36348224
Ba      20.30652308      19.36600730      22.49329805
Ba      14.65635501      10.30075588      18.27843020
Ba      22.50770614      12.60340972      18.09081657
Ba      19.07216802      10.30521146      15.54729876
Ba      10.36797984      16.61765277      18.35060837
Ba      11.62862088      12.74510065      15.82945617
Ba      14.92645834      22.89968719      18.35320741
Ba      11.65437295      20.48020272      15.86881492
Ba      22.26194842      20.78185906      18.28314702
Ba      19.00025481      22.90357157      15.83378331
Ba      23.62835377      16.58353819      15.55009457
Ba      13.69304390      14.21708807      11.79139774
Ba      18.22962803      12.75197602      11.74637311
Ba      13.69382302      19.00209148      11.80101606
Ba      18.24290457      20.48678192      11.79420830
Ba      21.04257061      16.62819715      11.74814157
43
Properties=species:S:1:pos:R:3 config_type=qcd gap_pre_relax_energy=-63.45643273135978 gap_pred_energy=-63.50079970868798 gap_fmax_final=0.0009079697172137522 gap_converged=1 pbc="F F F"
Ba      17.11263249      16.74957764      17.33583511
Ba      17.11892002      16.74965147      21.64728103
Ba      18.08942385      13.21166828      18.90818274
Ba      18.94716378       9.52713422      20.28816010
Ba      14.06449429      14.63327907      18.93684899
Ba      11.07476280      12.53372610      20.55487374
Ba      14.06080271      18.86031454      18.93711387
Ba      11.06782789      20.95428550      20.55550976
Ba      18.08282308      20.28938318      18.90843349
Ba      18.93373831      23.97494340      20.28792107
Ba      20.96935880      16.75309647      19.26129745
Ba      15.83047875      13.34945008      15.26028163
Ba      14.66421462      10.01266686      13.37344402
Ba      13.37643829      16.74599978      15.29714765
Ba       9.80856684      16.74238051      13.47184469
Ba      15.82383062      20.14697616      15.26050632
Ba      14.65102844      23.48128161      13.37392027
Ba      19.90222254      18.86589443      15.31791965
Ba      22.68060633      20.96566520      13.36010005
Ba      19.90597790      14.63792128      15.31777129
Ba      22.68843265      12.54241519      13.36014853
Ba      16.95220494      16.74914186      13.08178908
Ba      16.90916579      16.74917413       9.07438834
Ba      15.57280703      12.45431405      22.22108102
Ba      20.22905149      13.34307940      22.36236673
Ba      12.60164026      16.74512302      22.28983388
Ba      15.56498305      21.04196675      22.22101652
Ba      20.22281256      20.16180645      22.36227674
Ba      14.78225745      10.41838681      18.17549338
Ba      22.17685614      12.45938466      18.12917977
Ba      18.90943633      10.42085964      15.61870181
Ba      10.32217061      16.74338355      18.30433746
Ba      11.56665972      12.88217689      15.76609368
Ba      14.77061085      23.07612651      18.17567204
Ba      11.55924320      20.60632920      15.76643260
Ba      22.16842694      21.04905668      18.12903786
Ba      18.89759179      23.08065500      15.61864772
Ba      23.55651271      16.75476924      15.50239456
Ba      13.61741370      14.37058943      11.68696369
Ba      18.18235636      12.88739621      11.66718122
Ba      13.61291722      19.12168867      11.68711328
Ba      18.17474107      20.61298988      11.66738902
Ba      21.00510398      16.75259918      11.68677633
44
Properties=species:S:1:pos:R:3 config_type=qcd gap_pre_relax_energy=-65.10658614328909 gap_pred_energy=-65.15209123727433 gap_fmax_final=0.0009378607421727253 gap_converged=1 pbc="F F F"
Ba      16.84691449      16.84673695      17.17489020
Ba      16.84747238      16.84496555      21.51064788
Ba      17.96633136      13.40900712      18.91665948
Ba      19.08703458       9.96676069      20.56704822
Ba      13.92416195      14.71963660      18.91762501
Ba      10.99755704      12.58967966      20.56898398
Ba      13.92143064      18.96895920      18.91931491
Ba      10.99215458      21.09392247      20.57235893
Ba      17.96206506      20.28445746      18.91954370
Ba      19.07847396      23.72659435      20.57276194
Ba      20.46194648      16.84823415      18.91770680
Ba      24.08150337      16.84979774      20.56906285
Ba      15.73244098      13.41105188      15.23647555
Ba      14.63954440      10.04173774      13.42009616
Ba      13.23408935      16.84537241      15.23809891
Ba       9.69119482      16.84394758      13.42321484
Ba      15.72822988      20.28276256      15.23923915
Ba      14.63134574      23.65217347      13.42564286
Ba      19.76809934      18.97280742      15.23820214
Ba      22.63265125      21.05761827      13.42340782
Ba      19.77064862      14.72587593      15.23645327
Ba      22.63768007      12.64601370      13.41992314
Ba      16.84635964      16.84846628      13.01190635
Ba      16.84585188      16.85008850       9.03059751
Ba      15.49683305      12.67890659      22.27689771
Ba      20.39219205      14.27288593      22.27691742
Ba      12.46823296      16.84212199      22.27886846
Ba      15.49144659      21.00866040      22.28030903
Ba      20.38901874      19.42071276      22.27905436
Ba      14.79748819      10.52503991      18.25854958
Ba      22.22562381      12.94361412      18.25848879
Ba      18.89796648      10.54756400      15.74958594
Ba      10.20181669      16.84224775      18.26147505
Ba      11.48918328      12.94981775      15.75139501
Ba      14.78970265      23.16506879      18.26369859
Ba      11.48443992      20.73837090      15.75449743
Ba      22.22080431      20.75558588      18.26177678
Ba      18.89030184      23.14960057      15.75480888
Ba      23.47201840      16.85137700      15.75146238
Ba      13.53575404      14.44066125      11.66657510
Ba      18.11360525      12.95628510      11.66540806
Ba      13.53286551      19.25338500      11.66852850
Ba      18.10891153      20.74330581      11.66862108
Ba      20.93999301      16.85150098      11.66660040
45
Properties=species:S:1:pos:R:3 config_type=qcd gap_pre_relax_energy=-66.62675160716029 gap_pred_energy=-66.72792352349691 gap_fmax_final=0.0008103387805638844 gap_converged=1 pbc="F F F"
Ba      17.95941795      17.95942039      17.95939252
Ba      17.95993738      17.95748840      22.02669385
Ba      17.96016232      17.95603779      25.99327940
Ba      19.08553335      14.49955735      19.77657085
Ba      20.18440624      11.12529128      21.54910117
Ba      15.01800520      15.81891289      19.77802673
Ba      12.14889732      13.73083092      21.55096078
Ba      15.01533121      20.09501324      19.77923996
Ba      12.14384221      22.17791948      21.55448182
Ba      19.08143085      21.41881468      19.77991142
Ba      20.17609787      24.79318509      21.55485950
Ba      21.59716525      17.96111738      19.77778526
Ba      25.14545726      17.96226083      21.55137548
Ba      16.83741122      14.49995712      16.13891837
Ba      15.74269129      11.12566237      14.36400117
Ba      14.32163112      17.95757631      16.14104506
Ba      10.77336889      17.95653224      14.36745064
Ba      16.83324485      21.41918097      16.14222441
Ba      15.73438868      24.79352230      14.36968682
Ba      20.90076956      20.09975039      16.14079132
Ba      23.76988394      22.18797296      14.36787806
Ba      20.90347524      15.82370142      16.13962973
Ba      23.77496826      13.74087554      14.36429551
Ba      17.95887412      17.96121485      13.89208656
Ba      17.95864495      17.96273929       9.92547053
Ba      16.69367609      14.05229804      23.33159841
Ba      21.28216996      15.54654866      23.33278803
Ba      13.85400641      17.95384901      23.33382676
Ba      16.68954936      21.86146470      23.33507403
Ba      21.27960604      20.37203629      23.33382253
Ba      15.91140027      11.63985842      19.22617224
Ba      23.33617877      14.05750043      19.22496886
Ba      20.01566082      11.64419734      16.68791044
Ba      11.31728960      17.95483300      19.22859151
Ba      12.58705103      14.05287091      16.68921572
Ba      15.90313342      24.27466739      19.23089269
Ba      12.58257684      21.86137090      16.69380560
Ba      23.33179810      21.86600063      19.22959031
Ba      20.00745098      24.27905173      16.69261540
Ba      24.60154021      17.96400932      16.69021559
Ba      14.63920648      15.54679277      12.58497585
Ba      19.22923959      14.05739100      12.58378502
Ba      14.63661127      20.37229567      12.58596276
Ba      19.22514212      21.86655502      12.58715816
Ba      22.06479250      17.96498969      12.58498957
46
Properties=species:S:1:pos:R:3 config_type=qcd gap_pre_relax_energy=-67.64947839898097 gap_pred_energy=-67.99326458416816 gap_fmax_final=0.0009336362303097875 gap_converged=1 pbc="F F F"
Ba      14.72543184      18.81188104      15.98170159
Ba      17.50717360      15.83319061      21.58048273
Ba      19.23785714      14.01332546      18.11930509
Ba      16.42738578      11.80469277      20.52643850
Ba      16.18890047      25.69809893      18.11925188
Ba      11.46656888      19.71243474      22.33020307
Ba      13.27419559      15.15504142      22.01753342
Ba      24.67834886      16.17274526      13.90892968
Ba      20.40125470      17.25441925      24.44316409
Ba      15.71144772      18.51073678      11.79469774
Ba      15.09818316      15.12299967      18.11933825
Ba      20.57253312      27.29059457      18.11926737
Ba      15.71140802      18.51074501      24.44389672
Ba      16.96494924      13.81037122      24.94806536
Ba      24.75911696      18.67077769      18.11932625
Ba      19.68491187      23.96514179      15.54979595
Ba      12.20475376      12.41148632      18.11930618
Ba      11.46655336      19.71245060      13.90840618
Ba      16.42737540      11.80468563      15.71216721
Ba      16.93399558      21.78834830      18.11927374
Ba      12.64445836      21.91615871      18.11931266
Ba      18.60772469      19.94159155      14.62655039
Ba      20.38791874      10.21932465      18.11931057
Ba      18.60772271      19.94155557      21.61209200
Ba      22.82459411      20.67828681      22.03103648
Ba      21.40579632      17.02214492      15.98183007
Ba      20.98007126      20.70463907      18.11932864
Ba      20.83393969      13.13029440      14.22089769
Ba      11.33747372      17.24651824      18.11931082
Ba      24.67834587      16.17275407      22.32972798
Ba      16.96498161      13.81037956      11.29059965
Ba      20.40125022      17.25442598      11.79546541
Ba      18.05939725      17.89347157      18.11931422
Ba      23.57616793      23.72089040      18.11929367
Ba      13.27424040      15.15505967      14.22106898
Ba      21.40579532      17.02210110      20.25673839
Ba      14.72540007      18.81197152      20.25690562
Ba      15.32365990      22.68686131      14.20664539
Ba      20.83391956      13.13029176      22.01773904
Ba      23.55685058      13.97286065      18.11934530
Ba      19.13788555      21.91949500      11.22433584
Ba      15.32362524      22.68686222      22.03196142
Ba      17.50717843      15.83319844      14.65813476
Ba      22.82459755      20.67828675      14.20756300
Ba      19.13786511      21.91943109      25.01422614
Ba      19.68489620      23.96507937      20.68881633
47
Properties=species:S:1:pos:R:3 config_type=qcd gap_pre_relax_energy=-69.13310335080223 gap_pred_energy=-69.22309440755419 gap_fmax_final=0.0009268367876626994 gap_converged=1 pbc="F F F"
Ba      13.22744817      19.02329284      12.55209169
Ba      15.86318875      15.27930225      11.30094061
Ba      14.57993608      16.08126516      15.39628559
Ba      24.46358372      17.07982608      17.84657252
Ba      19.68298986      11.15243417      16.67565604
Ba      15.89813251      24.11530974      17.78501882
Ba      23.11719017      21.58447206      16.58729830
Ba      16.26027753      22.76298680      13.27877171
Ba      22.79683592      14.07133675      14.59671287
Ba      17.39601432      18.64123700      13.51186052
Ba      23.62914355      12.43815462      19.09269294
Ba      10.80709569      15.91573928      21.64671518
Ba      15.74413377       9.89300655      18.84686237
Ba      19.96994481      25.03925144      15.48423019
Ba      18.54614857      14.75571677      14.63413342
Ba      20.89716316      19.09232673      19.39405691
Ba      18.81558821      21.34016858      16.47318699
Ba      16.71982787      19.82832676      24.72444925
Ba      11.89604217      22.69065084      15.11743895
Ba      17.96182805      16.57565513      21.64068926
Ba      20.47712719      16.62556151      11.25267228
Ba      16.62609774      13.80259583      18.30474297
Ba      17.08059291      19.67235153       9.66547058
Ba      17.63697293      17.61533070      17.58670670
Ba      12.90396999      19.81221354      23.01293617
Ba      24.28380553      20.60842959      21.00312468
Ba      14.75727524      20.17206670      16.47105539
Ba      14.61513258      16.23534351      24.34077108
Ba      12.39145137      21.78258522      19.43423685
Ba      14.56761484      13.00831893      21.78366406
Ba      19.11222060      15.85997419      25.38053626
Ba      20.67954667      21.25543080      12.52591703
Ba      16.72679197      20.53005045      20.46929646
Ba      12.35313704      13.45678112      17.86431211
Ba      20.62539665      19.91604009      23.42113072
Ba      15.46076436      23.69813537      22.51571902
Ba      15.35607704      11.90007603      14.57275369
Ba      11.05649242      18.03693964      16.78875530
Ba      24.52739300      18.39564545      13.20405179
Ba      14.10856776      17.17575075      19.81949321
Ba      20.13589783      23.25809039      20.04453802
Ba      11.49709163      14.60868462      13.31728859
Ba      21.14807366      17.99255142      15.29519259
Ba      19.37128321      11.96671716      11.89606828
Ba      19.28485288      12.40190818      21.35808330
Ba      22.47058956      16.03936337      21.99682455
Ba      20.68029700      15.01963085      18.29602065
48
Properties=species:S:1:pos:R:3 config_type=qcd gap_pre_relax_energy=-70.87398637091003 gap_pred_energy=-70.95239159379919 gap_fmax_final=0.000898200011580335 gap_converged=1 pbc="F F F"
Ba      16.07220920      22.81040046      13.82650597
Ba      16.25245205      18.62156882      12.80919575
Ba      20.28358898      23.57922338      16.13934642
Ba      12.60784318      20.24808208      20.22427533
Ba      10.34911591      12.09452524      14.37356498
Ba      18.82804889      16.93024179       9.78932775
Ba      14.16149059      10.08590219      19.90239855
Ba      19.95092979      16.67384588      18.17043971
Ba      16.67561478      20.81040425      22.92405211
Ba      14.19133069      19.73665536      16.28798473
Ba      13.36528321      12.21454524      11.62337043
Ba      20.31062660      20.57832164      19.96980262
Ba      13.23554593       8.78597401      15.62522719
Ba      16.66870173      14.45051409      12.65839092
Ba       9.53049852      15.99707689      12.04311896
Ba      18.40525075      20.04600504      16.15172129
Ba      16.47229703      18.53518151      19.59453223
Ba      16.44835681      14.03543953      19.62303982
Ba      12.75378037      15.98131925      14.26644491
Ba      17.79104823       9.88308669      18.04184130
Ba      23.06587650      14.69821769      15.93283289
Ba      12.67163847      13.26323690      22.08330241
Ba      20.78759591      13.15069980      12.00404401
Ba      14.53903863      16.82248623      22.80597296
Ba      10.11253071      19.15478547      16.38841560
Ba      12.81015909      16.03985499      18.55465000
Ba      22.65686170      19.39224839      16.05800551
Ba      18.94950276      13.24914995      15.96542238
Ba      21.62768678      10.24203354      15.66893682
Ba      17.04326403      12.03847802      22.93877423
Ba      23.25165070      17.24596855      11.79100056
Ba      23.41239643      16.91881339      20.17584060
Ba       9.63883181      16.46071909      20.89385226
Ba      17.08016818      12.63768988       9.07397684
Ba      16.02024079      20.81185956       9.46058267
Ba      19.90773076      16.84018516      13.95059055
Ba      16.27096026      22.78883301      18.62108206
Ba      17.27776782      10.28305514      13.38263401
Ba      14.01949395      16.44299665       9.93733405
Ba      10.79555459      12.13897157      18.52559281
Ba      12.12701909      23.20673870      16.33074585
Ba       8.85990470      15.27160156      16.55540554
Ba      14.45985150      12.52003158      16.13802320
Ba      20.01630200      20.78268499      12.23074289
Ba      16.33757869      16.31755363      16.22322085
Ba      19.10348956      16.52946273      22.32288573
Ba      20.82334291      12.85881467      19.80302106
Ba      12.29892737      20.11389475      12.45790959
49
Properties=species:S:1:pos:R:3 config_type=qcd gap_pre_relax_energy=-72.3657108529089 gap_pred_energy=-72.48504024134033 gap_fmax_final=0.0009435412592212924 gap_converged=1 pbc="F F F"
Ba      17.69978963      16.83095781      18.00712248
Ba      18.14568624      17.28864177      22.26676898
Ba      18.37338089      13.25214279      20.31641066
Ba      14.38747921      14.61389107      19.60781742
Ba      14.60242420      19.04411109      19.89400226
Ba      18.63120103      20.66782786      19.69376588
Ba      21.64360182      16.25111234      19.64769045
Ba      16.54606829      13.22785077      16.08583302
Ba      13.85488793      16.84047892      15.91591542
Ba      16.35304928      20.47603699      15.99147136
Ba      20.75427985      19.08605904      16.11658641
Ba      20.71138163      14.74893669      15.75961365
Ba      17.65039361      16.97284222      13.63365397
Ba      14.85860485      14.65867954      23.62868109
Ba      14.52556452      19.16814526      24.10034569
Ba      18.59729847      21.04983543      24.16982346
Ba      15.26137267      10.66568745      21.57602747
Ba      11.34227409      12.43014406      21.70643110
Ba      11.39933589      16.88196791      21.74255985
Ba      11.38746647      21.36680455      21.73539796
Ba      15.63136136      22.90557127      21.68464202
Ba      20.00879379      24.23283292      21.64711312
Ba      22.18409573      20.19542666      21.57669571
Ba      21.70630349      11.51397710      17.98226794
Ba      17.59648346       9.57417421      17.89888932
Ba      13.22912671      10.95711779      17.80889367
Ba      10.56100819      14.63114061      17.81894250
Ba      10.79052240      19.07310457      17.87391405
Ba      13.33230630      22.76674619      17.86714366
Ba      17.57524180      24.29772455      17.82056578
Ba      21.92746611      22.80276419      17.89434412
Ba      24.58103330      19.11907337      17.86906182
Ba      24.88348421      14.66352244      17.42140961
Ba      19.55293273      10.95858763      14.04490041
Ba      15.28739184       9.57590308      14.03603422
Ba      12.61842180      13.26048880      14.04427510
Ba       9.92415525      16.89102068      13.98533810
Ba      12.58220227      20.53182754      14.00484836
Ba      15.20004975      24.20552336      14.00722403
Ba      19.48419471      22.70058764      14.13326276
Ba      23.83251946      21.42451283      14.07491992
Ba      23.84913576      16.91374505      13.91495082
Ba      23.78445891      12.33810276      13.97530356
Ba      16.48394804      13.31559145      11.77376292
Ba      13.78797344      16.92665218      11.65766949
Ba      16.39718194      20.54749720      11.65975238
Ba      20.70337155      19.14577268      11.68722802
Ba      20.72557687      14.63401769      11.53699104
Ba      17.60437901      16.92550075       9.25439776
50
Properties=species:S:1:pos:R:3 config_type=qcd gap_pre_relax_energy=-74.26030818611557 gap_pred_energy=-74.3058271166569 gap_fmax_final=0.0009350235750118868 gap_converged=1 pbc="F F F"
Ba      16.92135587      17.69089252      23.68528340
Ba      13.97956011      14.07207230      24.03161235
Ba      13.37076831      24.11497201      15.34756642
Ba      18.12259126      11.13481279      10.17134802
Ba      14.95465173      20.42246434      15.97904274
Ba      20.56276709      16.11384216      15.76124166
Ba      19.01912253      10.10439542      14.49281819
Ba      17.85923039      18.41256256      13.16164302
Ba      24.51820772      15.96886600      15.31789553
Ba      19.47387156      20.99620219      21.48400542
Ba      15.06517021      22.03358223      22.99256195
Ba      14.74739383      10.50862337      13.13020561
Ba      12.70218581      17.50549828      17.92114505
Ba      17.34126313      13.92080566      13.44984834
Ba      12.22486263      21.68109750      19.17223235
Ba      19.71130919       9.74671539      19.46247637
Ba      22.71250562      18.85306008      18.77880173
Ba      11.17518087      14.12544451      20.04535298
Ba      21.91408257      20.45762234      14.47452940
Ba      15.78453853      19.46960642      19.97686841
Ba      19.09846847      16.90067553      19.96183961
Ba       9.81429008      15.49917052      15.80255862
Ba       8.92974433      18.36275932      19.17712658
Ba      18.90766008      20.04881242      17.24002699
Ba      19.05505375      20.61432159      10.06632492
Ba      18.52401030      13.43051938      22.39059208
Ba      10.87239701      17.26134671      10.96425357
Ba      22.29832676      12.01759050      16.34234145
Ba      12.44097091      18.11466097      22.25587450
Ba      14.54168924      13.91157967      10.18876273
Ba      18.68696721      15.60982412       9.73413405
Ba      13.80873992      16.75293133      13.60629461
Ba      15.23028780      18.02822127       9.54713221
Ba      15.75544414       9.33765437      17.06054927
Ba      22.28528657      14.31911747      19.78147039
Ba      15.26302587      15.32926237      20.38271725
Ba      14.80686054      11.25546766      20.60285137
Ba      10.82100642      19.97788525      14.98543760
Ba      16.57076475      23.46279273      18.69456987
Ba      11.27842297      10.54431595      16.77081949
Ba      17.95103123      22.90005383      14.20289457
Ba      14.20633480      21.18716962      12.01593244
Ba      21.54360960      17.17012399      23.20102853
Ba      18.18404239      13.03341512      17.81235115
Ba      21.97500408      17.38940784      11.69831804
Ba      21.16654718      23.37885033      17.83339042
Ba      11.38619291      13.05095180      12.86037339
Ba      16.56607144      16.68473327      16.70115131
Ba      14.00959016      13.42866676      16.48032955
Ba      21.45390718      13.25694735      12.39444157
51
Properties=species:S:1:pos:R:3 config_type=qcd gap_pre_relax_energy=-76.22525249451358 gap_pred_energy=-76.26905319191086 gap_fmax_final=0.0008725976349667948 gap_converged=1 pbc="F F F"
Ba      16.44492167      22.16336554      17.51250110
Ba      23.36516090      12.20374929      21.21886120
Ba      15.22107971      26.01263864      16.89017928
Ba      19.83947652      16.42988453      11.38278897
Ba      14.20035936      12.02313086      15.34822301
Ba      13.94796185      23.47882169      20.90038848
Ba      16.67278181      23.28136885      24.59158660
Ba      18.41809183      18.88916476      24.98269561
Ba      20.73589654      18.61513102      21.43586661
Ba      16.70879490      16.23569291      21.32651516
Ba      20.48705883      15.37220137      15.41542831
Ba      11.74239200      20.58120327      12.72126889
Ba      23.13897993      19.07053240      24.71029713
Ba      23.42791514      17.88637354      13.55505112
Ba      14.57094279      19.18954335      15.28833716
Ba      20.38967689      21.50312974      11.35364580
Ba      13.87471929      15.65988194      17.51828185
Ba      14.09327067      19.43853445      23.71220037
Ba      17.45613693      13.53164478      17.63298356
Ba      24.53802465      16.62219453      21.09005365
Ba      20.35304927      21.69864892      18.65456273
Ba      13.96185111      19.37823927      19.42201680
Ba      24.44561001      14.57694019      17.05690549
Ba      22.39820590      18.30403764      17.62110885
Ba      23.28773281      21.94069790      15.59538404
Ba      16.52854308      15.70108687      14.11943057
Ba      18.68557439      11.87100654      21.42604959
Ba      19.13318430      19.68175367      14.61280996
Ba      15.62816108      14.56175180      24.72429841
Ba      10.40564509      20.55417088      20.96046108
Ba      18.53599842      11.89990852      13.73058765
Ba      22.56862199      25.11175179      19.03394455
Ba      20.89709463      22.65290150      22.93114515
Ba      15.78119413      22.89365488      13.42426581
Ba      12.24064573      22.53513397      16.83773125
Ba      19.47774779      24.42219205      15.53211643
Ba      15.95959611      18.98491021      11.31275332
Ba      12.38986581      16.14328284      13.27317754
Ba      26.42883948      18.71870260      17.09033192
Ba      18.14869913      25.02965667      20.26363102
Ba      10.59188454      18.39279746      16.89771275
Ba      21.24552789      11.40873483      17.23730033
Ba      17.89539717      17.93715526      17.94951630
Ba      20.84424309      14.96650485      19.57159913
Ba      12.07365375      16.19616006      21.44847183
Ba      17.11150537       9.48099696      17.68962406
Ba      24.25379089      21.06304438      20.37241089
Ba      17.30264706      20.84620981      21.37054006
Ba      20.69753375      15.12589141      23.83495682
Ba      14.41127020      12.34876307      20.29862976
Ba      22.87965780      13.22173979      12.95598607
52
Properties=species:S:1:pos:R:3 config_type=qcd gap_pre_relax_energy=-77.99915476128365 gap_pred_energy=-78.04230790702809 gap_fmax_final=0.0008702304111190411 gap_converged=1 pbc="F F F"
Ba      16.67715175      22.45934658      17.68931681
Ba      23.45462823      12.35704300      21.41111969
Ba      15.44021637      26.25661975      16.83034302
Ba      19.46557206      16.20926699      11.61483267
Ba      14.11587421      12.46165784      15.80746814
Ba      14.31927269      24.05293815      20.98179619
Ba      14.43184593      19.77275863      24.07877427
Ba      18.90205882      19.15844834      25.19271347
Ba      21.00949791      18.93717972      21.53884599
Ba      17.00668126      16.71287931      21.75610791
Ba      20.48138801      15.43012184      15.66927014
Ba      11.66092569      20.67292709      13.17262138
Ba      23.56007099      19.38818799      24.64938913
Ba      23.29916437      17.75378412      13.51036580
Ba      14.63673045      19.47533240      15.68911039
Ba      20.24011993      21.31029270      11.31636895
Ba      14.14204162      16.11418954      18.10473580
Ba      12.22585604      16.64821792      21.82526868
Ba      17.51578581      13.78621658      18.10295591
Ba      24.75707940      16.75169031      21.07873646
Ba      20.62185106      21.91732097      18.67235226
Ba      14.26876511      19.86327982      19.85905042
Ba      24.43073447      14.55402637      17.13732871
Ba      22.52159045      18.39243673      17.65400726
Ba      23.39317098      21.87265288      15.40493889
Ba      16.53442080      15.97232238      14.68594984
Ba      18.72967111      12.18486229      21.84023601
Ba      19.16886259      19.77289691      14.76770958
Ba      15.92967909      15.02659809      25.14921374
Ba      15.23395943      14.09210055      11.30934380
Ba      10.78042900      21.14366997      21.46452520
Ba      18.27921211      12.07790224      14.09914480
Ba      23.03434551      25.21341617      18.72309872
Ba      21.51320952      23.06463148      22.77473902
Ba      15.81662069      22.91323363      13.51669639
Ba      12.41063289      22.83844616      17.14013671
Ba      19.65636069      24.47188507      15.39962565
Ba      15.72447050      18.79402301      11.62280567
Ba      12.27709032      16.22289463      14.10855308
Ba      26.51621340      18.63330636      16.87501336
Ba      18.66661456      25.48104638      19.92665130
Ba      10.73993093      18.67661341      17.58545193
Ba      21.12868921      11.49850541      17.55492151
Ba      18.08718141      18.25761496      18.27237823
Ba      20.97475021      15.17567457      19.80740549
Ba      10.57815430      14.12531741      18.20235555
Ba      16.93578319       9.74618510      18.20497505
Ba      24.59889205      21.16448696      20.17783736
Ba      17.66652238      21.44940614      21.71785342
Ba      21.02331678      15.43990192      24.01758443
Ba      14.35386996      12.78621640      20.75006258
Ba      22.66646747      13.07145053      13.16133698
53
Properties=species:S:1:pos:R:3 config_type=qcd gap_pre_relax_energy=-79.76569205355067 gap_pred_energy=-79.78339746146948 gap_fmax_final=0.0007370495912900106 gap_converged=1 pbc="F F F"
Ba      16.61142742      16.61147956      16.61183544
Ba      16.61145749      16.61301951      20.57359633
Ba      16.61139735      16.61025985      12.64943576
Ba      20.72258538      16.61175755      18.40961533
Ba      12.50029680      16.61177442      18.40967747
Ba      18.66716723      20.17276983      18.40857821
Ba      14.55572951      20.17277825      18.40860928
Ba      18.66683330      13.05137695      18.40933513
Ba      14.55603423      13.05138541      18.40936619
Ba      16.61142219      20.72165039      14.81289283
Ba      16.61140533      12.49966117      14.81344605
Ba      20.17208939      18.66626214      14.81364869
Ba      13.05074655      18.66627677      14.81370250
Ba      20.17208597      14.55518566      14.81390002
Ba      13.05073312      14.55520026      14.81395383
Ba      21.16165405      16.60989613      11.22673843
Ba      12.06111899      16.60991479      11.22680724
Ba      18.88619316      20.54941503      11.22561599
Ba      14.33659613      20.54942443      11.22565039
Ba      18.88636903      12.67010361      11.22680430
Ba      14.33638799      12.67011288      11.22683871
Ba      16.61136755      16.60919683       8.72527353
Ba      16.61147757      21.16365868      21.99544724
Ba      16.61145892      12.06337173      21.99679654
Ba      20.55135354      18.88810986      21.99628629
Ba      12.67159240      18.88812594      21.99634588
Ba      20.55093483      14.33828449      21.99693045
Ba      12.67199246      14.33830071      21.99699003
Ba      16.61148729      16.61408773      24.49778693
Ba      24.34285292      16.61186948      20.27354776
Ba       8.88005756      16.61190119      20.27366479
Ba      20.47736166      23.30923116      20.27075369
Ba      12.74557608      23.30924691      20.27081222
Ba      20.47633481       9.91636835      20.27338777
Ba      12.74654801       9.91638431      20.27344626
Ba      16.61141555      24.34142676      12.94786275
Ba      16.61138387       8.87865723      12.95063169
Ba      23.30764644      20.47593612      12.94984179
Ba       9.91516868      20.47596370      12.94994316
Ba      23.30798720      12.74467388      12.95129567
Ba       9.91479623      12.74470127      12.95139703
Ba      23.91783706      16.61085923      15.36911839
Ba       9.30499892      16.61088920      15.36922894
Ba      22.93920405      20.26501882      17.85448190
Ba      22.93882387      12.95823860      17.85565985
Ba      10.28403487      12.95826458      17.85575557
Ba      10.28368464      20.26504475      17.85457764
Ba      20.26471026      22.93833468      15.36670779
Ba      20.26444687      10.28381393      15.36884062
Ba      12.95815165      22.93834969      15.36676308
Ba      12.95836318      10.28382890      15.36889589
Ba      16.61145180      23.91866445      17.85243916
Ba      16.61142185       9.30514554      17.85469477
54
Properties=species:S:1:pos:R:3 config_type=qcd gap_pre_relax_energy=-81.3300912824068 gap_pred_energy=-81.34170797489311 gap_fmax_final=0.0008123811001915402 gap_converged=1 pbc="F F F"
Ba      17.46403021      17.46347486      17.60006837
Ba      17.46123457      17.46348425      21.87093684
Ba      18.66138030      13.84965903      19.55443796
Ba      14.37716648      15.24101879      19.54947505
Ba      14.37716614      19.68593876      19.54946556
Ba      18.66138025      21.07729889      19.55442261
Ba      21.27804643      17.46347846      19.53213464
Ba      16.25186346      13.82199452      15.75310256
Ba      13.67903081      17.46347070      15.65670211
Ba      16.25186324      21.10494739      15.75308730
Ba      20.52165087      19.74232236      15.71822323
Ba      20.52165062      15.18461949      15.71823227
Ba      17.50324838      17.46346643      13.35167456
Ba      18.66066491      13.78186779      23.82984102
Ba      14.32623355      15.19136460      23.82672404
Ba      14.32623335      19.73561104      23.82671463
Ba      18.66066486      21.14510816      23.82982586
Ba      21.33247107      17.46348782      23.81394228
Ba      22.47447006      13.82216511      21.45698026
Ba      19.83896215      10.15141883      21.50288353
Ba      15.55928946      11.60043697      21.43194379
Ba      11.24241950      12.94531476      21.49156463
Ba      11.26680432      17.46348284      21.46783953
Ba      11.24241929      21.98165100      21.49154569
Ba      15.55928938      23.32652826      21.43191922
Ba      19.83896194      24.77554722      21.50285290
Ba      22.47446949      21.10480052      21.45696464
Ba      25.15515107      17.46348303      21.49001719
Ba      21.76520215      11.54498208      17.62432709
Ba      17.47728784      10.17307329      17.61487204
Ba      13.16452930      11.54098859      17.61989731
Ba      10.56922748      15.21234424      17.60838148
Ba      10.56922718      19.71460539      17.60837200
Ba      13.16452903      23.38596105      17.61987251
Ba      17.47728757      24.75387651      17.61484154
Ba      21.76520206      23.38196823      17.62430221
Ba      24.38758956      19.72870571      17.62667005
Ba      24.38758964      15.19824423      17.62667954
Ba      19.38135106      11.55030219      13.77964147
Ba      15.08207354      10.12740081      13.77280055
Ba      12.42626171      13.80012599      13.76943641
Ba       9.76045154      17.46346668      13.76174568
Ba      12.42626155      21.12680753      13.76942105
Ba      15.08207326      24.79953286      13.77276988
Ba      19.38135068      23.37663109      13.77961677
Ba      23.69451709      21.99618447      13.77077855
Ba      23.61474083      17.46346700      13.80202043
Ba      23.69451721      12.93074937      13.77079748
Ba      16.27840464      13.83528449      11.44913557
Ba      13.61871231      17.46346184      11.38972310
Ba      16.27840419      21.09163971      11.44911990
Ba      20.57381942      19.72727334      11.39310285
Ba      20.57381950      15.19965052      11.39311229
Ba      17.46497951      17.46345693       9.00266597
55
Properties=species:S:1:pos:R:3 config_type=qcd gap_pre_relax_energy=-83.22142824915582 gap_pred_energy=-83.25115866839772 gap_fmax_final=0.0008633448117527225 gap_converged=1 pbc="F F F"
Ba      11.16289670      14.15906155      21.76650254
Ba      13.85844211      10.21140790      15.42815340
Ba      11.60755954      13.90476346      17.04915945
Ba      14.20281309      11.47063090      19.88212764
Ba      10.68648109      17.88215521      19.26596789
Ba      17.87516993      10.24026933      22.41346032
Ba      14.11025201      13.89542089      12.64734537
Ba      17.87780059      10.00918068      17.74211763
Ba      15.58351137      14.08592125      23.58876602
Ba      14.36571082      15.83440578      19.71452838
Ba      13.32177187      17.87787095      23.31307082
Ba      15.78746923      13.72315694      16.49620929
Ba      17.88060615      11.44982371      13.46045800
Ba      11.16609433      21.60101388      21.77230886
Ba      13.92524935      17.88375760      15.41927354
Ba      17.87729988      13.68306545      20.09261276
Ba      11.61072425      21.86223012      17.05529818
Ba      14.36753582      19.92618041      19.71765834
Ba      17.88326489      14.09555973       9.82205278
Ba      21.89995275      10.20849340      15.43298036
Ba      15.56355136      17.88652052      10.73207409
Ba      21.55122418      11.46842544      19.88647442
Ba      20.16709235      14.08418772      23.59124772
Ba      17.87551339      17.87424716      25.80027444
Ba      17.88192322      15.82653069      13.60789620
Ba      19.97177634      13.72149814      16.49843596
Ba      17.87770420      17.87757062      21.79606787
Ba      14.11334245      21.87615374      12.65362949
Ba      15.58643924      21.66779271      23.59465260
Ba      17.88014267      17.87887525      17.53987567
Ba      14.20785215      24.28980009      19.89196752
Ba      15.79081908      22.04122045      16.50282069
Ba      21.65339018      13.89256076      12.65137309
Ba      21.39063163      15.83207375      19.71805466
Ba      17.88350775      19.94024874      13.61134710
Ba      13.86464335      25.55630609      15.43993394
Ba      17.88058741      22.07460991      20.09925001
Ba      20.20481187      17.88480289      10.73432924
Ba      24.15111170      13.90028684      17.05595301
Ba      22.43076312      17.87445094      23.31822375
Ba      24.59019056      14.15567835      21.77398657
Ba      21.83802677      17.88070691      15.42337314
Ba      17.88614891      21.67726185       9.82815438
Ba      20.16998676      21.66609765      23.59726650
Ba      21.39201096      19.92308480      19.72127162
Ba      17.88096949      25.51377979      22.42552096
Ba      19.97489144      22.03955625      16.50504932
Ba      21.65641084      21.87308386      12.65764002
Ba      17.88574577      24.31727497      13.47049419
Ba      21.55609558      24.28632849      19.89642160
Ba      25.07189459      17.87656890      19.27252971
Ba      24.59292644      21.59395168      21.77978063
Ba      17.88400551      25.75143925      17.75426497
Ba      21.90593336      25.55274878      15.44491821
Ba      24.15419854      21.85677583      17.06226413
