3
Properties=species:S:1:pos:R:3 config_type=qcd gap_pre_relax_energy=-8.866598503856041 gap_pred_energy=-8.93790138174854 gap_fmax_final=0.00034053468634038446 gap_converged=1 pbc="F F F"
Bi       6.39407460       7.22635609       8.19957199
Bi       9.19892975       6.90855248       7.53458453
Bi       8.10076733       9.55886312       7.95961517
4
Properties=species:S:1:pos:R:3 config_type=qcd gap_pre_relax_energy=-14.116755756579895 gap_pred_energy=-14.11708628209809 gap_fmax_final=0.0008454662391392029 gap_converged=1 pbc="F F F"
Bi       6.52122812       6.96124170       6.86940334
Bi       8.25987893       9.41936424       6.99334007
Bi       9.33449450       6.76507123       7.93163379
Bi       7.21386494       8.18378932       9.53508927
5
Properties=species:S:1:pos:R:3 config_type=qcd gap_pre_relax_energy=-17.026605132944862 gap_pred_energy=-17.04179111022246 gap_fmax_final=0.0006068368957555388 gap_converged=1 pbc="F F F"
Bi       8.74461293       8.56262949       7.21717138
Bi       7.77319188       6.71909723       5.09234506
Bi       6.70594087       4.84855255       7.28169394
Bi       6.47966871       7.49386416       8.82511181
Bi       4.93073611       7.01000706       6.21782831
6
Properties=species:S:1:pos:R:3 config_type=qcd gap_pre_relax_energy=-21.271848813497957 gap_pred_energy=-21.275379995505563 gap_fmax_final=0.0006811113586871252 gap_converged=1 pbc="F F F"
Bi      17.00040216      13.80460363      14.45911986
Bi      14.28131576      13.92099784      13.11183296
Bi      16.46992644      16.67945444      15.45782877
Bi      13.77583786      16.81459756      14.06640826
Bi      13.96223193      15.83098728      16.93311120
Bi      14.51028586      12.94935925      15.97169895
6
Properties=species:S:1:pos:R:3 config_type=qcd gap_pre_relax_energy=-20.37839889113457 gap_pred_energy=-20.39139729378684 gap_fmax_final=0.0007796834123462414 gap_converged=1 pbc="F F F"
Bi       7.05172010       9.80367571       7.19623745
Bi       9.97487200       9.00077565       6.87691439
Bi       7.09836764       9.19547865      10.18295206
Bi       8.45635952       6.54584919      10.50322542
Bi       9.14082640      11.08553507       8.93865287
Bi      10.32841114       6.41924255       8.35257463
7
Properties=species:S:1:pos:R:3 config_type=qcd gap_pre_relax_energy=-24.56438503154604 gap_pred_energy=-24.634363958938607 gap_fmax_final=0.0007979414135931333 gap_converged=1 pbc="F F F"
Bi       9.14475691      10.43967530      12.41920459
Bi      10.33546020      10.30279899       7.15124960
Bi       8.66980650      11.59543109       9.44076634
Bi       9.80801202       7.71716614      11.28497006
Bi      11.77500029      11.73140730       9.39748020
Bi       8.39495933       8.58567103       8.71515862
Bi      12.00972509       9.76557048      11.72889092
7
Properties=species:S:1:pos:R:3 config_type=qcd gap_pre_relax_energy=-24.223692889377965 gap_pred_energy=-24.314199821353462 gap_fmax_final=0.0009187859922918721 gap_converged=1 pbc="F F F"
Bi      10.08810562       7.76166244       9.35725627
Bi      12.58968936       9.36733578      10.01217475
Bi       9.00387949      10.41186774      13.09699255
Bi       7.75962563       9.17635642      10.73142399
Bi      11.24207151       9.73637316       7.34893137
Bi       8.59431840      12.09246690      10.71403369
Bi      11.31381662      12.04544419       9.33069401
8
Properties=species:S:1:pos:R:3 config_type=qcd gap_pre_relax_energy=-28.2657172651435 gap_pred_energy=-28.444061066191686 gap_fmax_final=0.0005730748257337693 gap_converged=1 pbc="F F F"
Bi      13.41841520      11.86832609       9.73459479
Bi      10.46891979      12.41742950       9.46070364
Bi      11.43340245       9.62281315      10.03999108
Bi      11.40776452      12.47319134      16.00011522
Bi      11.91409342      10.84911449       7.32188030
Bi       9.97433385      12.72429395      13.35336192
Bi      12.97046136      13.01526943      13.47283207
Bi      11.70071536      10.31766802      13.90462692
9
Properties=species:S:1:pos:R:3 config_type=qcd gap_pre_relax_energy=-31.92337527707238 gap_pred_energy=-31.966709102902854 gap_fmax_final=0.0006260059594752964 gap_converged=1 pbc="F F F"
Bi       6.74201744       8.01411054      11.09696526
Bi       8.42798303      11.58063330       9.75794308
Bi      10.89798162      11.91762525       7.99911028
Bi      10.43906431       7.23841873       9.34314103
Bi      12.17098065       9.16818356       7.73561989
Bi      12.47520623      10.74652771      10.28892573
Bi       7.55478705       6.96850676       8.38616678
Bi       9.72513311       9.36259903      11.45627561
Bi       6.28097509       9.71752368       8.64998091
9
Properties=species:S:1:pos:R:3 config_type=qcd gap_pre_relax_energy=-31.97178668592585 gap_pred_energy=-32.0222550355159 gap_fmax_final=0.0008496688727610002 gap_converged=1 pbc="F F F"
Bi      16.32757069      12.84512239      13.27879546
Bi      15.65487279      15.60560493      12.24295292
Bi      14.21502626      12.05817438      15.31454505
Bi      12.23195343      14.33035387      15.53855736
Bi      17.81252843      15.25358224      14.34646323
Bi      14.38919215      13.98020373      17.64280827
Bi      13.24999253      16.63407831      13.81519425
Bi      16.45762248      16.11212199      16.94263211
Bi      14.66124125      18.18075817      15.87805135
10
Properties=species:S:1:pos:R:3 config_type=qcd gap_pre_relax_energy=-35.84618502899148 gap_pred_energy=-35.901642437553484 gap_fmax_final=0.0008962010746333668 gap_converged=1 pbc="F F F"
Bi      12.10985111       9.70593015       8.53796394
Bi       9.60960281      10.63109711       7.07593168
Bi      11.92976162      12.00741952      10.53712069
Bi       9.73347894      13.18299698       8.78811007
Bi      11.56347740       7.10166259       9.98317690
Bi       8.79151717       6.26939604       9.09575917
Bi       9.08888344      12.22473105      11.58623771
Bi       9.23996565       7.28829003      11.92873625
Bi       7.44712710       8.90775862       8.26458793
Bi       7.48831301       9.68269616      11.20435392
10
Properties=species:S:1:pos:R:3 config_type=qcd gap_pre_relax_energy=-35.54452840433054 gap_pred_energy=-35.6838333548391 gap_fmax_final=0.0007483414900044771 gap_converged=1 pbc="F F F"
Bi      14.11575787       9.54874755       9.08220212
Bi      12.61552036      12.08974767       9.85590349
Bi      12.58125759       9.67110774      11.69388413
Bi       9.98767646      11.99593091       8.33862530
Bi      11.71493739       7.72112252       9.53119603
Bi       9.38139526       9.05524983       8.12011599
Bi       8.81106330      12.78678649      11.02341960
Bi       9.04900393      10.31837686      12.77828812
Bi       7.91024191       8.41921946      10.69846020
Bi       6.40265457      10.96321959      11.44741364
11
Properties=species:S:1:pos:R:3 config_type=qcd gap_pre_relax_energy=-39.17518627844512 gap_pred_energy=-39.47257103098934 gap_fmax_final=0.000619772917361781 gap_converged=1 pbc="F F F"
Bi      12.76972932      14.08147433      10.48026244
Bi      12.50128842      12.76876435       7.76293745
Bi      10.04753107      13.80893637       9.19191307
Bi      13.16605898      11.33285682      11.79435009
Bi      12.89386492      10.00098873       9.03722412
Bi       8.73175117      11.24645524      10.56038024
Bi      10.02497276       9.11985990       8.82465707
Bi      10.44385097      11.16573392      13.06447850
Bi       9.53431427       6.91088002      10.87679196
Bi       9.80471968       8.22804369      13.60670543
Bi       7.28922240       8.54331062      12.00760359
11
Properties=species:S:1:pos:R:3 config_type=qcd gap_pre_relax_energy=-39.347305416855605 gap_pred_energy=-39.42505913661048 gap_fmax_final=0.0008516522516158775 gap_converged=1 pbc="F F F"
Bi      13.69071615      10.09520614      12.30718895
Bi      12.28073308      12.79711516      12.04198196
Bi      11.93531032      10.03581180       8.17094088
Bi      14.47541403       9.47402574       9.55199249
Bi      11.36845522      12.85574244       9.15569203
Bi      10.10685071      11.33714572      13.55643184
Bi      11.03527110       8.61105632      12.63057618
Bi       8.33667745      12.86145923       9.29659833
Bi       7.53320994      11.89180311      12.05500609
Bi      10.01918705       8.32136337       9.79330481
Bi       7.47944032       9.98053633       9.70155181
12
Properties=species:S:1:pos:R:3 config_type=qcd gap_pre_relax_energy=-43.50204663926471 gap_pred_energy=-43.52688943481399 gap_fmax_final=0.0008549903529479895 gap_converged=1 pbc="F F F"
Bi      11.11867396      13.41182572       9.05385833
Bi      10.39111675      11.84507346       6.56403681
Bi      11.76073426      11.37362180      11.21422843
Bi       8.20790075      13.01061559       8.31281041
Bi      12.50207339       8.93022237       9.62582511
Bi       9.05755212      10.76897419      12.38447293
Bi      11.46281722       6.65999141      11.35779714
Bi      10.61324035       8.90178221       7.28623483
Bi       7.16862907      10.74041607      10.04475994
Bi       9.27969788       7.82570714      13.10679244
Bi       8.55179848       6.25888685      10.61693264
Bi       7.90996364       8.29708105       8.45644882
13
Properties=species:S:1:pos:R:3 config_type=qcd gap_pre_relax_energy=-46.89044834296965 gap_pred_energy=-46.979784167446226 gap_fmax_final=0.0007985148026475234 gap_converged=1 pbc="F F F"
Bi      10.93536872       9.27474936       6.75430513
Bi      13.03082299       6.39976488       9.21227756
Bi      10.83053583       6.23030738       7.13214435
Bi      13.16139344       9.44660816       8.86414733
Bi      10.88853229      13.09936374      10.97539477
Bi       8.66960426      12.93336331       8.85782865
Bi      11.75942499      10.24321884      11.41606362
Bi       8.40396009       9.99159796       8.23290383
Bi       8.76577840      13.26279974      13.18683651
Bi      10.16847401       5.96117111      10.06505431
Bi       9.11502017       8.87198523      10.94201945
Bi       6.57556942      13.11098516      11.09466125
Bi       7.22088262      10.69945235      12.79173047
13
Properties=species:S:1:pos:R:3 config_type=qcd gap_pre_relax_energy=-46.6097874377015 gap_pred_energy=-46.7647015101215 gap_fmax_final=0.0009738159450044352 gap_converged=1 pbc="F F F"
Bi      10.77593760      14.87509997      14.95864138
Bi      13.28604126      13.22817071      15.08270028
Bi      13.54996643      12.88137969      12.04856655
Bi      10.61053962      12.00930023      15.84970718
Bi      10.60025920      13.56405953      11.93992654
Bi      13.70287409       9.91459669      11.57287870
Bi       9.56383359      12.35730394       9.12680878
Bi       9.31980377      11.12769840      13.22417897
Bi      10.94191778       8.82092778      12.15549250
Bi      11.97311187      11.88631369       7.30237966
Bi      13.92597482       9.91236275       8.54499660
Bi       9.30452884       9.37235647       9.66984469
Bi      11.31092739       8.91614642       7.38959445
14
Properties=species:S:1:pos:R:3 config_type=qcd gap_pre_relax_energy=-50.40689372713971 gap_pred_energy=-50.55122002264894 gap_fmax_final=0.0007049933490472769 gap_converged=1 pbc="F F F"
Bi      11.58037013      14.98526344      16.44858190
Bi      14.24386389      16.37346196      16.74394154
Bi      12.00153779      12.71010734      18.45561208
Bi      14.40398244      18.07957327      14.24971645
Bi      17.21864991      18.61135226      15.26043424
Bi      16.02455599      14.04300016      16.01181992
Bi      14.79292631      11.78069928      17.74421956
Bi      12.41576519      10.74391787      16.18315232
Bi      11.99711768      12.98998907      14.14294707
Bi      18.80307134      16.07150644      14.76560821
Bi      19.01215714      18.38404688      12.80127528
Bi      14.86585266      13.39344589      13.29623551
Bi      14.81513383      16.11824412      11.98098927
Bi      17.82501572      15.71539202      11.91546663
14
Properties=species:S:1:pos:R:3 config_type=qcd gap_pre_relax_energy=-50.48022518643014 gap_pred_energy=-50.60494381579026 gap_fmax_final=0.0008927040396814151 gap_converged=1 pbc="F F F"
Bi      14.34654628      10.27590472      15.74560876
Bi      11.43185264      10.38842238      16.57232051
Bi      11.86572410       8.88098549      12.05199169
Bi      12.97900321      12.95354182      16.11562227
Bi      14.16444600      10.70210668      12.71163342
Bi       9.82567978       9.97755931      14.00563390
Bi      11.15744494      10.14993087       9.37960743
Bi       9.11493025      12.24489932      10.03593624
Bi       9.71999563      12.79758204      12.96548460
Bi      13.65490930      11.85319901       8.97375806
Bi      12.69654344      13.41226004      13.06603531
Bi      10.26201792      14.70256227       8.65725073
Bi      12.57521817      13.79432906       6.88354875
Bi      13.09447354      14.75550219       9.72435356
15
Properties=species:S:1:pos:R:3 config_type=qcd gap_pre_relax_energy=-54.13628036235008 gap_pred_energy=-54.222661426649694 gap_fmax_final=0.0009278238820761219 gap_converged=1 pbc="F F F"
Bi      16.13397811      11.63747912       8.54967364
Bi      16.77020653      11.60381313      11.51302420
Bi      15.23996966      13.92145633      10.31557275
Bi      13.97193929       9.52843486       9.09521823
Bi      14.55641494       9.56091303      12.11719345
Bi      11.54827194      11.28807572       8.78633793
Bi      12.17112477      13.32367496      10.94318283
Bi      12.58451212      11.51208226      13.29270364
Bi       9.36566595       9.71075807      10.15906173
Bi      10.62490638       9.25797927      12.88284388
Bi       9.07969001      14.21153017      11.70665123
Bi       7.39319559      11.97283245      10.53663300
Bi       8.57220672      10.29580444      14.86118149
Bi       8.39069585      13.32073477      14.55830631
Bi       6.25920539      11.51641467      13.34439894
15
Properties=species:S:1:pos:R:3 config_type=qcd gap_pre_relax_energy=-53.678422645400794 gap_pred_energy=-53.801079795162735 gap_fmax_final=0.0009938455412670756 gap_converged=1 pbc="F F F"
Bi      11.66327281      12.35708728       8.38187692
Bi      11.55233723       9.47035920       9.25961766
Bi       8.92125180      16.14419610       9.18685490
Bi       8.74731469      13.19491151       8.45364338
Bi      11.82528561      16.60886514       9.68724903
Bi      12.71898213      13.99854118      10.70734835
Bi      14.06607177       9.12093005      10.89176646
Bi      13.45246389       6.22205298      11.68493017
Bi       8.11844462      14.08612068      11.28106935
Bi      10.65386057      13.79288322      12.92304227
Bi       9.58875404       9.16849902      11.54065077
Bi      12.84510770       7.12319722      14.51119650
Bi      13.43410477      10.03907672      13.76448483
Bi      10.57095585       6.46499767      12.61071520
Bi      10.54597406      10.91246357      13.81973578
16
Properties=species:S:1:pos:R:3 config_type=qcd gap_pre_relax_energy=-57.89914166152948 gap_pred_energy=-58.04806721866992 gap_fmax_final=0.0008140019932592944 gap_converged=1 pbc="F F F"
Bi      12.21905359      14.38058781      14.12736637
Bi      10.63422857      17.02416026      13.69500222
Bi      12.67903818      10.71079929      15.29829623
Bi      16.10161501       9.06988873      13.46801018
Bi      14.78389509      11.88783123      13.36496462
Bi      13.94210630       7.90426909      15.24011758
Bi       9.69021595      13.11961495      13.04507758
Bi      13.98988794      15.33993565      11.78271162
Bi      12.29263286      17.86319959      11.30591505
Bi      13.94365360       7.30818674      12.26642462
Bi      14.12879257      11.07226815      10.52554125
Bi       9.53828472      16.66387047      10.88903307
Bi      10.34371688      10.19638604      13.46899558
Bi      12.97846527      13.67145998       9.48972258
Bi      10.00835360      13.73719996      10.12336549
Bi      11.85468518       9.17896740      11.03808128
16
Properties=species:S:1:pos:R:3 config_type=qcd gap_pre_relax_energy=-57.73068099117368 gap_pred_energy=-57.940484797335564 gap_fmax_final=0.0008363466529909883 gap_converged=1 pbc="F F F"
Bi      12.18129204      12.63864849      17.90802036
Bi       9.34900396      13.88823491      14.90200887
Bi      11.00366305      11.33060781      15.42659157
Bi      11.34458579      15.35059925      16.66646537
Bi      10.12941431      14.19456509      11.99538186
Bi      13.90489985      12.22967844      15.43480068
Bi      10.21837264      11.19617710      11.52403416
Bi      13.82631057      15.27564292      14.91523361
Bi      10.77244775      12.04740209       8.68549351
Bi      13.02327186      15.09219558      12.00428420
Bi      12.97698544      10.11814061      12.22191647
Bi      11.64969252       9.33268720       7.57343300
Bi      14.64615083      12.56862124      11.53627162
Bi      13.71944587      12.96231057       8.69419974
Bi      13.52901655       8.36285567       9.74660868
Bi      14.54438313      10.23056917       7.58419247
17
Properties=species:S:1:pos:R:3 config_type=qcd gap_pre_relax_energy=-61.31802922492852 gap_pred_energy=-61.56363136691046 gap_fmax_final=0.0009206762022507187 gap_converged=1 pbc="F F F"
Bi      15.02967044       8.28735170       8.43854451
Bi      12.78180291       6.73028772       7.13824252
Bi      11.75552704      11.31677379       7.42198088
Bi      13.56272952      10.67245348       9.78233061
Bi      13.40353845       6.32614915      10.07754545
Bi      10.40501458       8.64658543       7.08580341
Bi      12.04045729      12.30939492      12.64988911
Bi       9.46219481      12.89281093       8.63033622
Bi      10.75359930      14.45100301      10.87603409
Bi      11.93038068       8.69355233      11.40371079
Bi       7.95394668      10.97679579      10.45707636
Bi       9.30923922       8.33059834       9.87544279
Bi      12.13243111      13.93939126      15.30024274
Bi       8.30009662      14.28355032      12.67253783
Bi       9.22312515      11.47777373      13.55519266
Bi       9.74291447      12.56649454      16.52395060
Bi       9.43085868      15.31656053      15.32866636
17
Properties=species:S:1:pos:R:3 config_type=qcd gap_pre_relax_energy=-61.52536991863022 gap_pred_energy=-61.62659446039433 gap_fmax_final=0.0009558409690270284 gap_converged=1 pbc="F F F"
Bi      13.51141116       6.74304575      12.09521852
Bi      15.82911615       7.54703895      10.31484074
Bi      12.07036301       9.42488342      12.75165595
Bi      13.08902327       7.10325465       9.12941565
Bi      14.52932818      11.13546774      13.20146805
Bi       9.96231240      12.24824616      13.76074600
Bi      16.07138876      10.57889458      10.64736881
Bi      11.55109174       9.83191344       9.72575304
Bi      11.20365531      14.55171209      12.30519028
Bi       8.34685822      10.55757805      11.73518399
Bi      13.97682525      13.57215197      11.46748607
Bi       8.97737696      11.63460012       9.03517045
Bi      13.78907675      11.76181348       9.02928452
Bi       9.50141360      14.50988884       9.80491114
Bi       7.52671398      14.12563968      14.13290026
Bi       5.90694161      12.35681040      12.28704895
Bi       6.89697877      15.05693583      11.31623277
18
Properties=species:S:1:pos:R:3 config_type=qcd gap_pre_relax_energy=-65.28682485618984 gap_pred_energy=-65.44924038091867 gap_fmax_final=0.0009769302977189003 gap_converged=1 pbc="F F F"
Bi      16.83115116       9.33265484      14.08448165
Bi      18.31040041      10.33278120      11.63673225
Bi      17.69405421      12.23225096      13.91558492
Bi      13.90556452      10.16918992      13.51169698
Bi      13.85764251       9.21194666      10.62188601
Bi      16.14106750      10.85645146       9.55096379
Bi      14.76865701      13.06770532      13.34284628
Bi      15.15977149      13.58326244      10.36749356
Bi      11.43124182      10.66859198       9.53402104
Bi       9.72433702      10.52149935      12.02875647
Bi      12.29729044      13.58246535       9.36896801
Bi       7.22978230      12.01473931      11.24882762
Bi      11.07570968      12.60194685      13.76822681
Bi       6.15473239      12.53028892      14.07193494
Bi       8.10836757      14.95410540      11.10060340
Bi      11.03729940      14.89480133      11.78808928
Bi       8.64634632      13.42775294      15.53681763
Bi       7.03760842      15.42858993      13.93309354
18
Properties=species:S:1:pos:R:3 config_type=qcd gap_pre_relax_energy=-65.03145897140186 gap_pred_energy=-65.26581733617394 gap_fmax_final=0.0008954470358609396 gap_converged=1 pbc="F F F"
Bi       7.13112043       9.67883314      11.94568940
Bi       6.33661793      10.09884802      14.87429419
Bi       8.20103939       7.86175380      15.70256345
Bi       9.69437320       8.37572394      12.99365957
Bi       8.12238335      12.32337529      10.87609593
Bi      10.26208896      11.29895514       8.97878631
Bi       8.90417053      10.73089827      16.37263321
Bi      11.09931222      10.80020914      14.21333648
Bi       9.68678554      13.27393880      13.29648180
Bi      12.28747820       9.94942095      10.76777485
Bi      11.13844798      14.17119185       8.94754638
Bi      13.95378392       8.95758530       8.39521178
Bi      12.01654421      14.53334023      11.82384278
Bi      14.18365820      11.17243251       6.33010406
Bi      13.84200011      13.95079021       7.59478584
Bi      13.98790467      12.22362399      12.01215334
Bi      16.48710283      10.59633758       8.23267779
Bi      15.80704708      13.14460058       9.78422159
19
Properties=species:S:1:pos:R:3 config_type=qcd gap_pre_relax_energy=-68.83958526955686 gap_pred_energy=-68.97271636201233 gap_fmax_final=0.000942985001130954 gap_converged=1 pbc="F F F"
Bi      18.51475641      14.95405688      11.31146686
Bi      17.34460281      16.00639185      13.90384622
Bi      18.36295310      13.16119322      13.75029222
Bi      16.11217857      14.16368638       9.59864342
Bi      13.99404383      15.85706597      10.95081692
Bi      15.44242453      12.10692903      13.66112448
Bi      14.43089426      14.95247082      13.82340830
Bi      15.55043310      11.41482102      10.69292389
Bi      11.03282529       9.67721714      10.57020495
Bi      12.88806606      11.74453914       9.27327343
Bi      11.89377538      12.32383572      14.47957155
Bi      11.57575048      14.38265709       9.96666541
Bi      11.58853895       9.44587403      13.55431689
Bi       9.68887753      13.62210285      12.66555322
Bi       8.51826176      11.25361980      11.20711129
Bi       8.57922169       9.15213186      13.38998127
Bi       9.88004428      12.23702102      16.85841311
Bi       7.76409908      13.58374072      15.17958734
Bi       7.51834047      10.64073301      15.84288680
19
Properties=species:S:1:pos:R:3 config_type=qcd gap_pre_relax_energy=-68.5928450207207 gap_pred_energy=-68.89445643557693 gap_fmax_final=0.0008824609281584188 gap_converged=1 pbc="F F F"
Bi      13.89056324      12.46518014       8.43707269
Bi      12.19697969      10.19628776       7.41180242
Bi      11.77775916      14.20840851       9.76743379
Bi      13.87828536       7.75945783       7.97754005
Bi      16.29753647       8.63127208       9.64316707
Bi      12.20848034      13.15969126      12.54348095
Bi      15.25712466      11.22699432      10.86432630
Bi       9.31450124      12.67244836       8.80585126
Bi      10.09614697       9.86815706       9.69281027
Bi      15.13575523       7.04280452      11.99679749
Bi      12.41778534       7.19235710      10.59025237
Bi       7.73934749      12.22710088      11.34603609
Bi       7.60743609      14.95073914      12.69481902
Bi      10.55827325      15.56175183      13.33885853
Bi      13.28236501       9.46648390      12.44773298
Bi      10.08766387      10.99768311      12.84756124
Bi       7.08528688      13.94397042      15.53828763
Bi       9.96615532      14.62363972      16.20141951
Bi       9.14116767      11.74418530      15.79336359
20
Properties=species:S:1:pos:R:3 config_type=qcd gap_pre_relax_energy=-72.55210320193575 gap_pred_energy=-72.73408963278689 gap_fmax_final=0.0007627040634941943 gap_converged=1 pbc="F F F"
Bi      16.19717028      17.47824135      13.31994292
Bi      13.54766415      16.61666812      14.57442438
Bi      15.95886101      16.75995019      10.38900238
Bi      17.45046524      14.92051284      12.27659365
Bi      11.73755459      16.29820345      12.18522045
Bi      14.12034800      13.70566195      15.09135578
Bi      11.43085277      12.32797079      14.94156941
Bi      13.60934746      14.73346619      10.38899936
Bi      15.10322340      12.91974254      12.31881672
Bi       9.77383125      14.22405509      13.22619437
Bi      12.04625700      11.43762308      10.38970437
Bi      12.41266178      10.12931684      13.08972089
Bi       9.26555332      12.53306887      10.76181502
Bi       9.75423420       8.90803559      13.82212487
Bi       7.74766379      10.22359437      11.97940562
Bi      11.12826200       9.01710824       8.73091480
Bi      10.03641996       6.11641346      12.67170252
Bi      11.55563099       6.27853182      10.04522571
Bi       8.13465765       8.92884143       9.28656850
Bi       8.52757267       5.98122530      10.04892978
20
Properties=species:S:1:pos:R:3 config_type=qcd gap_pre_relax_energy=-72.58436187497745 gap_pred_energy=-72.7669712908727 gap_fmax_final=0.0009749443580177534 gap_converged=1 pbc="F F F"
Bi      20.14184939      14.18237837      12.16654642
Bi      19.70202759      12.29854776      14.49633956
Bi      19.29129485      15.27779598      14.86319742
Bi      17.56736179      14.09049294      10.52025210
Bi      16.12985842      11.63103317      11.53979183
Bi      16.62871030      11.98735712      14.49077973
Bi      15.97678156      16.19903639      11.96350487
Bi      16.21376925      15.01073236      14.76448856
Bi      13.09944945      12.40384147      11.63794535
Bi      13.18364287      15.45360582      11.07587624
Bi      11.58178166      15.69858731      13.67873253
Bi      13.02961111      13.07732960      14.48879572
Bi       9.43914311      12.44308372      10.88765664
Bi       8.84900124      14.70017383      12.85482711
Bi      10.63736677      11.20200308      15.22923350
Bi      10.34226051       9.98959242      12.48573866
Bi       8.18369965      12.97200456      15.22778807
Bi       6.57573133      11.28567176      11.00773380
Bi       7.45402747       8.90959056      12.66940541
Bi       6.00689178      11.22140188      13.98562657
21
Properties=species:S:1:pos:R:3 config_type=qcd gap_pre_relax_energy=-75.95695655538167 gap_pred_energy=-76.16239775572447 gap_fmax_final=0.0008737873722359901 gap_converged=1 pbc="F F F"
Bi      17.87458551      14.60319876      15.54015791
Bi      17.14577129      12.30703438      13.67874154
Bi      18.29492745      13.55323970      18.36814709
Bi      14.52261740      13.56097479      12.85809183
Bi      15.54191085      14.50992855      17.49517973
Bi      11.80309674      12.31779222       9.34563576
Bi      11.02690896      14.53836003      11.29837755
Bi      14.20910909      11.06869782      11.22445365
Bi      16.37563727      10.12236908      15.63564130
Bi      15.96283327      11.59885278      18.26184876
Bi      13.34659740      10.14702069      15.72947627
Bi      12.87625607      13.12976692      15.35564050
Bi       8.29442484      15.13632919      10.17422698
Bi       9.00115766      15.78132169       7.25971926
Bi      12.60992391       9.16806882      12.98053956
Bi       9.52620549      10.44855052       9.90673935
Bi       7.23209535      12.36028918       9.40320942
Bi      10.16420646      13.11465906      13.84698826
Bi       9.78819991      10.26043135      12.91593409
Bi      10.85051198      13.50515180       6.54280861
Bi       7.86223840      13.07717796       6.48765786
21
Properties=species:S:1:pos:R:3 config_type=qcd gap_pre_relax_energy=-75.86843925406274 gap_pred_energy=-76.06363547754405 gap_fmax_final=0.0009714703358949614 gap_converged=1 pbc="F F F"
Bi      18.46830971      14.75965471      16.24491723
Bi      17.16108759      12.83550184      14.27296961
Bi      19.47699624      13.10606375      18.58953076
Bi      14.73820772      14.42385622      13.37110047
Bi      16.87118824      14.59215067      18.82652186
Bi      12.22456722      12.71102941       9.50154952
Bi      11.40258655      15.00484435      11.29682459
Bi      14.67411677      11.93009750      11.66238800
Bi      16.13014249      10.63326691      16.04716197
Bi      16.87334850      11.54685402      18.83033588
Bi      13.12359403      11.04307700      16.15669556
Bi      12.65474886      13.96251187      15.54459952
Bi       8.52192843      15.25193592      10.48190339
Bi       8.97791090      15.83885347       7.50270730
Bi      13.18136737       9.88588142      13.38227131
Bi      10.04787377      10.69833107      10.21228857
Bi       7.64996863      12.42333655       9.64257215
Bi      10.20842621      13.74116671      13.76210346
Bi      10.27718409      10.73961430      13.22259866
Bi      11.11859874      13.83813740       6.75378745
Bi       8.20757253      13.02355950       6.68489732
22
Properties=species:S:1:pos:R:3 config_type=qcd gap_pre_relax_energy=-79.63073342370137 gap_pred_energy=-79.80994186671884 gap_fmax_final=0.0009231770999527866 gap_converged=1 pbc="F F F"
Bi      10.09148310      17.40689237      16.42444378
Bi       8.11310804      17.82312962      14.16587436
Bi      11.41593320      15.11646807      14.86841693
Bi       9.40906583      15.53969185      12.57648967
Bi       7.22726546      16.45765108      16.72464630
Bi      16.94229475      12.07300184       8.64215502
Bi      14.82329189      10.90041191      10.57978359
Bi      10.23791665      12.71751496      16.30183040
Bi       7.40552086      13.31445616      13.07284576
Bi      11.41602145      10.73267715      11.92955250
Bi       7.31022918      13.44287339      16.09513543
Bi       9.09248673      10.95139990      14.05189391
Bi      11.51368158       7.96014179      13.14088427
Bi      16.67674884      10.29639488       6.20434514
Bi      14.79171725      12.63735982       6.58401436
Bi      15.53854426       7.98846535      10.16237836
Bi      12.66073535      11.47945622       8.50978019
Bi       9.36440110       8.65758593      11.10861014
Bi      13.14474846       6.35824878      11.08755530
Bi      15.11887125       7.85881802       7.17458978
Bi      12.26703042       8.84927236       7.06497788
Bi      10.96683117       6.96601537       9.05772374
22
Properties=species:S:1:pos:R:3 config_type=qcd gap_pre_relax_energy=-79.26563881301513 gap_pred_energy=-79.50566883910395 gap_fmax_final=0.0009575122510701836 gap_converged=1 pbc="F F F"
Bi      13.16732806       5.69766671      13.02216174
Bi      10.80227650       6.70077640      14.63468560
Bi      13.53935071       6.53512553      15.91596361
Bi      14.04026544       8.12325073      11.34497363
Bi      10.97936455       9.76865898      14.29962923
Bi      13.73895682       9.58540809      15.66124397
Bi      11.32087379       9.51927351      11.31412242
Bi      15.67618006       9.69533298      13.34067049
Bi      11.11713895      12.58062799      10.73435932
Bi      14.66572065      11.88830241      11.50560580
Bi      17.22407564      12.32900999       9.87216963
Bi       8.99414673      14.23870913      13.68864314
Bi      12.83080730      14.33301230       8.77471210
Bi      11.86867880      13.35064020      13.49260373
Bi      16.45647626      14.29871974      12.03299977
Bi       9.00372151      15.81570814      11.04014567
Bi      11.80515527      16.70999738      10.31832406
Bi      15.82406128      14.91303658       9.13421215
Bi      13.18321532      16.14048827      12.93476343
Bi       8.96729502      16.80082794      15.36365640
Bi       8.93047608      18.37458985      12.76629187
Bi      11.47252636      18.20892827      14.41615334
23
Properties=species:S:1:pos:R:3 config_type=qcd gap_pre_relax_energy=-83.43749005932406 gap_pred_energy=-83.67531574516255 gap_fmax_final=0.0009239487812134212 gap_converged=1 pbc="F F F"
Bi      14.19303265      11.79857840       7.14304764
Bi      14.92359451      14.52978855       8.23712439
Bi      14.73503991      14.27863614      11.27276027
Bi      13.02732849      10.37299758       9.60321045
Bi      12.13270980      14.01903627       7.18067870
Bi      14.23406074       7.60523029       9.28665891
Bi      15.02738930      11.30281685      11.66720666
Bi      11.76042154      14.62969680      11.70353168
Bi      10.55949763      12.87966925       9.59841286
Bi      11.23626320      12.82373937      14.08716531
Bi      13.72808513       6.34284924      12.00315178
Bi      13.45610498      10.76507219      14.18727405
Bi      11.79431410       5.87683771       9.73114497
Bi       8.22934768      14.92509164       9.82048879
Bi       7.58216550      10.45353977       9.67767926
Bi      10.49290823       8.41980723      11.02820940
Bi      11.91023285       8.17824196      13.65167722
Bi       8.91191104      11.31525013      12.43345066
Bi       5.88295245      13.02024617       9.57868248
Bi       6.98975496      13.73964136      12.30475664
Bi       5.90246543       8.44979890      11.29978388
Bi       8.21848416       6.93452807      12.52917824
Bi       7.05819102       9.32516142      13.96098107
23
Properties=species:S:1:pos:R:3 config_type=qcd gap_pre_relax_energy=-82.99393650778342 gap_pred_energy=-83.43781956306738 gap_fmax_final=0.0009862776512396295 gap_converged=1 pbc="F F F"
Bi      13.49638640       6.46501794       9.63342350
Bi      12.17722686       6.66719223      12.36514540
Bi      14.49585375       9.29024366       9.11700439
Bi      13.64621719       8.91275948      13.79744313
Bi      13.13558653      10.83338289      11.44478943
Bi      10.37569235       8.85475599      11.11454220
Bi      12.11990080      10.15679333       7.13711016
Bi      11.51489133      10.19949485      15.56153676
Bi      10.93592430       7.58669588       8.04213838
Bi      14.35983277      13.32783271      12.94938922
Bi      10.91790916      12.30081432       9.23083782
Bi       9.00235653       9.67012741      13.82604090
Bi       7.79253199       7.79688969       7.58965426
Bi      12.03237777      13.11382786      14.92543568
Bi       8.87362945      10.28743881       6.37719060
Bi       8.04053370      12.53136465       8.19313859
Bi      10.23316686      12.99165715      12.41682334
Bi       7.28229010       8.45036946      10.50770244
Bi      13.54951424      15.86373413      11.43527209
Bi      11.75900366      15.25590549       9.06362116
Bi       7.35646885      12.09947497      13.06037978
Bi       6.25625829      11.26709765      10.34250480
Bi      10.52932572      15.96000803      11.75175459
24
Properties=species:S:1:pos:R:3 config_type=qcd gap_pre_relax_energy=-86.99721684036902 gap_pred_energy=-87.21871990150328 gap_fmax_final=0.0009433661472379563 gap_converged=1 pbc="F F F"
Bi       6.03294062      14.00810249      13.02013503
Bi       6.36006885      14.81955401      10.12013627
Bi       6.60106904      11.90759803      10.91000223
Bi       8.75127021      14.37723589      14.35497362
Bi      10.18203746      16.16881087      12.34698820
Bi       9.56869054      11.55039623      13.63138196
Bi       9.42559502      14.83572842       9.75850587
Bi       9.72548473      11.89941552      10.56732686
Bi      13.01138484      15.18975829      12.77259052
Bi      12.48970361      13.06555903       8.29364678
Bi      15.76415636      13.38248802       9.92829388
Bi      13.11221886      12.53318378      11.18890531
Bi      12.04705731      11.31300420      15.42965702
Bi      12.50638011      14.29798555      15.65163953
Bi      14.62103394      15.18772736       7.73848240
Bi      16.22687306      12.96102597      13.58537802
Bi      15.47575320      14.36110553      16.23709272
Bi      15.22258517      12.32129390       7.11179578
Bi      14.47592265      10.51366533      13.80659067
Bi      18.95077297      11.78019229      14.47843169
Bi      16.01220851      12.11117997      18.15113301
Bi      15.32716457       9.56134765      16.58985851
Bi      18.99466920      11.81187645      17.50879747
Bi      18.32580363       9.25260967      16.02910109
24
Properties=species:S:1:pos:R:3 config_type=qcd gap_pre_relax_energy=-86.17881148273057 gap_pred_energy=-86.85586105681742 gap_fmax_final=0.0009089966067429822 gap_converged=1 pbc="F F F"
Bi      12.14586100      13.07427189       7.91255780
Bi      14.32697136      16.39333285      10.46982700
Bi      14.73210379      13.58193354       9.43351449
Bi      11.25112229      10.30931582       8.84254678
Bi      10.03338121      12.81514121      10.05335860
Bi      16.93092312      16.71739905      11.99671855
Bi      12.21289106      16.08399880      12.62472692
Bi      13.57985898       9.43821069      10.60175803
Bi      14.36407253      12.07988037      12.01307840
Bi      16.01818073      18.09663602      14.51336303
Bi      11.56061209      13.05714035      12.68361544
Bi       9.86492808      10.09803865      13.81473812
Bi       9.22931612       8.28760336      11.31828468
Bi       8.14852259      11.64222436      16.05608387
Bi       8.13008765       7.58285702      14.05941161
Bi      11.91292809       7.86207305      12.56202021
Bi      13.74016894      16.25904022      15.23054975
Bi       6.16089804       9.93009053      14.56466183
Bi      17.38193429      13.93433971      13.13597636
Bi       7.65263201      12.20566598      13.16555771
Bi      18.16211378      17.23726260      16.51247475
Bi      15.26663357      13.62992298      15.27843576
Bi      19.44171230      14.77800931      15.29172286
Bi      17.32273798      14.47620323      17.43560903
25
Properties=species:S:1:pos:R:3 config_type=qcd gap_pre_relax_energy=-90.44937446619159 gap_pred_energy=-90.70182090317374 gap_fmax_final=0.0009571913582286501 gap_converged=1 pbc="F F F"
Bi       9.41296671      10.12732224       6.55729257
Bi       6.40774879      14.59639238      14.35265521
Bi       9.86433830       9.75615337       9.54002713
Bi       8.56439570      14.16738496       8.02987532
Bi      12.06949323      11.87947824       9.60825391
Bi      14.00723143      10.49491316       7.63201715
Bi      15.44733541       8.13688661      15.83491594
Bi       9.46161729      14.05237506      10.89897614
Bi      13.76923015       7.11084354      11.40998692
Bi       9.17250026      16.84962745      12.15482911
Bi      16.91699515       9.84467710      13.81304091
Bi      12.32236256      11.70485518      16.41731008
Bi      12.40314588       9.58473699      12.44910082
Bi      12.53356317       8.83545406      15.44801304
Bi      16.26898313       6.95328260      13.16756311
Bi      10.99974638      12.76359964       6.81222252
Bi       6.45973858      13.69012465      11.44294885
Bi       7.43941014      11.32685286       8.53267257
Bi      10.77791864      12.71148929      13.93328742
Bi      14.81881820      11.32477737      12.18541263
Bi      15.15056435       7.93856255       8.82178280
Bi       6.09333039      16.63508479      12.12712316
Bi      13.68252464      13.39607639      14.31404083
Bi      16.38811903      10.60771258       9.47570218
Bi       9.36677362      15.31018812      14.83980088
26
Properties=species:S:1:pos:R:3 config_type=qcd gap_pre_relax_energy=-93.81565134885227 gap_pred_energy=-94.3101418930726 gap_fmax_final=0.0009735245304895297 gap_converged=1 pbc="F F F"
Bi      16.94369681      12.98783412      10.80567921
Bi      14.88623683       8.81444916       9.81527030
Bi      16.56015417      10.21261030      11.99255984
Bi      16.81213379      14.64249691      13.41512672
Bi      14.74277136      12.62601930       8.70948478
Bi      13.22510204       6.67258454      11.25432012
Bi      12.58822864      10.81862207      10.13808566
Bi      15.13898578      12.92796201      15.25547683
Bi      13.81877969      15.35083884       9.51550504
Bi      11.29958730       8.04258725       9.34613487
Bi      13.89125146      10.81826985      13.24476046
Bi      13.95954410      15.43419960      14.03167820
Bi      13.17815895       7.93569360      14.03405483
Bi      11.46786388      15.86183432       7.63338476
Bi       8.27407129       7.42415493      13.19688121
Bi      12.36796890      14.08302561      11.82112684
Bi      10.38818855       8.76559341      14.88491319
Bi       8.48859356       8.44720656      10.37185172
Bi       9.66087595      17.57897650       9.34716706
Bi       9.77903344      15.70634799      11.75656400
Bi       8.88632517      11.44981917      10.86888247
Bi       9.02027484      14.61793462       9.04087193
Bi       6.07138733       9.31975359      14.14096924
Bi      10.36499056      11.52460081      13.66667297
Bi       6.20310999      11.74158512      12.31299675
Bi       7.58823239      11.80054662      15.00512774
26
Properties=species:S:1:pos:R:3 config_type=qcd gap_pre_relax_energy=-93.87432648063466 gap_pred_energy=-94.51044509122434 gap_fmax_final=0.0008557193258487422 gap_converged=1 pbc="F F F"
Bi      13.89582203      14.40093648      16.83568339
Bi      12.87425210      15.86330444      14.36398715
Bi       8.97587607      13.97747805      16.74573841
Bi      17.66541984      12.64380611      13.18959137
Bi      11.47551969      13.43431777      18.40845904
Bi      10.24783151      14.42463962      14.00875154
Bi      17.98248946      11.37020999      10.46785768
Bi      14.65821541      11.85573077      13.05261004
Bi       8.36755339      11.36399430      15.26190559
Bi      18.07721444      14.38811542      10.75530207
Bi      11.21776329      11.49466484      14.07752601
Bi      12.98386692      11.52578980      16.60335348
Bi       7.41819497      12.19727759      12.44455872
Bi       9.01325146       7.81673119      11.82290170
Bi      11.57096931       9.41731984      10.94485639
Bi      15.32399758      15.36360785       9.91765599
Bi      14.96014881      10.72034523      10.20216770
Bi      13.23952941      14.14953212      11.81540199
Bi       6.66421626       9.61810413      11.09212311
Bi      10.25199957       7.16823145       9.17148299
Bi      10.10709025      12.14212743      10.63725450
Bi      14.33071770      12.97815947       8.28659455
Bi       7.85374525      11.27514852       8.82582336
Bi       9.19975642       9.11868594       7.08715892
Bi      11.32928480      12.96323175       7.86514305
Bi      12.04172258      10.05495844       7.84255978
27
Properties=species:S:1:pos:R:3 config_type=qcd gap_pre_relax_energy=-97.76478025574256 gap_pred_energy=-98.14723832572271 gap_fmax_final=0.0009854629244062949 gap_converged=1 pbc="F F F"
Bi       8.23831797      12.39345131      16.56167000
Bi       7.17253014      12.38720061      13.70337036
Bi       6.46215220       9.51829275      14.46226931
Bi      10.81782822      13.99986565      16.67240714
Bi      10.89733689      10.98894159      16.30159128
Bi       9.10275092       8.05715539      14.25585846
Bi       7.08613878       7.85028866      12.00785992
Bi       9.44774251      11.95919056      11.76067974
Bi      11.58379217      14.80993143      11.60698122
Bi      10.82043501      16.00168677      14.33609661
Bi      11.16777849      10.14932142      13.36402308
Bi       7.99167233       9.89273543       9.96040408
Bi      12.47777429      12.14482791       9.30591010
Bi      10.11533501       8.23304964       8.56516981
Bi      13.73733193      15.70482555      15.06938239
Bi      13.20509954      17.35798997      10.78633874
Bi      13.59630558      13.22706865      13.12960452
Bi      13.90096429      10.20608533      11.09214755
Bi      14.84249400      17.91834558      13.26734418
Bi      15.95388357       9.57639498       8.71871013
Bi      11.64139859      10.27688708       6.97134794
Bi      15.32459381      12.75186858       8.61715084
Bi      16.12201614      16.56804954      10.88021972
Bi      16.11349097      13.58523428      11.44445874
Bi      12.23620728       7.66123571      10.66507038
Bi      14.43457752       6.77213420       8.74517430
Bi      14.18304083       8.68093037       6.42174844
28
Properties=species:S:1:pos:R:3 config_type=qcd gap_pre_relax_energy=-101.10001005206757 gap_pred_energy=-101.57706891943079 gap_fmax_final=0.0008239027534806607 gap_converged=1 pbc="F F F"
Bi       8.61410429       6.58355525      13.52894757
Bi       9.02193495       9.36492176      14.71324306
Bi      10.79564067       6.02186431      11.50809000
Bi       8.12149665       7.11163215      10.58026668
Bi      13.81960761       8.77692499      15.33502097
Bi       7.19260895      10.58066557      12.61904656
Bi      15.00445197      11.36664379      16.35227952
Bi      11.71580139      10.41100984      13.79325163
Bi      12.19995493       8.70486019      11.04108177
Bi       8.90471562      10.07873912      10.17546325
Bi      12.24378716      12.62943556      15.94588255
Bi       7.77804147      13.54823629      12.46078632
Bi      15.91873877      10.12526004      13.57055962
Bi      15.15676084       8.11494269      11.02722621
Bi      16.48298816      12.35072495       9.56986655
Bi      14.37665200      12.08056741      11.81996431
Bi      10.69887619      13.24201150      11.68014916
Bi       6.45976936      11.14505918       8.66686649
Bi       6.04974375      13.87080455       9.94938803
Bi      11.96616117      14.90295760      13.98031478
Bi      14.92710379       9.98536778       8.63833924
Bi      14.60768801      15.05924456      12.54608813
Bi      12.05001085      11.62128954       8.89472025
Bi       7.43777773      13.63651596       7.25055964
Bi      10.75847870      15.67714206       9.87368529
Bi      10.44394264      13.92800139       7.43561792
Bi      13.76381873      16.14965136       9.78651467
Bi      14.23164629      13.67427323       7.99908244
28
Properties=species:S:1:pos:R:3 config_type=qcd gap_pre_relax_energy=-101.03862136396765 gap_pred_energy=-101.54011298774319 gap_fmax_final=0.000998245718923095 gap_converged=1 pbc="F F F"
Bi       9.70725885      16.93199169       9.19700736
Bi      13.19682832      15.17668498      11.71108497
Bi      15.25266363      13.88118545      13.50845366
Bi      11.46918581      15.19527295       7.37156342
Bi       8.85460143      15.34798561      11.65083097
Bi      10.46313246      13.80236459      14.81717766
Bi      13.89600906      14.21974149       8.93888557
Bi      13.35349855      13.33872049      15.85313633
Bi      10.89624685      13.11123813      11.93547364
Bi       9.20798817      13.16614045       7.18905072
Bi      15.65030049      11.20185237      11.93905481
Bi      10.19838627      11.13724572      16.36334296
Bi       7.44721648      14.91256060       8.99254825
Bi      13.37489233      11.37452416       9.88613264
Bi      12.49178926      10.82320052      14.43426782
Bi       8.71765758       9.00134279      14.75774824
Bi      14.44774971       9.60235489       7.62216757
Bi      10.16563014      10.76715891       8.84070604
Bi       8.65989363      10.27116865      11.88182432
Bi      14.97026737       8.26713753      12.70831417
Bi      12.19037426       8.36628025      11.45172510
Bi      11.59457222       8.95546720       6.81317751
Bi      13.54339862       8.08569648      15.41965360
Bi       6.05207830       9.18040409      10.65887173
Bi      13.06383954       7.14475264       8.74061949
Bi       8.37240052       7.31235206      11.10650787
Bi       7.99778292       8.64126481       8.38344809
Bi      10.99906473       7.01861799      14.06193297
29
Properties=species:S:1:pos:R:3 config_type=qcd gap_pre_relax_energy=-105.00318547280416 gap_pred_energy=-105.45313945702836 gap_fmax_final=0.0009861019584439443 gap_converged=1 pbc="F F F"
Bi      15.94943899      15.64593487      11.53397886
Bi      13.69991615      16.81030079      13.19067066
Bi      15.44638760      14.62222258      14.33851639
Bi      13.78366792      14.18013229       9.88256518
Bi      14.60784049      10.27936928      15.90396749
Bi      15.70882838       8.85597123      11.20455734
Bi      13.69190056      12.17949069      13.69763078
Bi      11.61415097      14.81351586      11.97398703
Bi      13.70212506      10.07778849       7.37172951
Bi      14.78799542       7.94161481      13.98209944
Bi      13.69478907      11.08579700      10.30956813
Bi      10.06781665      15.82492220       9.53492189
Bi      13.65759884       6.67903117      10.58555867
Bi      11.67143435      10.25844129      16.84143073
Bi      12.16117553       8.62655825      12.51061482
Bi      11.12353077      12.78732889      15.12155708
Bi      12.13854469       7.57866375       8.09526268
Bi      10.46179197      12.76117783       9.00786808
Bi      10.38924818       8.12465083      15.05457346
Bi      11.39360184      11.65201660       6.23415197
Bi       7.16660731      15.04796616       9.98696469
Bi       9.89154386      11.71419292      12.50147271
Bi      10.07404737       9.21888025       9.80542406
Bi       8.06438699       9.70864565      13.99051944
Bi       7.16479822      13.15544303      12.36417396
Bi       9.06579072       9.84142523       6.97508090
Bi       7.41974096      12.43821026       8.12154339
Bi       7.31728801       8.65459470      11.21865902
Bi       5.85565960      11.20735956      10.43259811
29
Properties=species:S:1:pos:R:3 config_type=qcd gap_pre_relax_energy=-105.07074722165243 gap_pred_energy=-105.76013984463856 gap_fmax_final=0.0009266600802858118 gap_converged=1 pbc="F F F"
Bi      16.58380999      15.63725843      13.14035792
Bi      14.84956677      14.06629413      11.13626981
Bi      18.33837656      13.53963392      14.43985297
Bi      10.97285043      15.74221088       9.30722075
Bi      15.55380656      14.05639115      15.51804358
Bi       8.35955614      15.58178629      12.36605037
Bi      16.91374339      12.12925365      10.13288511
Bi      11.07436055      14.17072123      11.93194272
Bi      18.05989723      11.04569162      12.71247445
Bi      12.76336620      13.74204777       7.87901803
Bi      13.76119671      12.23416255      13.79281071
Bi       9.87016147      14.09039452       7.00536074
Bi      10.32386586      15.52860276      14.62898780
Bi       6.45426238      13.21854527      12.71751720
Bi       9.56933786      13.18697703      16.41519720
Bi      12.39183860      11.35436103       9.81803577
Bi       8.67826349      11.85623631      11.09350053
Bi       8.45375817      11.59223031       8.03444243
Bi      15.58346405       9.80640789      13.89709453
Bi      14.98037837       9.91684996       9.27373962
Bi       7.10948160      11.75571737      15.28842642
Bi      11.76540949      11.15739515      15.88283664
Bi      10.90696219      10.23109452      13.08895478
Bi      10.74859780       9.60311808       7.97225003
Bi      14.82506650       7.97800853      11.58056468
Bi       7.51283688       9.07388188      11.11921618
Bi       8.26589272       9.15494110      14.12157511
Bi      11.86594350       7.46523089      12.17780753
Bi       9.81709123       7.43769849       9.88070908
30
Properties=species:S:1:pos:R:3 config_type=qcd gap_pre_relax_energy=-108.93823076964782 gap_pred_energy=-109.41054898041816 gap_fmax_final=0.0009560532883110197 gap_converged=1 pbc="F F F"
Bi       6.47294584      15.21256764       9.62917470
Bi       7.92498117      13.30036520       7.74637731
Bi       9.30618829      16.14026814      10.30235033
Bi       5.57342762      13.53445758      12.00945888
Bi       9.52395471      16.11181434      13.30772499
Bi       7.41406060      10.48188293       8.68229982
Bi      10.51609599      13.40722907       9.36963797
Bi      12.57460029      13.86300927       7.09756559
Bi       7.72973740      13.80141392      14.14806213
Bi       6.69880538      10.70976774      11.65065720
Bi      14.96833247      12.40876368       8.25525328
Bi      10.25480709      10.04376845       9.74882275
Bi      13.36815374      11.13212208       6.04129347
Bi       9.39957498      11.47921398      12.83476530
Bi      11.90050413      14.43706549      12.37912722
Bi       8.96781633       8.76726694      14.21801571
Bi       9.32929332       7.54454396      11.44322533
Bi      11.75773297       8.89689998       7.32077985
Bi      13.69927305      11.58086041      10.97015744
Bi      12.39547556      13.54234983      15.29345028
Bi      12.33571325       7.83192392      11.53941902
Bi      14.61981192      14.93181143      13.80448987
Bi      12.65998740      10.69092531      14.21179587
Bi      11.65327531       8.16276863      15.63017529
Bi      13.82423200       7.34109806       8.94519928
Bi      16.09215341      12.51545943      12.62241218
Bi      15.62460008       9.30246816      10.50384120
Bi      13.43557968       6.30551688      13.94373101
Bi      15.60142660      10.37436846      14.76806015
Bi      16.03917324       7.80974297      13.24439040
30
Properties=species:S:1:pos:R:3 config_type=qcd gap_pre_relax_energy=-108.79133410828473 gap_pred_energy=-109.11215002664423 gap_fmax_final=0.0009366682252520836 gap_converged=1 pbc="F F F"
Bi      11.09379650       8.44033754      14.88641657
Bi      15.12856639      10.80797488      15.67048821
Bi       8.63369935       9.94521160      15.89403054
Bi      10.75375121       7.14476560      12.16665503
Bi      12.53310019      11.03578685      14.05610314
Bi      14.14860051       7.93809516       8.79830307
Bi      10.78845051      12.03786477      16.34548952
Bi       6.94667843      11.03182391      13.58484769
Bi      17.12213737      10.47084531      13.43248045
Bi      12.08345318       9.35591958      10.54651065
Bi      16.83362223      13.16359457      14.80996695
Bi       7.95145519       7.89180216      11.29504233
Bi      11.18981525       8.03153791       7.75731237
Bi      14.91333666      11.39946769      11.38018425
Bi      14.18380880      10.20348909       6.82849178
Bi       9.80087997      14.56727968      14.99239572
Bi      15.83446949      14.18217602      12.06129336
Bi       8.14759484       7.18473918       8.32230278
Bi       8.78046305      10.78616235      11.28415283
Bi      11.04680429      10.75366062       6.51934028
Bi      15.44344862      12.44689131       8.48369942
Bi      10.94019671      13.55698064      12.25576069
Bi       7.02778351      14.07019011      13.85020970
Bi      13.17480049      15.56605228      11.45521163
Bi      10.95132500      12.75171117       8.92351623
Bi       7.85856297       9.75531737       6.84502090
Bi       6.76422900      11.53576401       9.03697062
Bi      13.26888182      14.62488671       8.51234603
Bi       8.55024787      15.30093804      11.47593437
Bi       8.22905154      14.14174484       8.65253384
31
Properties=species:S:1:pos:R:3 config_type=qcd gap_pre_relax_energy=-112.24161935321247 gap_pred_energy=-112.76267528868438 gap_fmax_final=0.0009495099015473452 gap_converged=1 pbc="F F F"
Bi      12.36788841      16.47332269      14.36466339
Bi      12.47858830      18.13472118      11.74784358
Bi      15.22646787      15.77250174      15.10071693
Bi       9.82073337      12.78822322      16.34917236
Bi       7.33360474      11.30771252      15.32958891
Bi      13.47958663      13.65968770      16.47511947
Bi      11.65309452      13.47220393      14.01849123
Bi       5.94524832       9.42788849      11.30040340
Bi       7.12945451      12.03122402      12.38690183
Bi      15.18295518      17.35826481      10.63542635
Bi      12.64725836      16.54019256       9.18099103
Bi      14.84924266      14.72162812      12.22827478
Bi       8.59170216       8.55198939      15.28564837
Bi      11.50401220      10.33034299      17.14307888
Bi       7.68256216       7.36773371      12.66916768
Bi       9.96134167      11.80076721      11.35991142
Bi      12.80185554      13.48849172       9.75326087
Bi      11.33234662       9.59035701      14.15542153
Bi       8.62756086      12.10932438       8.64133222
Bi      14.52948435      10.80547105      16.87238667
Bi      16.71556567      12.28611330      11.98827465
Bi       7.81566031       9.16096428       8.86785717
Bi      11.39507931      11.95103180       7.43558671
Bi      13.97836599      10.98098155      11.88452155
Bi      15.06010753      13.38784743       7.65180285
Bi      10.04548032       8.67228040      10.87650507
Bi      17.61241198      12.63440014       9.10637088
Bi      14.39425863       9.13118922      14.32038025
Bi      11.79546557       9.00448208       8.18278309
Bi      14.46548872       9.01417403       9.63099064
Bi      16.07396996      10.54132976       7.55396868
31
Properties=species:S:1:pos:R:3 config_type=qcd gap_pre_relax_energy=-112.4176750014767 gap_pred_energy=-112.86551097016371 gap_fmax_final=0.000891863036755369 gap_converged=1 pbc="F F F"
Bi      15.48045932      14.41161156       8.22530056
Bi      14.46436099      11.65829395       7.35467663
Bi      16.70845897      13.31038537      10.83134281
Bi      12.84803976      15.90537098       8.38464813
Bi      14.88899258      13.37704521      13.27399681
Bi      16.31700089      10.58405890       9.51886400
Bi      11.78801754      11.42780749       8.85057157
Bi      15.86868796      10.51313745      13.46143476
Bi      11.71660018      15.95272976      11.17430490
Bi      12.02828211      13.05401978      12.25965502
Bi       9.25743490      15.62627401       9.38712303
Bi      14.38779629       8.66642982      15.45122854
Bi      13.91002032       9.60782463      11.29684272
Bi      10.60972696      13.81305984       7.33904122
Bi      12.88622000      12.83586075      16.68531897
Bi      13.64312520       7.03023886      12.97476213
Bi      11.44174368      14.71322880      14.79887314
Bi      12.10678233      10.57585236      14.71207538
Bi      10.45362989       9.13665750       7.40061131
Bi      10.89787900       8.29534708      12.27055136
Bi       9.87583059      13.19793033      16.94284629
Bi       7.49648108      12.95667705       7.32814242
Bi      10.39406574       6.94882365       9.54893826
Bi       7.23531872      13.49161732      10.28827347
Bi       8.90586636      11.10703195      11.36599053
Bi       7.50751724       9.93822365       7.19700500
Bi       9.41991780      10.29318302      16.13384659
Bi       8.15546352       7.22684125      13.36948592
Bi       7.41490846      10.14542150      13.84290247
Bi       6.59886727       9.63391181      10.08215559
Bi       7.48541444       6.75801446      10.44210060
32
Properties=species:S:1:pos:R:3 config_type=qcd gap_pre_relax_energy=-116.38861025658923 gap_pred_energy=-116.997463708445 gap_fmax_final=0.0009421494382267096 gap_converged=1 pbc="F F F"
Bi      12.65699734       5.98867977      10.28216928
Bi      14.73241309       6.82465293      12.34440810
Bi      13.31983461       8.24455020      14.63722478
Bi       9.91624805       7.12509019      10.95330386
Bi      13.03544709       8.10844094       8.14538672
Bi      10.06026949       7.45639286       7.95746327
Bi      15.86413670       9.14965241      10.80403789
Bi      15.63205166       9.90046536      15.69733006
Bi      16.71176032      11.03070102      13.05460885
Bi      13.17163129      10.56373282       9.88976382
Bi      12.04787556      10.94884472      13.81557267
Bi       9.33668973      11.26933087      15.32006710
Bi      13.16491637      11.51160582      16.55078819
Bi      10.04373383      10.22350894      11.06212665
Bi       7.63213303      10.24189827      13.03837971
Bi       8.62906195      10.43079505       8.22940027
Bi      14.43356078      12.81018342      12.26078020
Bi      15.65153735      14.71870656      14.33640860
Bi      13.06829485      12.49513332       7.41552631
Bi      10.17887944      12.39994374       6.50104407
Bi       6.09606273      12.61358605      12.00720187
Bi      13.73476606      14.50739185      16.62624848
Bi       6.37878491      12.49175577       9.00115160
Bi       8.66759060      14.23118188      15.34217755
Bi      10.84344204      13.65919085      11.17216168
Bi      15.28077593      15.13817304      10.32665777
Bi      14.58614747      16.98800279      12.61248001
Bi      12.60282651      15.06957485       8.92023892
Bi       8.17673091      14.80241102      12.40761403
Bi      11.23100443      15.86675913      15.47601524
Bi       8.92852172      14.08410232       8.69939515
Bi      11.56451423      16.48420130      12.49150741
32
Properties=species:S:1:pos:R:3 config_type=qcd gap_pre_relax_energy=-115.64609532638775 gap_pred_energy=-116.18359017836221 gap_fmax_final=0.000847646055797355 gap_converged=1 pbc="F F F"
Bi      17.02717009      12.41226494      13.18601934
Bi      14.86933287      15.62597297      14.20559428
Bi      18.54295303      12.24985598      10.55131397
Bi      14.82504350      14.86168590      17.18673132
Bi      17.86402587       9.71189153      12.04285033
Bi      15.59751532      15.10816375      10.42528604
Bi      12.04423144      16.77235635      14.60689806
Bi      12.04816253      16.02631949      17.57741188
Bi      16.37300271      12.83044823       8.51364457
Bi      14.15975350      13.23171108      12.45912467
Bi      12.44865479       8.91169838      15.49434270
Bi      11.67970429      11.86287972      14.99731261
Bi      13.44098459      15.83559255       8.37908837
Bi      10.43594350      14.57271303      13.19303778
Bi      12.46644341      13.02268725      17.69173933
Bi      13.83979419      11.46197795       9.44754281
Bi      13.80306612       8.62692479       8.44992027
Bi      15.52130538       8.05048658      10.97506586
Bi      12.57774786      13.15532742       7.22579113
Bi       8.12450378      13.89116217      15.02388776
Bi       8.85594468      11.02046861      15.66217910
Bi      13.42990105       9.51277530      12.64825896
Bi      10.06093446       7.41016810      14.27672728
Bi      11.29309019      14.16972135       9.81436673
Bi      11.88963777       6.93618973      11.85063216
Bi       8.14641400      16.05516643      11.69417074
Bi      10.25691628      11.07443037      11.21464353
Bi       8.45732374      14.74261026       8.93155921
Bi       6.32046961      13.79410526      12.55864194
Bi       8.30350951       9.56578637      13.06772355
Bi      10.87170688       8.52337672       9.49272219
Bi       7.55445513      12.10272352      10.28541362
33
Properties=species:S:1:pos:R:3 config_type=qcd gap_pre_relax_energy=-120.10589648213875 gap_pred_energy=-120.7032066155781 gap_fmax_final=0.0008318928189902504 gap_converged=1 pbc="F F F"
Bi      16.36869892      14.59750321      10.93089612
Bi      16.73869933      11.56979885      10.33387088
Bi      14.13398389      14.97838836       8.93302318
Bi      14.41271646      12.49043592       7.27188217
Bi      16.83666405      11.31055319      13.32054340
Bi      14.86186395      14.58590444      13.62225527
Bi      11.76881636      12.71986247       5.76804063
Bi      15.34851567       7.84302996      10.88075272
Bi      13.84574265      10.37503954       9.65578398
Bi      12.67806640      16.69983503      13.68599501
Bi      16.01425381       8.42433609      13.78226801
Bi      11.74499461      13.81799987      10.40241681
Bi      12.68494373       8.42505902       7.37102390
Bi      13.35940472       9.53547136      14.81232949
Bi      10.46095842       9.99031354       6.05726079
Bi      13.76474097      11.82420865      12.71856309
Bi      10.81249805      16.52574313      11.30428530
Bi      12.94609067       6.09565823      11.53305160
Bi      11.41360884      14.61665614      15.47006932
Bi      10.64719299      12.26108058      13.61151872
Bi      10.96783866       7.27453952       9.56752129
Bi      11.58084531       7.18216345      14.05466000
Bi      10.60468831      10.00240033      10.81350559
Bi       9.89250434      13.69206469       7.96551483
Bi       8.75646786      10.92712537       8.48122648
Bi       9.46619591      11.37948787      16.30287818
Bi       8.07240369      15.86614586      12.51454638
Bi       8.57760226      15.76303857      15.50789723
Bi       9.01155769       8.18950991      12.77508057
Bi       8.13420015      12.88866750      11.81395210
Bi       7.45431356       9.49480705      15.05120704
Bi       7.08310218      13.24166816      16.36623093
Bi       6.06072171      11.91640024      13.82484511
33
Properties=species:S:1:pos:R:3 config_type=qcd gap_pre_relax_energy=-119.85008502056948 gap_pred_energy=-120.42705899717558 gap_fmax_final=0.0007612777024804177 gap_converged=1 pbc="F F F"
Bi      17.71683317       9.69470537      11.50720443
Bi      15.37699419       9.07132126       9.58978217
Bi      14.37920851       7.50025863      11.95650869
Bi      16.29766648      10.27711651      14.14758773
Bi      17.47494262      12.52415210      12.48482277
Bi      15.45304582      14.56820244       8.60893270
Bi      13.65052350      12.61394937       7.14351164
Bi      12.15043007       6.12400563      10.52251966
Bi      11.64848727       8.28311479       8.34191250
Bi      12.85701269      10.85924676       9.52986647
Bi      13.29843188      10.19222767      13.22769916
Bi      13.08538470       8.74349964      15.87372560
Bi      14.76836412      13.34044708      11.32635694
Bi      12.56275064      15.30542455       8.03805373
Bi      11.14466066       6.44767789      15.44909848
Bi      10.17568733       9.46951878      12.00787078
Bi      13.79659216      13.20149996      15.07237700
Bi      15.03745081      15.44232490      13.51077349
Bi      10.17974970       9.04566919      16.69996632
Bi       9.98292451       6.56135220      12.61562854
Bi       8.87118514       9.18667102       9.15236378
Bi      11.55027992      14.60516111      10.88401139
Bi      11.04526795      14.27714277      15.80316739
Bi      12.69026702      17.07963161      12.47947880
Bi       9.79795349      12.93923980      13.44536364
Bi       8.55883770      10.30002378      14.44534513
Bi       9.40895074      12.21626766       9.59689232
Bi      10.71256915      17.14431945      14.70444038
Bi       9.57670319      16.83129843      10.07376967
Bi       7.18623274      14.39889080      13.25701309
Bi       6.60805201      13.11361514      10.53168129
Bi       8.25764912      17.17698717      12.81697997
Bi       8.00893178      14.77505734       8.46531519
34
Properties=species:S:1:pos:R:3 config_type=qcd gap_pre_relax_energy=-123.15476716976804 gap_pred_energy=-123.8364218792712 gap_fmax_final=0.0009705699052328021 gap_converged=1 pbc="F F F"
Bi       6.15362863       9.37075231      13.55337297
Bi       8.69075638       9.14593681      15.23806265
Bi      12.92053570       7.31643893      14.56989867
Bi       8.03965744      12.05030085      15.84981473
Bi       6.78851620       8.36827284      10.74298579
Bi       6.34152303      12.22035770      12.38890412
Bi      10.60612074       8.54095296       7.95541076
Bi      11.21076914       9.74338558      13.58168514
Bi      13.86255858       6.27620980      11.89394645
Bi       9.24802428      12.71003252      13.11891475
Bi       6.48100185      11.12064987       9.51747733
Bi      15.65507456       8.06563698      13.53384127
Bi       9.28916428      10.10475468      10.20166981
Bi      12.27014365      10.78015360      16.22672158
Bi      10.38082357      12.83195689      17.53376616
Bi      12.59736535      10.78767263       7.18514429
Bi      12.74736728       8.65841548      10.15613210
Bi      14.85891678      10.83763971      12.41092024
Bi      12.25952924      12.11307735       9.88310036
Bi      15.04544650       9.05706698       8.27418156
Bi       9.32316429      15.71832792      13.71404352
Bi      16.46675594      11.17316541       9.91151515
Bi      12.95648530      13.16642453      14.33603597
Bi      11.90574193      13.19385090       5.15267968
Bi       9.86592454      14.04422366       9.50913803
Bi      11.36759853      15.25719764      15.92400864
Bi      17.23990903      12.36447629      13.60047852
Bi      14.62326249      13.71409750       8.99099778
Bi      10.45267173      15.27528029       6.77812069
Bi      15.64128426      13.85981327      15.68866540
Bi      10.89460588      16.40091391      11.18255912
Bi      13.45710367      15.37254306       6.51714559
Bi      13.82963950      15.14713774      11.74525448
Bi      16.62105981      15.30501345      13.22553679
34
Properties=species:S:1:pos:R:3 config_type=qcd gap_pre_relax_energy=-123.31464563015692 gap_pred_energy=-124.04076477350429 gap_fmax_final=0.0009214408345335168 gap_converged=1 pbc="F F F"
Bi      17.72038857      16.45209470      13.10877226
Bi      18.97794633      13.79195790      13.76367052
Bi      17.30625850      15.19395648      15.81971328
Bi      17.09856761      11.98284724      11.89390008
Bi      15.11610267      15.39495383      11.76220225
Bi      16.41287211       8.94385056      11.36975268
Bi      14.43841779      17.03706170       9.17454899
Bi      15.94355781      10.95046617      15.46450515
Bi      14.26160182      14.23292099      15.50356297
Bi      13.27007210      17.15982169      13.34577252
Bi      14.07999804       9.64270973       9.49894360
Bi      13.39193971      14.62912454       7.61241570
Bi      14.36405248      12.28030094      13.11918865
Bi      14.87793092      12.56321026       9.43513943
Bi      15.75238113       8.12012110      14.25285965
Bi      13.56895987      11.65258446      17.16910417
Bi      11.37668781      15.38928557      14.86629581
Bi      12.02473910      18.13483494      10.67795871
Bi      11.70161664      10.36665892      15.02093990
Bi      12.82820432       7.54929550      14.84857520
Bi      11.54009433      13.52705692       9.82524551
Bi      10.44034807      13.11928453      13.08571998
Bi       9.92758149      16.12415178       9.77066516
Bi      11.63123867      10.05565119      11.30895894
Bi       8.99609002      12.40891988       8.51712352
Bi       8.85779232       9.41533819      15.62363566
Bi      11.26521753       7.23521885      12.24074864
Bi       8.51402112      15.26122215      12.29156051
Bi       7.94041304      12.09587891      14.60670634
Bi       9.43638669       9.51612764       9.35789723
Bi       8.43148756       7.38684976      13.37518671
Bi       6.85703828      13.58766150      10.33158772
Bi       6.07029057      11.42827505      12.32323833
Bi       7.05433427       8.84493571      11.10853355
35
Properties=species:S:1:pos:R:3 config_type=qcd gap_pre_relax_energy=-127.46318525439536 gap_pred_energy=-127.9169177656187 gap_fmax_final=0.0009598536088459929 gap_converged=1 pbc="F F F"
Bi      17.81842216      11.28135967      11.83078631
Bi      16.96306948      14.12526445      11.18450021
Bi      16.51700039      11.42107295      14.59289564
Bi      17.10299687      14.07777267       8.14191789
Bi      16.73177409      11.10514864       7.44162834
Bi      16.10555109       9.54274388      10.00045475
Bi      15.54597396      14.29040994      14.66997972
Bi      14.06718724      13.75834435      12.03387317
Bi      13.66814480      10.54033012      14.26073591
Bi      13.89640007      11.14749951       6.42338841
Bi      13.10514904      10.05105029      10.82801056
Bi      14.36660081      15.39600720       7.84375213
Bi      13.69810940      16.39930865      10.66350366
Bi      13.12139830      12.79454396      16.21090340
Bi      12.31146028      10.31513862      18.20732777
Bi      12.66003352       8.85523345       8.06282263
Bi      12.94387016      12.86795461       8.71503962
Bi      13.40375461       8.22343008      16.23625532
Bi      10.62086213      16.71077004      10.54647559
Bi      10.35366242      12.85480947       7.16663014
Bi      10.86743413      13.35911877      13.89505166
Bi      11.70797371       7.39255466      11.50542333
Bi       9.77570827       9.88572756       7.83125344
Bi       9.61717294       9.67520416      10.86869707
Bi       8.81283743      14.71445762       9.01106103
Bi       9.75251805      16.19272011      13.48543866
Bi      11.04784318       7.32985380      14.50922838
Bi       9.72853545      10.10906114      14.38853417
Bi       9.35328870      13.58344272      16.46338599
Bi       9.46196138      10.61377373      17.35112476
Bi       8.55041518      12.86144925      11.48485573
Bi       6.97529012      14.93487701      13.06716200
Bi       6.62520731      10.47995332      11.47910244
Bi       6.46099589      13.22755801      15.50752138
Bi       6.67840129      10.29905946      14.50828264
35
Properties=species:S:1:pos:R:3 config_type=qcd gap_pre_relax_energy=-127.20659377386036 gap_pred_energy=-127.75672483145424 gap_fmax_final=0.0009413529608044401 gap_converged=1 pbc="F F F"
Bi      17.25805055      13.18079160       7.81939607
Bi      17.93313423      14.37870698      12.73001918
Bi      16.86441714      11.87792508      11.24375214
Bi      14.74240866      14.64725279       8.95076091
Bi      15.56899508      12.44031491       5.38594565
Bi      17.21475869      10.09351007      13.74746848
Bi      15.17960520      16.02187267      12.35480411
Bi      16.20248775      10.37857410       7.50061173
Bi      17.34659825      12.75732578      15.23623432
Bi      13.04637421      13.73795996       6.51600435
Bi      14.11789037      13.05659907      11.67277277
Bi      13.76091563      10.45362226       9.50843530
Bi      14.77600258      16.87550577      15.24481700
Bi      12.22119878      16.68660365      10.98327465
Bi      14.49095152      13.79965202      15.09811656
Bi      14.55268159       8.75900245      14.60709662
Bi      11.61913365      11.31213306       7.57745585
Bi      10.80954736      14.01582463      11.76334677
Bi      12.30777675       7.30793186      13.00039615
Bi      12.75235910      10.95650837      15.71715959
Bi      10.64303205      18.32352269      12.95308868
Bi      11.47221703       8.36805188      10.26620357
Bi       9.50516756      12.58937172       9.36024088
Bi      11.82563351      17.52986413      15.65129189
Bi      13.74357373      12.78029724      17.97134008
Bi       8.61629951      16.06675437      12.45249624
Bi      10.97138988      14.65153076      15.50210199
Bi      10.04071384      11.29382156      13.72011745
Bi       9.06838658      10.11055903      11.03487607
Bi       9.86011197       8.36002667      14.52767436
Bi      10.79414729       9.23371314      17.31789747
Bi       8.94175910      11.51042268      18.16803983
Bi      10.92802772      13.87326462      18.40560450
Bi       7.96911509      15.17796647      15.30815497
Bi       7.61692390      12.15500185      15.46478976
36
Properties=species:S:1:pos:R:3 config_type=qcd gap_pre_relax_energy=-130.64289449006023 gap_pred_energy=-131.25386327231115 gap_fmax_final=0.0007229226973422286 gap_converged=1 pbc="F F F"
Bi      16.88499397      12.02761906       9.33476764
Bi      16.22992812      11.45194563      15.83176984
Bi      16.47693406       9.49750831      13.48968542
Bi      16.03253339      14.93984036       9.80760095
Bi      16.57304090      14.18205698      14.60545979
Bi      14.95980413      11.67032796       7.03127662
Bi      14.74346623      15.97017379      16.25768867
Bi      14.72972790      10.93869156      11.34744715
Bi      13.94726352      17.02155874      13.52735713
Bi      13.18771811      11.41842308      16.16267575
Bi      13.66357411      14.34129201       7.91166951
Bi      14.47776443       9.17338184       8.80939561
Bi      14.47118857      14.22717921      12.38388998
Bi      15.05410695       6.98790206      14.46413894
Bi      14.34716012       6.75596705      11.48565796
Bi      12.41498356      14.20533737      17.10679074
Bi      12.89757098       8.76547892      13.26264569
Bi      11.76824174      13.97054191      10.22061047
Bi      11.64934924       5.62756817      10.53159605
Bi      11.80422219      12.18360821      13.43251810
Bi      10.97451978      10.25404385      10.40084266
Bi      11.64988442       8.00114586       8.58405100
Bi      10.26836626      12.28548980       8.16602023
Bi      10.51458792      16.77235098      10.50983335
Bi      10.42029573       7.65759296      14.72591120
Bi      10.93927078      17.13843925      13.52770913
Bi       8.48564514      13.09570355      11.95536350
Bi       9.22917387       6.39950611      12.25723318
Bi       9.60126699      10.62027150      15.06891695
Bi       8.29830693       8.86719518      10.74573356
Bi       7.43269276      12.34552392       9.15772352
Bi      10.26854920      14.44782507      14.85504301
Bi       7.50971631      17.30511621      10.30921920
Bi       7.28781778      10.59507335      13.08332209
Bi       6.20981052      15.18793213      12.02665694
Bi       5.96852025      15.04238491       8.99377532
36
Properties=species:S:1:pos:R:3 config_type=qcd gap_pre_relax_energy=-130.00063400824158 gap_pred_energy=-130.6390749396685 gap_fmax_final=0.0009804215985479833 gap_converged=1 pbc="F F F"
Bi      17.93943337      13.45651379      10.56276203
Bi      12.67162622      10.86629646       6.20903781
Bi      14.55444495      10.61275682       8.61054933
Bi      15.58552643      13.54440984       8.56120855
Bi      16.78012361       9.25989178      12.78396382
Bi      14.15122617       8.04154561      11.72319543
Bi      17.85812549      15.79778613      12.56859260
Bi      10.11738656       9.43130802       6.98703365
Bi      15.91686667      12.14321077      12.43843840
Bi      10.20549414      12.44795601       6.97859735
Bi      17.64263310      13.43916828      14.53379029
Bi      12.76154837      10.66727983      11.05958899
Bi      13.60661195      14.61523718      10.65677721
Bi      15.31546150      17.03290807      11.45005960
Bi      13.35349279       7.29108291      14.64305077
Bi      15.47414360       9.25317327      15.54337005
Bi      10.91226959       8.51790309       9.81077365
Bi      10.21336454      12.97228632      10.03489134
Bi      11.89053777      17.11551184      10.01036274
Bi      15.71559235      13.03376568      16.94654632
Bi      12.48999183      10.69542271      17.73866774
Bi      12.67280109      17.53112501      12.97505130
Bi      13.66699324      11.77510443      15.15401248
Bi       9.30184011      15.73343821       9.10089568
Bi      12.18065436      14.75837326      14.23168192
Bi      10.35686953      10.69595084      13.67259057
Bi       8.78821055       8.71736396      11.99338863
Bi       9.13370138      14.26511097      13.01509851
Bi      10.91777776       8.74841725      15.90647603
Bi       7.13497503      12.73192415       9.68830007
Bi      14.00635768      15.00967810      18.61923565
Bi       6.99663442      15.45999986      11.09874684
Bi      11.48221696      13.33528089      18.94974257
Bi       6.38640467      10.64603075      11.77671540
Bi      11.52932901      15.68656057      17.01764431
Bi       7.59615043      11.97704452      14.25597955
37
Properties=species:S:1:pos:R:3 config_type=qcd gap_pre_relax_energy=-133.83081603997425 gap_pred_energy=-134.564132268901 gap_fmax_final=0.000940396254987427 gap_converged=1 pbc="F F F"
Bi      18.39193711      11.12317307      13.54566793
Bi      10.08617085      12.19343888       9.17138576
Bi      10.63408683       9.11044067      11.11494985
Bi      13.68256603      13.34484864       9.57906450
Bi      12.22894280      15.13730631      12.26017192
Bi      14.83293140      18.10560144       9.28535527
Bi       7.12046600      11.15146688      17.42186497
Bi      17.53313936      15.49121143      15.90284483
Bi      11.59880858      14.33003030       7.60552969
Bi      14.65497458      12.79477702      16.20942021
Bi       7.57534115      15.50934598      13.94074863
Bi      10.34647842      15.86639974       9.87134667
Bi      17.75856711      12.44906533      16.17970011
Bi      11.45618289       9.65072581       8.17280266
Bi       9.92125777      12.07138867      18.09331039
Bi       7.06361078      10.69357678      14.39846062
Bi       9.63528858      15.54347873      16.14440515
Bi      12.61344693       7.38989958      12.70123497
Bi      15.73606453      15.27682079       8.56891337
Bi      16.24427008      12.07831441      11.69701733
Bi      16.92499001      16.48928853      13.09087547
Bi      13.73141148      17.87149433      12.11632398
Bi       9.40764715       9.14006002      17.54677289
Bi      10.78253747      12.05210525      12.19977166
Bi      14.60967227      15.60088833      14.90163957
Bi      11.23055598      13.03309411      15.51937867
Bi       7.87981098      12.86181908      12.42293695
Bi      15.59913671       7.54682244      12.02107817
Bi      17.72082592      14.62667238      10.79430591
Bi      16.22013924       9.18517885      14.56946474
Bi      11.85982532      18.52282263       9.73104591
Bi      14.27132952      10.75435120       7.99337342
Bi       9.64142773       8.86221688      14.44228822
Bi      10.16282559      17.04561152      13.54510050
Bi      16.37651842       9.62381628       9.89442475
Bi      12.60525211       8.59105892      15.46792250
Bi      13.91334612      10.93317261      13.93088574
37
Properties=species:S:1:pos:R:3 config_type=qcd gap_pre_relax_energy=-133.84126863545032 gap_pred_energy=-134.59551805582993 gap_fmax_final=0.0009661819617477353 gap_converged=1 pbc="F F F"
Bi      20.48225381      15.18358328      14.45228225
Bi      18.64475430      16.30630302      16.64889099
Bi      19.77609939      12.41488529      15.47665273
Bi      18.26166078      16.25112762      12.63371849
Bi      13.29581902      15.21201803      16.89289779
Bi      15.05958493      14.27403448      19.24264951
Bi      14.58725052      18.66370259      14.36165414
Bi      17.32799015      14.49043340      10.38027579
Bi      12.48037161      18.09375389      16.52873235
Bi      18.53237769      10.53682481      13.43130832
Bi      14.42532978      11.70313470      16.01574716
Bi      13.81620802      11.51012547      19.06499266
Bi      17.28175230      11.46242989      10.79924560
Bi      16.09346399      15.94699290      14.78178094
Bi      15.86436126       9.49459314      14.55120844
Bi      13.18975329      18.08667463      11.72915916
Bi      10.79874907      15.05518494      18.61697444
Bi      14.31705868      15.33993276      10.58776541
Bi      14.61470293      10.88535485      12.14977084
Bi      10.84451347      12.11387577      19.31677869
Bi      11.19123179      15.98716367      12.57945774
Bi       9.94205719      17.57385612      14.97156048
Bi      13.03805428      12.43670061       9.16708010
Bi      13.64203384      14.21920740      13.28389302
Bi      13.13743360       8.37525814      11.05513667
Bi      12.42202905      13.82496063       6.50434869
Bi      11.64166852       9.69022672       8.79107725
Bi      11.00822046      12.06381072      12.95119873
Bi       8.63386383      15.33243344      16.54553866
Bi       8.68236733      12.73297158      14.91408065
Bi      12.00835310      10.10988089      15.04892649
Bi       9.66018981      10.68190808      16.92555597
Bi      11.46690612      16.23996745       8.06900135
Bi      10.45007165      13.91553126       9.81451954
Bi       9.46182029      14.32618128       6.89512587
Bi      10.31415167       9.38768899      11.48770106
Bi      17.21942693      13.69122205      16.94724647
38
Properties=species:S:1:pos:R:3 config_type=qcd gap_pre_relax_energy=-137.7269863249874 gap_pred_energy=-138.2481715100985 gap_fmax_final=0.0009899974709955694 gap_converged=1 pbc="F F F"
Bi       8.92420386      15.54872193      16.28209396
Bi      10.69432162      15.56613915      13.72042991
Bi      14.76689240      14.57347786      12.42786319
Bi       7.52742098      14.83311453      11.48952326
Bi      10.14918703      13.32648060      18.05386609
Bi      18.18885014      12.21372675      10.64392636
Bi       7.61360764      11.71615264      17.53670757
Bi      13.37617083      15.06442372      15.07939304
Bi      10.38226504      14.41601169      10.17086588
Bi      17.39836622      13.33512278      13.34367773
Bi      13.73697287      14.25075660       8.74162800
Bi      10.18690568      12.55177201      13.60647349
Bi      12.15421676      12.34996844      15.98189628
Bi       6.75009658      15.79264851       8.69683521
Bi      13.22469167      12.26628007      11.08174921
Bi       9.85031541       9.73210640      16.66541372
Bi      14.68422627       9.38502582      12.33738145
Bi       7.38961119      13.30752757      14.91961059
Bi       9.56241004      15.88820519       7.58106605
Bi       6.51079426      12.85286717       9.44817001
Bi      10.62867848       9.31631300      12.03888505
Bi      17.56445964      10.33058364      12.93026329
Bi       9.26983557      11.42075488       9.11770169
Bi       9.33646285      12.88817141       6.53698714
Bi      12.35215700      13.56716058       6.06739548
Bi       8.39340081       8.96672044      14.10518536
Bi      14.82501905       8.15975268       9.48740099
Bi      15.54678947      11.82672206       9.12220503
Bi      12.12787501       8.09591387      14.46609566
Bi      14.41736114       6.45044708      13.24580538
Bi       9.63221670       6.78799988      15.80638876
Bi       8.63622516       9.12625786       6.98459838
Bi      13.33904730       5.62267435      10.51084946
Bi      10.06558139      10.35555834       4.66929259
Bi      12.39632614       9.67443316       8.59124444
Bi      10.43869067       6.49155901      10.74911828
Bi      12.91816130      10.59621079       5.72064038
Bi      10.84148294       7.15353469       7.84266878
38
Properties=species:S:1:pos:R:3 config_type=qcd gap_pre_relax_energy=-137.51654353818606 gap_pred_energy=-138.2557891585078 gap_fmax_final=0.0008040828205897422 gap_converged=1 pbc="F F F"
Bi      15.78295162      11.96271702       7.06232224
Bi      10.38233308      18.09063371      11.62400473
Bi      12.39231608      16.76961981       7.79290574
Bi      14.93976512      13.64685887       9.51946113
Bi      11.54940201      13.84536693       8.21879213
Bi      13.19918939      17.74596555      10.54908514
Bi      16.74166413      13.10759287      11.89909218
Bi      18.02359655      10.48619049      11.00715370
Bi      13.54104765      10.97027029       8.85033051
Bi      11.87442830      17.29768714      14.15483525
Bi      16.28659379       9.48519409       8.71682523
Bi      15.84368015       9.07898895      12.62216129
Bi       9.04843336      15.28758501      11.71768060
Bi       9.44334838      16.17427481       8.30271323
Bi      11.50749325      13.52287129      11.66492583
Bi      13.75015693      15.42929451      12.46382826
Bi       9.59464077      10.63256185       8.76479048
Bi      14.50611110      11.67111449      13.58788675
Bi      16.39980106      10.12347978      15.41595859
Bi      12.95466463       5.13733497       9.36830385
Bi       9.09020899      13.96426455       6.29191262
Bi      12.61473485       7.79862276      10.86782148
Bi      10.89627865      12.77466689      14.74314227
Bi      14.33060440       8.44845395      16.92794768
Bi      12.38552399       8.96305981      14.64563022
Bi      10.08469894      10.31322545      11.71426888
Bi       7.52392368      12.92943538       8.73607319
Bi      10.90076533       5.36861149      11.57026781
Bi       6.61692452      10.02239908       8.55313053
Bi      10.47731855       6.81775746       8.95281848
Bi       9.53632684      15.44499775      14.83686254
Bi       7.51355212      12.07112046      12.17647287
Bi      12.03604017      10.46400693      17.27151577
Bi       8.29039167       7.95228956      12.61950400
Bi       5.92695918       9.52668782      11.49580943
Bi      10.37516172       7.97317862      16.78175360
Bi       8.01174017      11.94929300      15.14348643
Bi       7.78112381       8.90622156      15.52242032
39
Properties=species:S:1:pos:R:3 config_type=qcd gap_pre_relax_energy=-142.0343550074922 gap_pred_energy=-142.5711212594614 gap_fmax_final=0.0009103721391866723 gap_converged=1 pbc="F F F"
Bi      11.53160969      14.91240457       7.77528338
Bi      13.98320521      11.87072924       7.03967365
Bi      12.28432631      12.60798612       9.52128368
Bi      16.00043113      13.89439671       8.10948935
Bi      14.21286607      16.37232432       7.95997193
Bi       9.69521563      16.21886501       9.83813354
Bi       7.95220711      12.76478856      10.35586308
Bi       9.81360590      11.29665958       8.45945066
Bi      11.36420913      18.37608778      11.16377288
Bi      14.27694001      17.45872364      10.80924676
Bi      15.66125396      12.53402736      10.82385651
Bi      10.69414524       8.59362405       9.61624315
Bi      18.36829584      13.11326064      12.07309651
Bi      15.61317676      10.11272155       8.93589722
Bi      10.19959869      14.17946762      12.04312516
Bi       6.90859493      10.41019848      11.92810254
Bi      14.12649924      15.11831325      12.74436363
Bi      13.63289839       8.44200675      10.55189718
Bi      11.02541169      16.95268448      13.84296417
Bi       9.27476532       8.56772174      12.27981845
Bi      10.42966490      10.91848208      13.93577414
Bi       7.77979052      14.72445701      13.88962154
Bi      18.08155572      11.81864748      14.81951259
Bi      13.81273812      10.23149747      13.08864185
Bi      16.56928974       9.09271241      13.98191491
Bi      15.10606643      12.63304154      15.46467159
Bi      17.13178047      15.79514208      12.92140781
Bi      12.84757798       7.98678029      14.88758199
Bi       7.49453644      11.82267737      14.78862062
Bi      13.86742623      17.58180188      14.57453301
Bi      10.64403863       9.34200146      16.49384952
Bi      18.08279958      15.05391183      15.69552844
Bi      15.32322882       8.19924337      16.61853775
Bi       8.88918190      14.04318440      16.63329543
Bi      11.77027194      13.71506295      15.75938511
Bi      13.18724032      16.14760255      17.14965894
Bi      15.83864835      14.72097125      17.66570029
Bi      14.84541292      10.89833457      17.94222939
Bi      11.87530245      11.67326425      18.01380937
39
Properties=species:S:1:pos:R:3 config_type=qcd gap_pre_relax_energy=-141.10414242839954 gap_pred_energy=-141.95539120975627 gap_fmax_final=0.0009443694086422814 gap_converged=1 pbc="F F F"
Bi       9.26679085       8.83647615       5.50040528
Bi      13.76005045       8.78373483       6.69260338
Bi       9.42850086      11.88739993       5.26248489
Bi       6.71702993       8.99920845       7.14516225
Bi       9.93601168       5.44330933       8.39714410
Bi      10.22802775      14.59276352       7.80786815
Bi      11.96272239      12.34350119       6.85904671
Bi      10.96775757       8.38114776       7.98466797
Bi       7.32203679       6.80401887       9.20327805
Bi      15.46374112       7.98886747       9.06611058
Bi       7.74752453      11.82285547       8.04162146
Bi      12.18021283      16.69691401       8.98707947
Bi      14.52287102      14.22767041      10.36455318
Bi       6.68309783      10.70390041      10.84154768
Bi      10.40609803      17.95222437      11.14586578
Bi      10.23489146       5.50062758      11.38178121
Bi       8.40540002      15.64102635      11.14685826
Bi      10.52767574      11.46241597       9.34468273
Bi      14.79256952      10.93545212       8.66158544
Bi       8.86898535       8.39196607      11.25939970
Bi      13.29943482       9.25187363      10.95498261
Bi      15.89000916       9.83350444      12.45285006
Bi      11.27446826      14.37925482      10.82502684
Bi       6.95190682       7.79619306      13.64185314
Bi      13.19214982       6.17242401      11.85861756
Bi       8.65918828      11.98666975      12.76686862
Bi      16.31925804      12.86703440      12.45615203
Bi      12.12725382      17.63305212      13.60287017
Bi      14.73067892      16.25214484      12.67197967
Bi       6.96796381      10.54686428      14.89883635
Bi      11.18895917       9.12749824      14.10192374
Bi       8.11240025      14.78862820      14.00647918
Bi      11.99374371      12.86003046      14.02131236
Bi      13.11996083       6.89025523      14.80375872
Bi      15.16578733       9.14470475      15.32410204
Bi      10.86055865      15.37253200      15.24141601
Bi       8.84125604       8.39909707      15.92291488
Bi      14.68942274      14.02591121      14.73267907
Bi      12.70934934      10.79259275      16.13737624
40
Properties=species:S:1:pos:R:3 config_type=qcd gap_pre_relax_energy=-145.19206558163793 gap_pred_energy=-145.9282511363824 gap_fmax_final=0.000979364370794416 gap_converged=1 pbc="F F F"
Bi      12.44900077      16.38223702       9.57461372
Bi      15.57861663      15.41176662      11.49682670
Bi      10.19220203      14.84110043       8.20957650
Bi      15.09584752      15.37590581       8.45766078
Bi      13.01716809      15.36678974      14.61788833
Bi       7.51298684      15.19688741      12.29331967
Bi       9.57253534      13.43636507      10.79454283
Bi      12.82442643      14.20343815      11.75953478
Bi      14.33663271      12.65675406       7.24515611
Bi       9.93486038      12.23152294       5.37111781
Bi       7.99739261      14.85519083      15.31890659
Bi      16.60062519      12.85390396      12.93040397
Bi      15.67991415      10.60981193       8.97777948
Bi      10.76710205      13.83567585      15.93432187
Bi      15.20002372      13.46883179      15.61601622
Bi       7.03121720      12.00291895      15.86243291
Bi      11.13149219      11.45632309      13.92365932
Bi      11.44298156      11.98273760       7.96378497
Bi       7.57793282      11.05220962      13.01761866
Bi      14.41386340      11.19278015      11.79992252
Bi      13.47018740      10.95993574      15.90624573
Bi       5.53331702      12.94281747      11.74005420
Bi      13.23529127       9.08515152       7.66625101
Bi       7.35212683      11.59014016       9.58627031
Bi       7.10027835      11.97700924       6.49698630
Bi       9.56870789       8.94027473       9.30510433
Bi      15.34122895       9.32679343      14.11945950
Bi       9.45912605       9.35135309       4.42630945
Bi       9.49556533      10.16652484      16.07160914
Bi      11.59635336       8.56826715      12.14300790
Bi       6.25827754       8.31808295      12.90639451
Bi      13.46363087       6.10266695       8.41243953
Bi       8.12160769       7.49071658      15.16552295
Bi      13.54019028       6.83919154      13.84027154
Bi      11.71731922       7.58696482       5.33959793
Bi       7.87390657       6.82576716      10.73906742
Bi       7.61757040       9.01800247       6.85353632
Bi      14.26666155       7.60090186      10.99958726
Bi      10.46794925       6.38690754       7.86157012
Bi       9.89467100       6.24016819      12.98641920
40
Properties=species:S:1:pos:R:3 config_type=qcd gap_pre_relax_energy=-145.2653703216211 gap_pred_energy=-145.85530510035179 gap_fmax_final=0.0009485302451945007 gap_converged=1 pbc="F F F"
Bi      19.40018817      10.44540423      16.92430247
Bi      15.84406037       7.41567823      14.67465393
Bi      14.71741498      11.57311173      19.69897005
Bi      18.51184231      11.20453759      14.05710386
Bi      17.64009815       8.68061609      12.56537788
Bi      18.79555572      13.27763676      17.92531986
Bi      16.59865474      11.84440641       9.27572057
Bi      12.87519914       9.78047500      18.09058182
Bi      16.43759331      10.06090013      16.26467172
Bi      18.43190434      13.44762198      11.18647944
Bi      12.98898428       7.99791669      13.64174713
Bi      18.70952411      14.95873935      15.30892904
Bi      15.86459349      13.24253928      17.34865158
Bi      11.82833701      12.34950177      19.29121125
Bi      13.54560310       8.66411336      10.66094836
Bi      16.38980750      13.77582111      13.57792241
Bi      16.49929171      16.29245944      16.90183617
Bi      15.46485114      10.65794017      11.82385040
Bi      13.86890156      15.03235777      11.14267316
Bi      13.18001640      10.70941375      15.10892039
Bi      13.98271192      13.27153351       8.67529578
Bi      12.20334590      12.37406095      12.35064209
Bi      14.26801560      16.72596858      14.74275541
Bi      17.63838585      16.22645495      12.10396909
Bi      11.95222175      11.08109324       9.62239068
Bi      12.23833454      13.96106120      16.68814136
Bi      10.33384553      11.84565002      15.67164533
Bi      15.33116409      19.02516968      13.01109041
Bi       9.42966226      13.30122043      13.12883853
Bi      11.00295569      16.62895156      17.76768710
Bi      13.39629748      18.39070092      17.05569121
Bi      12.36578246      16.86514996       9.25339909
Bi      10.99329524      15.92026815      13.55855127
Bi      10.10331226      17.53316931      11.15916589
Bi      15.25304554      17.70043309      10.28003689
Bi       9.09019669      17.19068417      15.49957009
Bi      12.07290067      20.95173587      15.95502435
Bi      13.16608858      21.18291327      13.12515920
Bi      10.40509950      20.39173520      12.08973931
Bi       9.33443384      20.17437210      14.94485241
41
Properties=species:S:1:pos:R:3 config_type=qcd gap_pre_relax_energy=-149.4091677253295 gap_pred_energy=-150.0406977305715 gap_fmax_final=0.0009931889866265585 gap_converged=1 pbc="F F F"
Bi      12.64333730      13.82446718       8.98568568
Bi      15.25853268      10.95684768       7.01038647
Bi      12.28386009      10.59204816       6.38143184
Bi      11.17906296      13.42084543       6.32481924
Bi      15.37106037      13.90118473       7.71704289
Bi       8.52900007      13.51835401       7.82705075
Bi      12.11557411      16.76027176       9.20696274
Bi      15.33855397       9.73426030       9.83934753
Bi       9.27132728      15.87520308      10.07797390
Bi      10.15013126      13.50366818      11.74637880
Bi      17.35657791      14.05003564      10.03060265
Bi      17.78028612      11.17053465      10.94917907
Bi      13.50710391      11.40505427      11.50902165
Bi      10.67020827       7.75887722      11.47704594
Bi       8.88494677      11.31376559       9.89662383
Bi      11.53704118       9.98049143       9.47680866
Bi      13.66323172      17.30631544      11.96226020
Bi      13.07177753       8.86656890      13.03395713
Bi      17.69060037      16.33467867      13.99631345
Bi       8.85377780      17.64434244      12.71587444
Bi       8.06629241      13.05414788      13.90348062
Bi      15.09937670      17.54648691      14.95016187
Bi      10.48329309      13.15281783      15.80278860
Bi      16.44645498      11.62695833      13.69075870
Bi      11.36931454      16.17141904      13.52003591
Bi      15.83408016       9.06864682      15.34516080
Bi      15.62276777      14.67836743      12.46070815
Bi      10.24318562      10.07567746      13.44439951
Bi       7.23868164      15.94818804      14.66110651
Bi      18.92193558      12.13017922      15.39932373
Bi      18.47861883      14.86812083      16.55259580
Bi      13.72131880      11.16663651      15.94034740
Bi      13.70026849      15.04617095      15.92805535
Bi       9.14725593      15.60097289      17.04944921
Bi      11.62970992      17.26201138      16.39116433
Bi      12.02640775       9.44055520      17.86710327
Bi      15.87705377      14.67427314      18.14561122
Bi       9.68076154       8.65517234      16.10985996
Bi       9.50061233      11.10448265      17.87286195
Bi      17.71750579      10.28433715      17.48885689
Bi      15.23887012      11.72632065      18.51116084
41
Properties=species:S:1:pos:R:3 config_type=qcd gap_pre_relax_energy=-148.86717500002152 gap_pred_energy=-149.7039866735242 gap_fmax_final=0.0008775416941198041 gap_converged=1 pbc="F F F"
Bi      12.62460451       8.57114653      15.63426319
Bi      16.26520522      13.57231350      12.01905133
Bi       5.98374691      12.32449972      11.57843086
Bi      15.69357688      11.81970725      14.44875304
Bi      11.26063888       6.49459695      11.70836968
Bi      11.29993948      17.71213318      12.34194991
Bi      11.86311790      14.00470660       9.33517868
Bi       5.09264830       8.95184564       9.40282968
Bi       6.34653341       9.43558424      12.33857273
Bi      12.22699250      15.62909291      14.38210356
Bi      13.57936056      12.21692282       5.13075098
Bi       7.50094947       8.08580132       7.80967707
Bi      16.39583549       9.17687478      13.13443952
Bi       8.53277366      12.16069468       9.88629637
Bi       8.99256245      15.06710382       9.11108888
Bi      17.09951136       7.79251809       8.71864339
Bi       9.08985633      13.83108651      15.51759735
Bi       5.51993318      10.36685495      15.25305417
Bi       6.61816969      10.99053399       7.78506044
Bi      10.12561482       7.31281265      14.39829958
Bi      11.40872101      13.96984292       6.31047391
Bi      11.65798022      10.09420007       9.02396301
Bi      17.35110836      10.28684692      10.48355809
Bi       9.31450850       8.52651894      10.26522118
Bi      13.07658915      16.71643063      10.06101851
Bi      11.16039066      10.01240506      17.92697189
Bi      15.58935249       9.02977770       6.40463416
Bi       8.67660122      16.23471406      11.87849506
Bi      10.40989182      13.75979789      12.85454293
Bi      14.66882744      16.11904748      12.56570492
Bi      15.74849611      11.94435491       7.25959672
Bi      11.01660038      10.96848219       6.14738508
Bi       6.06198742      13.20039934      14.53138799
Bi      13.00717311       7.83625472       7.57770036
Bi      13.56604924       8.60468182      11.87660307
Bi      14.65634215      11.77092757      10.06906072
Bi      12.64284412      11.29441443      14.20105044
Bi      14.54682533       6.54082571       9.85430630
Bi       8.41954658      10.93609696      16.50068667
Bi       9.34134057      10.17133891      13.70871751
Bi      11.81640925      12.71496778      16.81366720
42
Properties=species:S:1:pos:R:3 config_type=qcd gap_pre_relax_energy=-151.79889377803494 gap_pred_energy=-152.97603692106497 gap_fmax_final=0.0008911418169389775 gap_converged=1 pbc="F F F"
Bi      17.07061983      12.78583647      10.10816774
Bi      17.74264280       8.58156069       9.17807076
Bi      15.12535399       7.04466108       9.46573201
Bi      15.97169025      10.17063453      11.19565901
Bi      15.45055143      11.51266279      14.07526043
Bi      13.01573388       7.84991607      12.42022711
Bi      14.51821052       6.07965251       6.58171103
Bi      15.77913111      14.11831535      12.54099335
Bi      15.08897369      12.92464262       7.78275366
Bi      14.28123987      15.59467578       9.22048743
Bi      12.01003112       5.50949093       8.33591626
Bi      11.15223402       8.05580305       9.83934558
Bi      15.37221743       9.33581067       7.42040443
Bi      13.30786801      10.86879245       9.20507159
Bi      12.44669495       9.59066217      15.86519485
Bi      12.86915290      14.10558289      11.42920771
Bi       9.84765528      13.79918660      15.22790802
Bi      12.62718384      10.83725111      13.16518219
Bi      10.98333731       7.20291589      14.64570098
Bi      11.41025265      16.79255314      11.14466131
Bi      11.76029567       6.97409844       5.72349211
Bi      10.21035850      11.15220863      17.27718311
Bi      11.77687089       9.94358699       6.57165732
Bi       8.03938594       9.75773772      15.75470518
Bi       9.70878371      13.10965674      10.27526962
Bi       8.72770044       8.11520907      12.73311424
Bi      11.30622209      13.50847438       7.55196614
Bi       9.18099064      16.50170538      13.71161779
Bi       8.19911413      10.05274949       9.52494722
Bi       8.91363235       6.03131324      10.43167180
Bi      11.72207083      16.52521223       8.00094522
Bi       6.85991706      14.28710962      15.24403602
Bi       9.20807981      11.44207236      13.24461383
Bi       8.53236712      13.33642555       6.27078491
Bi       5.70258978      11.57397854      16.35136114
Bi       8.72367333      10.33655079       6.57704831
Bi       5.65386834       7.94594619      13.02480122
Bi       8.50779162      15.87338779      10.86031102
Bi       6.27801772       7.62560577      10.03825396
Bi       6.97517565      12.79848155       8.94644343
Bi       6.51658678      12.76941887      12.51008387
Bi       4.55215756      10.70488875      13.65446202
42
Properties=species:S:1:pos:R:3 config_type=qcd gap_pre_relax_energy=-152.7717365838411 gap_pred_energy=-153.51400310836016 gap_fmax_final=0.0009374821232141276 gap_converged=1 pbc="F F F"
Bi      13.35428693      16.62105267       7.33058119
Bi      11.92917455      11.49193355       7.25643156
Bi      14.24297338       9.66402976       8.18099389
Bi       9.06998337      10.93618700       8.29576288
Bi      14.46052735      18.18140496       9.68650934
Bi      15.67971493      15.57657405      10.95624496
Bi      13.40357385       7.97670226      10.56968885
Bi      15.85014224      11.86677177       9.56200818
Bi      10.53415848      15.83319192       7.99852785
Bi       8.32667974      13.25672584      10.19051856
Bi       9.88908907       8.58317249      10.00754015
Bi      12.20107017      18.38626166      11.77830598
Bi      11.89783548      10.40580564      11.71827160
Bi       9.87610830      16.67837378      10.90472616
Bi      17.59006927      10.18260286      11.53259977
Bi      12.82179286      13.93897768       8.83787515
Bi      16.01276187       7.70799083      12.15382825
Bi      10.92574081      13.85956278      11.69182824
Bi      14.34742553      12.73537351      12.04947285
Bi      18.35726679      16.12389962      12.28241198
Bi       8.51189907      12.28869232      13.03813843
Bi      11.76907921       7.00078843      14.02250991
Bi      13.58716500      16.06941858      13.34803146
Bi      10.45119193      16.58390445      14.52756565
Bi      14.78509655      18.46047553      14.78655493
Bi       9.48363202       8.92114925      12.95883357
Bi      17.75900679      17.82184879      14.75128582
Bi       8.17689291      14.57112770      15.08414318
Bi      16.47454784      11.65835410      13.97468983
Bi      18.78536123      13.72283331      14.13484689
Bi      14.15392482       8.81614861      14.52084470
Bi      12.48937616      11.60779054      14.94097105
Bi      17.57034781      15.28659432      16.41400998
Bi      10.93567124       7.62742267      16.89017478
Bi      14.16181438      17.08068224      17.47476297
Bi      11.13159118      17.01574780      17.49070201
Bi       9.89375066      10.53231784      16.34145317
Bi      10.66566364      14.04005558      16.76782011
Bi      13.82542237       8.24872295      17.60580838
Bi      13.79657813      11.32061447      17.78850206
Bi      14.62887621      14.42087445      16.06480727
Bi      11.00595955      11.71106513      18.90264010
43
Properties=species:S:1:pos:R:3 config_type=qcd gap_pre_relax_energy=-156.08885264795637 gap_pred_energy=-156.9532265603418 gap_fmax_final=0.0009482775468110907 gap_converged=1 pbc="F F F"
Bi      14.11667732      12.49343076       7.89645483
Bi      13.06498722      14.81158415       9.58843467
Bi      10.41151642      16.35698400       9.22757103
Bi      14.81107746      16.92668225       8.22864518
Bi      12.19549996      10.43753366       9.01558126
Bi      15.35322830      11.98673509      10.70051314
Bi       8.72351784      11.49860346      10.16832186
Bi       9.88740626       9.37022075      12.01758134
Bi      17.98601340      13.57345364      10.16966418
Bi      14.59896277       8.99691017      10.21830626
Bi      17.23622203      16.57304847      10.05700752
Bi      15.14385879      16.38717258      12.35199323
Bi      14.24525644      18.74746291      10.61246431
Bi       9.99857955      15.41347976      12.11402653
Bi      11.18541213      18.74029175      10.91105973
Bi      11.38847106      12.11903647      11.56196002
Bi       8.40999305       9.42886762      14.61779049
Bi      17.14114980      18.02999812      13.94837900
Bi      17.65888019      13.79242879      13.15024634
Bi      19.49707160      16.29540399      13.15478341
Bi      13.27307015       9.53505642      12.94757141
Bi       7.39943317      13.60295804      11.93744327
Bi      10.56213045      17.97941447      13.74367401
Bi      20.84310466      15.24763771      15.70597566
Bi      10.23752037      13.63306771      15.07001016
Bi       7.54299653      12.36292469      14.71617238
Bi      16.47922850      16.97027602      16.72180207
Bi      15.93917108      10.85583691      14.15233550
Bi      20.29924499      12.65929533      14.21699379
Bi      13.27802836      17.46496067      15.08827286
Bi      14.97741379      14.43405527      15.88032331
Bi      10.65678648       9.20266224      16.67939873
Bi      12.96615994       7.67758162      15.49363054
Bi      18.76592966      15.27215556      17.90823844
Bi      12.74805449      11.46643158      16.15498584
Bi       9.47246052      15.91831151      17.01068240
Bi      18.54733724      10.86080681      15.94406193
Bi      15.13268408       9.53447005      16.75755838
Bi      12.09272757      17.18569348      17.88358823
Bi       9.55259198      13.10915717      18.08445115
Bi      14.06010093      14.97131283      18.68082879
Bi      16.95538722      12.80575700      17.67240147
Bi      12.36508761      12.47127992      19.03924674
43
Properties=species:S:1:pos:R:3 config_type=qcd gap_pre_relax_energy=-155.66217812595272 gap_pred_energy=-156.5219933985198 gap_fmax_final=0.0008648113741765214 gap_converged=1 pbc="F F F"
Bi      17.09544293      19.20680158      16.92685652
Bi      14.17112242      19.86772688      17.04391490
Bi      16.21178675      17.59840321      19.39783290
Bi      14.09872569      14.46210417      20.44323567
Bi      13.07929742      21.59146483      14.72418797
Bi      17.32996345      15.06578855      17.93546269
Bi      16.98641384      16.62432639      15.28218957
Bi      11.41902259      19.03072660      14.60959000
Bi      15.14937089      12.90182060      18.03185523
Bi      13.25164579      17.14331202      19.13422490
Bi      15.46743533      17.97252626      12.24728805
Bi      11.43101186      13.06604854      20.09260791
Bi      13.33082805      17.02555181      16.05751376
Bi      13.03802950      19.86693127      12.22107892
Bi      18.91338755      13.68434282      14.98450803
Bi      10.66642575      14.76512407      17.66219317
Bi      18.81705135      10.60886069      15.46307136
Bi      11.65837165      11.10718069      17.72666463
Bi      14.08142289      15.26817432      12.85305263
Bi      12.92234036      13.34087490      16.04096327
Bi       8.80028126      12.23416933      17.55697284
Bi      11.16832334      16.10136523      12.37146861
Bi      19.28238508      17.21938922      13.23863077
Bi      16.95096220      13.08429033      12.56501751
Bi      14.85648468      15.98689097      10.03310648
Bi       7.78711073      12.06879088      14.70491390
Bi      15.82827782      11.09533924      15.05751202
Bi      12.00360070      17.24157890       9.69219917
Bi      20.79982147      14.64494428      12.73587715
Bi      10.49543652      12.44598337      13.23945097
Bi      19.18002676      10.95774833      12.48264215
Bi      13.67305286      11.91270811      11.94297840
Bi      10.33206061      14.71309231       9.78359699
Bi       9.25663552       9.65259523      13.46358623
Bi      18.38374944      15.40960369      11.00058634
Bi      12.72043979      12.89508491       9.18246750
Bi      17.39086178       8.70846016      11.37441565
Bi       8.84954962      11.27341359      10.94282983
Bi      15.50002382       8.27108722      13.69796600
Bi      10.89705236      10.49877261       8.75335383
Bi      15.50508564      10.48908309       9.79552454
Bi      12.71375377       8.94908471      12.54465475
Bi      13.11376704       8.55627294       9.56979515
44
Properties=species:S:1:pos:R:3 config_type=qcd gap_pre_relax_energy=-159.67643360994188 gap_pred_energy=-160.4358253597873 gap_fmax_final=0.0009384058262087411 gap_converged=1 pbc="F F F"
Bi      19.82985279      16.53619360      12.71236104
Bi      15.71923721      15.72480447      13.33144168
Bi      15.44902853      18.79301456      13.47776740
Bi      16.57102832      17.10273094      10.60094453
Bi      15.34875994      14.90477089       8.84264780
Bi      12.23959284      16.33309598      11.93089410
Bi      13.93570955      18.71330331      10.89829920
Bi      13.95724771      13.04629247      10.88974308
Bi       9.33810522      14.36501451       9.59170234
Bi      10.93591094      10.26456536       9.81702420
Bi      18.23603173      14.09754154       9.22506434
Bi      11.96542777      12.93660936       8.67194728
Bi      15.45161109      11.96858303      14.31614430
Bi      12.06704955      10.51302340      12.67463263
Bi      13.59593235       7.90778317      13.02538795
Bi      15.81702476       8.35469272      11.04572669
Bi      17.53026944      10.48958643      12.49464540
Bi      15.21481418       9.13616471      15.34681384
Bi      18.44387473      13.82509027      12.27386331
Bi      19.44585996      14.22357684      16.47283519
Bi      14.88962868      10.62868007       9.22572895
Bi      21.08385840      14.03897275      13.90688898
Bi      17.88174975      11.05337725       9.48100970
Bi      11.46262117      18.49688652      13.84023226
Bi       9.75027582      17.27579718      10.41062787
Bi       7.84500398      16.10187584      12.52000592
Bi      11.69192371      12.27906445      15.79960817
Bi      17.79446775      11.62426535      16.18349897
Bi      12.86112352       9.71619348      17.10093787
Bi       8.70246729      17.72660018      14.96604469
Bi       8.61452268      11.81907733      15.46719763
Bi       9.40373820       9.37920392      13.84193340
Bi       8.48210069      11.06144415      11.49679370
Bi       9.72290161      13.67399269      12.54320813
Bi       9.71830302      14.64543446      19.20359388
Bi      13.86363660      11.68296171      19.24077006
Bi       9.89217357      11.77271040      18.25077549
Bi      12.66367041      15.37642362      19.62048326
Bi      10.63631962      15.96178856      16.51633094
Bi      14.22289935      14.08975668      17.33547240
Bi      16.63684954      12.79757636      18.74316034
Bi      18.03204557      16.65939882      15.19016739
Bi      11.97142068      18.02672758      18.27869686
Bi      13.55626001      17.34768329      15.66927701
44
Properties=species:S:1:pos:R:3 config_type=qcd gap_pre_relax_energy=-159.63980464027665 gap_pred_energy=-160.67832225900582 gap_fmax_final=0.0009190839420570492 gap_converged=1 pbc="F F F"
Bi      19.81778864      12.00431257      13.72540953
Bi      17.29110951      12.05658454       9.97179752
Bi      15.36227102      16.68755716      12.25015122
Bi      17.54869874      13.68536595      12.58851700
Bi      19.59767516      15.90036964      13.26016763
Bi      16.12563210       9.57747630      11.27818296
Bi      17.61258710      18.17602746      13.64451519
Bi      18.74354252      11.80637826      16.54365047
Bi      13.85619925      13.38757769       6.85981487
Bi      18.01007750       9.67764876      14.45510496
Bi      15.24944598      19.44117126      10.85041240
Bi      15.33229034      10.92730670      13.77670135
Bi      14.20761964      11.93162421       9.58779988
Bi      13.50060229      15.00753375      14.76766748
Bi      14.36606580      18.18854823       8.19335759
Bi      18.39256875      16.31465092      15.97555523
Bi      16.41663057      13.88682481      16.25217217
Bi      14.85015453      17.55712873      15.79092963
Bi      14.60923073       8.05394426      14.56440712
Bi      13.42026720       9.00931635       9.18826300
Bi      15.22128452      15.27991784       8.82486334
Bi      13.43755715       8.99155143      17.19645604
Bi      14.26142602      17.00477840      18.79211428
Bi      11.07760009      14.38264178       7.55283774
Bi      10.55553089      10.22136403       8.79523027
Bi      15.72174072      14.37615880      19.20580937
Bi      12.82730925      19.77537067      15.23757456
Bi      11.74427947      10.73720597      13.12563720
Bi      11.16261530       8.46466271      11.16111058
Bi      12.83112765      11.98500055      16.66855342
Bi      12.79308757      18.48073992      12.48078350
Bi      11.57869259       8.22323985      14.92833226
Bi      10.88968400      14.43622989      20.05626417
Bi      11.83570533      15.88583698      17.46492134
Bi      13.27997508      12.58434406      19.59354746
Bi      11.06858257      12.88726274      10.21429971
Bi      12.43545513      16.26791137       9.59729269
Bi      10.48823440      18.56890172      16.76347417
Bi       9.87304016      10.91100566      17.09535643
Bi       8.98119172      11.37560173      14.24734056
Bi       8.57388443      13.28033023      18.45763100
Bi       8.88026897      17.04964352      14.69610532
Bi      10.93729844      15.66520673      12.94918399
Bi       9.46481945      14.11859415      15.60155163
45
Properties=species:S:1:pos:R:3 config_type=qcd gap_pre_relax_energy=-163.33514282665337 gap_pred_energy=-164.35116280056766 gap_fmax_final=0.0009698440196332264 gap_converged=1 pbc="F F F"
Bi      11.87368806      19.84983623      20.77296268
Bi       8.68368607      15.04204018      14.56664188
Bi      13.31493512      20.68838845      18.22532302
Bi       9.79365913      10.98352527      13.02021867
Bi      12.51427368      20.31678352      13.57288038
Bi       9.60323096      17.89270678      14.37488132
Bi       8.40961346      14.18684795      17.55709575
Bi      10.33529043      16.54187149      17.63145672
Bi      14.82271909      19.25813600      20.41450518
Bi      11.25476109      18.20841537      11.75644089
Bi       8.52018192      13.45219015      11.84615839
Bi      10.27576051      11.81033877      17.59227621
Bi      11.31392747      16.84344762      20.58239275
Bi      16.09502548      18.79814917      15.34694003
Bi      11.07847436      14.66705362      10.74570123
Bi      11.65981019      11.64150388      10.66255705
Bi      14.75174096      17.63998317      10.68762842
Bi      12.38056965      13.13795956      19.40648896
Bi      15.37851349      19.95821071      12.61742917
Bi      13.21982905      18.53257650      16.06333141
Bi      11.81646387      15.80436929      13.53925207
Bi      13.12281476      15.17586216      17.23815042
Bi      14.24320508      16.21632268      19.93680330
Bi      17.53124117      16.29859195      10.92193862
Bi      11.67237418      12.38039001      14.98144550
Bi      14.98970732      14.86487899      12.13462036
Bi      15.27508608      12.04931173      15.80504001
Bi      14.34492866      14.21328825       9.07947898
Bi      16.97488155      15.82709347      14.78784263
Bi      14.96418107      11.61234671      18.81055133
Bi      16.50763257      14.09230371      17.79904580
Bi      14.28818933      11.57808899      12.25748614
Bi      17.36454862      14.59468325       8.42656431
Bi      20.43140361      13.87784525      12.08966878
Bi      20.04344518      16.23750380      14.00525041
Bi      17.74822891      12.49027242      12.66632544
Bi      18.94443700      12.87228083      16.21049693
Bi      16.98818868       9.53596734      16.11986058
Bi      15.05264897      11.24091863       9.35339051
Bi      19.71902717      10.19196504      17.41388981
Bi      21.51337622      14.57560761      16.11911263
Bi      18.52165586       9.63673443      13.43212743
Bi      18.05765843      11.89308768       9.67956842
Bi      22.42313663      12.53916628      14.03995742
Bi      21.25994920       9.82925542      14.78692232
45
Properties=species:S:1:pos:R:3 config_type=qcd gap_pre_relax_energy=-163.56313460628442 gap_pred_energy=-164.4374088547932 gap_fmax_final=0.0009835769723152334 gap_converged=1 pbc="F F F"
Bi       8.16238897      11.66448768      15.67432648
Bi      11.60311260      10.35618807      16.33784189
Bi       6.70086436       7.98686161      15.39197319
Bi       5.46058609       9.44250054      12.97723547
Bi       9.47883587      14.35157577      16.36332368
Bi       7.63040480       5.51731204      13.86930341
Bi       9.69308153       7.63495693      14.81904813
Bi       6.04874872      12.31484153      13.63291363
Bi       7.59879726      15.76554026      12.22891566
Bi      12.22304266      13.25995575      17.14671252
Bi       7.65328766       6.21035736      10.91767632
Bi       8.00901989      12.89919036      11.17274074
Bi       5.37301286       9.71534617       9.08557058
Bi       9.36220126      10.05676025       7.78200117
Bi       7.71622594       9.27993420      10.99703644
Bi      12.19432041       7.80881607      12.16734087
Bi       5.84034745      12.74944236       9.06613109
Bi      14.27715992       9.24930133      15.40958970
Bi      10.51165879       5.30729212      11.47013338
Bi      14.75790612      14.19094720      15.69860741
Bi      10.20792136      15.83680299      13.82640173
Bi       8.59992940      15.47265889       9.38873357
Bi      10.15400120      10.44195200      13.64121156
Bi       6.77129737       9.38334232       6.32841508
Bi       7.67532271      12.27958985       6.61508984
Bi      11.95486384       5.68678978       8.81515930
Bi      16.09525459      11.60810082      14.88174836
Bi      16.63964879       9.75791587      11.46912024
Bi      14.28886522       6.03118274      10.68540587
Bi      11.59800578      13.67454736      12.08773694
Bi      12.60527533       8.83688162       8.88390863
Bi      14.05368378      15.22983355      12.87406827
Bi      13.19853684      11.98435578       9.44936586
Bi      15.62940912       8.22737081       9.00832967
Bi      11.46384422      16.10636622      10.25303932
Bi      16.50341924      14.91395212      11.03956907
Bi      14.08010167      10.66233355      12.69263053
Bi      10.44695801       9.68645473       4.96316835
Bi      13.32165142       9.13306443       5.86637546
Bi      17.48037812      12.23392585       9.92230436
Bi      15.65813110      14.91727949       8.10800274
Bi      12.79852367      15.83512551       7.54492029
Bi      15.56965840      11.93785457       7.57645492
Bi      12.49343802      11.93827020       5.08680279
Bi      11.21441971      13.21998344       7.58115758
46
Properties=species:S:1:pos:R:3 config_type=qcd gap_pre_relax_energy=-167.22596621797462 gap_pred_energy=-168.07863005975352 gap_fmax_final=0.0009333183174320094 gap_converged=1 pbc="F F F"
Bi      16.11456470      13.66362994       7.51494963
Bi      16.39729222      11.38431404       9.58334920
Bi      16.75445637      13.94547860      14.00428483
Bi      17.42537624       9.06263803       7.85573160
Bi      16.15658632       9.35651893      14.30507466
Bi      15.61865048       6.72232050       8.52984054
Bi      14.45465260      12.50811142       5.22515898
Bi      13.45922022      14.42717584       8.84476178
Bi      15.19358316       8.28257331       5.97921824
Bi      15.73204676      11.84807601      15.97280033
Bi      12.65175001      14.83142669       5.96813654
Bi      14.74392232      16.11794093      14.69813789
Bi      13.38399993      11.26413392       9.48238074
Bi      13.69241788       7.76505991      15.14896193
Bi      14.74791833      11.78954846      13.06649103
Bi      12.01426170       5.26639453      11.26944900
Bi      12.94424078      10.27370135       6.62486338
Bi      14.52439246       6.13021012      12.70933924
Bi      13.19743434      16.51876885      12.05224573
Bi      13.44443273       7.82283254      10.38831876
Bi       9.80168468      10.39467192      18.15244161
Bi       9.79856884      13.75501305       5.89557323
Bi      12.20157749      11.73608749      16.81676848
Bi       9.66645400       6.85316942      12.80401710
Bi      12.26119715      14.44335684      14.02596475
Bi      10.19219964       9.23839976      11.03323387
Bi       9.91583753      11.78050522       8.22924851
Bi      10.44042334      16.34877604       9.65818504
Bi       9.67934427       7.21902382       8.79949204
Bi       8.14665437      15.52626291       7.74842462
Bi      11.80242517      10.03486872      14.34029957
Bi       9.10242997       9.29513982       6.65572195
Bi      10.04295797       8.12021081      15.96845170
Bi      11.04717476      17.27278632      14.07751778
Bi       9.38120303      12.83550219      16.42278420
Bi       9.49211868      13.96094767      11.44632976
Bi       6.60734989       7.62703789      12.78930065
Bi       7.11155247      13.25622195       9.67019943
Bi       8.41938641      11.52032549      13.79740663
Bi       6.83080002       8.16532699       8.31037185
Bi       8.73875195      16.80987511      12.14123695
Bi       7.26073021       9.13102870      15.33788594
Bi       4.81233298      14.00715715      11.61306720
Bi       6.84155510       9.95852846      10.83085641
Bi       4.13219116      11.08310432      11.95287112
Bi       5.53669833      12.56061702      14.17365458
46
Properties=species:S:1:pos:R:3 config_type=qcd gap_pre_relax_energy=-166.58387619365985 gap_pred_energy=-167.36786102615017 gap_fmax_final=0.00092673895784763 gap_converged=1 pbc="F F F"
Bi      19.12597422      10.59214711      14.12086339
Bi      19.13004827      12.06587382      17.73202431
Bi      14.97796166      11.55563518      14.59057151
Bi      16.69035998       9.19286235      15.30099707
Bi      16.52721578       9.88471315       7.61383164
Bi      17.50857250      13.51544942      19.90491644
Bi      16.48877509      10.94314636      18.71039106
Bi      20.35401477      15.06027602      14.21730946
Bi      18.06658806      10.12365713      11.26288011
Bi      18.03837740      13.25643180      15.14476067
Bi      11.30258465      15.79691935      17.16910911
Bi      14.08690889      17.22987264      17.71698424
Bi      11.30035742      12.05850299      19.62154628
Bi      11.76622129      12.43592796      16.57504311
Bi      18.86205049      17.60955826      14.94965089
Bi      15.21434989      13.66165834      17.89789404
Bi      15.38190728       9.40321123      12.42876765
Bi      18.21680062      13.02291431      10.35587560
Bi      18.70909999      16.52560719      12.11976602
Bi      13.72867600       9.42773599       6.51042881
Bi      14.55804156       8.09262450       9.09546159
Bi      13.70385728      13.63187713      20.58743406
Bi      16.39842308      12.96059973       7.94466068
Bi      15.75754804      19.59609317      15.04294745
Bi      11.05490684      15.05184211      20.06372378
Bi      16.33460656      14.54678839      12.22928757
Bi      11.23321136      18.44058563      14.43806785
Bi       9.42537954      15.26269825      13.77874871
Bi       8.93314971      13.06881948      15.83813480
Bi      15.54469844      16.22161359       9.75183816
Bi      12.22894911      10.07539331       9.13414458
Bi      15.97506422      16.56030387      15.28185862
Bi      11.67460630      12.63535666      12.71527020
Bi      12.22726047      10.19224417      14.39844462
Bi      13.05068922      19.82674761      16.41397035
Bi      15.19568216      19.45946783      12.03707150
Bi      13.96054055      11.98740611      10.63900640
Bi       8.75993715      17.39967574      17.92967732
Bi       7.66340401      11.21318181      13.70235380
Bi       7.53839035      13.65450893      11.92886000
Bi      13.70060556      14.15838694       8.47323889
Bi       7.23634077      16.74718373      15.39085378
Bi       9.43042531      11.37570290      11.20545292
Bi      12.17891564      19.60123958      11.73722543
Bi      13.60318748      16.89853340      12.06673282
Bi       8.60526892      19.42895879      15.68185662
47
Properties=species:S:1:pos:R:3 config_type=qcd gap_pre_relax_energy=-170.77893666690352 gap_pred_energy=-171.74584906060812 gap_fmax_final=0.0009158786692403297 gap_converged=1 pbc="F F F"
Bi      16.80064046      16.51097776      20.16909612
Bi      12.02503574      16.38076466      18.71905668
Bi      15.82186629      13.66753538      19.84112732
Bi      11.52238372      15.92569415      15.76711623
Bi      12.12414360      19.83597959      17.16296081
Bi       8.98872340      14.79028303      17.04990911
Bi      10.18054578      18.55654943      15.13981942
Bi      15.88444719      20.90749389      16.67684807
Bi      11.01256241      13.44220333      18.88515086
Bi      19.48553058      15.63990778      18.99732782
Bi      11.64011151      18.24780426      12.42568664
Bi      13.32587561      22.14579916      15.56652642
Bi      14.93168522      15.85075279      17.87108242
Bi      12.42890413      12.12823191      16.45528054
Bi      11.05014177      13.61955775      13.03094119
Bi      14.33884853      18.47143820      15.45630843
Bi      18.30578253      12.95332433      17.88841729
Bi       8.53130109      12.91704267      14.68310288
Bi       9.65721738      10.73917124      16.43611896
Bi      14.30823198      20.53326503      13.10697332
Bi      19.93152648      16.79739270      16.20866604
Bi      14.85751319      10.73235808      17.58707248
Bi      17.20812627      21.28687336      13.95910312
Bi      16.13107876      12.85770443      15.70521150
Bi       9.02503206       9.23438345      11.50730936
Bi      17.19842367      16.61692477      14.94190749
Bi      14.02027625      16.17807379      12.63315248
Bi      20.26043061      13.82106959      15.47075091
Bi      10.06672941       8.59606434      14.31465877
Bi      18.32096602      18.55462917      13.05805955
Bi      16.00331649      17.87451579      11.15636412
Bi      16.08391904       8.45954918      15.86260779
Bi      10.09387855      12.06590078      10.62479753
Bi      12.52509318      10.21553669      13.48340114
Bi      18.12658602      10.53416364      15.04220143
Bi      10.11458633      15.80914593      11.17961486
Bi      14.81843896      12.66149812      11.92182798
Bi      12.85981188      15.86653188       9.85317147
Bi      11.94204910       9.55230566      10.57977695
Bi      13.07460410      12.76555572       9.49946128
Bi      18.23060545      14.07835196      13.07359241
Bi      14.52312733       8.00508366      13.27368473
Bi      18.55596485       9.62190438      12.10849755
Bi      18.19231348      15.80708565      10.50947051
Bi      15.72488705       9.73655335      11.04039383
Bi      19.42259848      12.24564800      10.87253328
Bi      16.78373655      13.22101807       9.66345930
47
Properties=species:S:1:pos:R:3 config_type=qcd gap_pre_relax_energy=-170.71424747761006 gap_pred_energy=-171.77658759880683 gap_fmax_final=0.0009670364772217092 gap_converged=1 pbc="F F F"
Bi       8.00650174      12.31838877      10.58001536
Bi       9.32143865      15.04068391      10.31213410
Bi       7.02217223      12.68823111      13.42769211
Bi      11.59576593      14.61153437       8.35688408
Bi      10.49876988      18.11664638      12.83471170
Bi      11.45461413      18.39760893       9.90961839
Bi       8.40128629      15.30222954      14.28026331
Bi      12.86987957      11.99990631       9.17527039
Bi      10.13497464      10.26002367      11.57794900
Bi       8.74705725      13.71627577      16.86812425
Bi      12.60253808      11.82949658      12.22288026
Bi      11.08289666      15.09516985      12.81863454
Bi       8.99098435      10.58688096      14.38630936
Bi      11.23833148      12.39668698      15.72235550
Bi      12.70693410      20.10174535      12.05086838
Bi      13.75474041      16.38429340       9.54954862
Bi      11.10835066      17.34173494      16.32576462
Bi      15.67287582      13.10313818       9.88952480
Bi       9.84900937      15.79100380      18.73678341
Bi      13.41552525       8.87582027      12.35461704
Bi      16.91097224      18.42098058      10.00841487
Bi      13.56082920       9.73870568      15.22895874
Bi      12.25910973      11.56290863      18.47047976
Bi      12.10654604      14.20282868      20.03593290
Bi      14.87535450      14.97368070      12.13561756
Bi      13.08011187      18.38269064      18.47893150
Bi      16.26028735      10.66004567      11.80934655
Bi      13.12321330      15.22143285      15.71410528
Bi      15.85375394       7.67902101      14.42000561
Bi      17.80349630      15.77489329      11.28495036
Bi      14.56413105       7.50808733      17.12033858
Bi      15.20400840      18.40850394      12.62059858
Bi      16.35845817      12.37762158      14.30485175
Bi      15.19968729      11.99149500      17.87934386
Bi      14.83014801      18.08084083      15.97382355
Bi      19.19883799      16.07049830      15.07405574
Bi      14.38962833      15.64432439      18.50827657
Bi      19.28069939      10.15501205      12.19362493
Bi      18.05666215       9.84177838      15.09464310
Bi      19.05768518      13.04756321      13.13123071
Bi      19.26123050      18.43540700      11.96077703
Bi      16.71918951       9.46202342      18.08497433
Bi      17.43700114      19.99924602      13.92997346
Bi      18.30320596      14.02126682      17.19281824
Bi      17.84644150      18.48970120      16.48727463
Bi      20.43262273      12.37911170      15.87262848
Bi      21.13450972      15.09530001      17.18654207
48
Properties=species:S:1:pos:R:3 config_type=qcd gap_pre_relax_energy=-173.34830590853917 gap_pred_energy=-174.84691463106387 gap_fmax_final=0.0009632850386291281 gap_converged=1 pbc="F F F"
Bi       7.48543554       8.19133608       7.86772712
Bi       6.78891130       6.84666500      10.50156845
Bi       8.07683346      11.16663977       8.54669696
Bi       9.06660087      12.12341084       5.77616542
Bi      10.52543183       8.83120319       8.33586519
Bi      11.51716611       5.54420593      11.25811239
Bi       5.64937448       8.90274369      12.45710074
Bi       7.01801628       8.13004246      15.11665620
Bi       7.24197007      14.20489762       9.03555831
Bi       9.47787980       7.71264299      11.73690268
Bi       9.36370996       6.30054848      14.40366137
Bi      11.38039279      10.15726085       5.73522175
Bi      11.08342283      14.33836241       6.71618011
Bi      12.25733537       6.28195305       8.38727020
Bi       6.08545171      12.43281502      14.10036615
Bi       7.62472639      14.26923841      12.07602515
Bi      10.20895586      13.97780433       9.69672132
Bi       7.83438569      11.11643880      11.99931705
Bi      12.90062548       8.17456956      12.19648198
Bi       8.56583317      10.91995374      15.23001755
Bi       9.75775900      17.06699539       7.03175746
Bi      15.62978699      12.84986799       7.63988697
Bi      12.91476931      11.37422776       8.09123775
Bi      10.50876341       8.13590696      16.56584908
Bi      13.77058124      15.06675991       8.72452953
Bi       9.46072677      14.05306538      15.11096580
Bi      12.07913375      10.48835114      15.18123876
Bi      12.67186432      17.72443453       7.43754479
Bi      13.89457975       8.70176080       9.37922116
Bi       9.56778650      16.99077814      10.21589210
Bi      15.80315115      10.30410424      11.90631995
Bi      15.77870920       7.23500924      12.46656792
Bi      15.19526510      13.87025935      11.82718164
Bi      17.27274148      12.39872535      10.15093291
Bi      12.92236112      11.95871359      17.70061115
Bi      11.86979885      13.68529627      13.09879258
Bi      13.52314607       8.45762241      17.01194367
Bi      15.65422062      16.61343523      10.61570344
Bi      15.85799470       7.10392847      15.49390331
Bi      11.76703495      19.17984036       9.94552792
Bi      11.52830263      14.67694854      17.32410870
Bi      13.67802351      18.35779035      12.13085150
Bi      11.31119609      16.62852300      13.08749324
Bi      18.21764813      10.99402450      13.68239991
Bi      15.19295271      12.01463283      15.54156471
Bi      17.25656550      13.86835586      14.07416012
Bi      17.20815713       9.71751784      16.26844310
Bi      13.61020385      14.91607515      15.17743753
48
Properties=species:S:1:pos:R:3 config_type=qcd gap_pre_relax_energy=-173.50379969217687 gap_pred_energy=-175.00796313889586 gap_fmax_final=0.0009853679653732074 gap_converged=1 pbc="F F F"
Bi      19.25961996      13.55497600      10.94582641
Bi      21.07432160      13.72633119      13.35815460
Bi      16.03188235      10.44125298      10.91370131
Bi      19.04032399      10.46273379      11.18134550
Bi      19.10468509      16.13136358      13.32533771
Bi      17.85388329      19.66628786      13.03642065
Bi      19.05674223      11.25056282      18.56439030
Bi      18.14573980      16.66961709       9.27621391
Bi      19.26119770      18.41042696      15.38547126
Bi      15.35937796      10.70688704      13.86541026
Bi      14.77156154       8.18148798      17.62396550
Bi      18.65574789      11.90659512      13.90337792
Bi      19.24556212       9.65581210      15.97555603
Bi      12.81300591      16.13097854      11.01632923
Bi      12.58238385      13.16300191      11.17126380
Bi      18.21057531      15.62623845      19.41171590
Bi      15.72955991      13.45933156      11.23826578
Bi      15.33513450      20.87741811      14.31448917
Bi      16.33668336      17.32090759      11.73582278
Bi      16.66828582       8.22363453      15.22987416
Bi      16.20051739      14.48367189       8.43804049
Bi      20.05506849      14.00749029      17.64810240
Bi      17.67033017      14.60339433      15.78581972
Bi      15.85727775      18.65814181       8.95318019
Bi      16.92818980      17.42466764      17.28001849
Bi      11.96380494       8.23216839      16.39229704
Bi      16.58216648      13.01143456      18.49200547
Bi      12.49137436      12.45567702      14.14270078
Bi      12.52536177       9.46689701      13.67847428
Bi      14.11141374      11.12250363      17.45505240
Bi      13.30605118      19.56699753      12.46152904
Bi      12.09207598      11.61412179      19.65905389
Bi      13.83929517      16.48371701       8.20243552
Bi       9.87961401      12.80624687      16.30713358
Bi      14.07303119      16.93666236      18.93907437
Bi      13.85035564      14.82835163      16.78919788
Bi      10.08094569      10.11114397      17.94526073
Bi       9.39593185      17.37673345      11.48667972
Bi       9.74399101      14.64121747      12.93240909
Bi      10.87270785      16.62606687      15.44995307
Bi      11.43165968      14.42749582      18.54003971
Bi      14.46776322      18.00569106      14.86656660
Bi      10.51940448      19.08306336      13.72701700
Bi       7.05166162      14.29713614      16.50716447
Bi       6.63069792      14.33626762      13.50046973
Bi      12.49686230      18.74052070      17.05596887
Bi       6.88557495      17.36809894      13.25298413
Bi       7.98444695      17.24242540      16.16228889
49
Properties=species:S:1:pos:R:3 config_type=qcd gap_pre_relax_energy=-178.07958937312333 gap_pred_energy=-179.42961547514884 gap_fmax_final=0.0009394100882841898 gap_converged=1 pbc="F F F"
Bi      13.53778951      10.08940646       5.20452124
Bi      10.45364254      10.15378896       5.44086145
Bi       8.54945596       5.09363912       9.32037611
Bi      16.48337644      13.19221242       6.31657689
Bi      12.11444741       8.15089000       9.22308897
Bi      14.61065101       8.24799081       7.35294806
Bi       9.18489728       7.94408752       8.11315617
Bi      17.77295617      11.69702217       8.63580655
Bi      11.26616626       5.48534048      10.60622742
Bi       9.18629034      14.54324233       6.48336828
Bi      13.46713681      12.71312148       6.72904807
Bi      11.15558430      13.08997797       4.66230598
Bi       4.85654887       7.56090548      11.73645540
Bi      10.47565143      11.41857578       8.19717161
Bi       9.01097819       9.36331168      10.87560082
Bi       6.81793724       5.26709447      11.81696193
Bi       7.61548456      12.15132518       7.34107486
Bi      12.51458980       8.28903402      13.27985839
Bi      18.09505602      14.53475999       9.80284280
Bi      15.38535643       9.99891055       9.77756137
Bi      15.59946563      15.39230979       8.25662672
Bi       6.11649320       9.51265618       9.76214794
Bi      10.79671858      14.98236797       9.39404703
Bi       9.35214827       6.75545496      12.66312520
Bi      13.59938128      14.05757395      10.14638782
Bi       5.08978257      12.13775198      11.02821308
Bi      15.07353197       8.38483053      15.02497796
Bi       7.17903695      13.93492258       9.80028535
Bi       9.68490048      12.84059231      11.50054426
Bi      16.98129974       9.70485378      13.01224789
Bi      15.33107928      12.32462523      12.68795986
Bi      14.36517083      16.56346750      11.63883263
Bi       5.43552796       8.97766461      14.39818334
Bi      16.88906437      14.95216567      12.55287301
Bi      12.48290482      10.59832893      11.25558055
Bi      10.24033141      10.26304538      14.14200938
Bi      10.43873509      16.94165919      11.86827905
Bi       6.99151706      11.32461137      13.30504101
Bi       8.14611276       8.36356930      15.60672146
Bi       6.82316767      12.96344835      15.89636547
Bi       8.29528420      15.06620393      13.14904210
Bi      15.30262480      10.67609721      17.05926566
Bi      12.42734998      16.18598111      13.96872752
Bi      17.26683911      11.93647409      15.09398844
Bi      13.10491426      12.76062762      16.86857657
Bi      12.34004384      13.09618589      13.88320592
Bi       7.31426249      10.52458233      17.64999436
Bi      10.40572865      11.05196190      17.07158286
Bi       9.73953788      14.10830117      15.76630687
49
Properties=species:S:1:pos:R:3 config_type=qcd gap_pre_relax_energy=-178.06029059307565 gap_pred_energy=-179.32614141039028 gap_fmax_final=0.000817739646451585 gap_converged=1 pbc="F F F"
Bi      15.52841263      14.11525782       9.47362564
Bi      12.51339184      15.93692071      10.38856145
Bi       9.86489540      13.18534956      11.23649976
Bi      17.73686376      16.17276000       9.39307954
Bi      16.76682341      11.37797565      10.02580834
Bi      10.61287654      17.44258369      12.28791698
Bi       8.19560929      15.52802200      12.14044594
Bi      19.06038660      12.16468769      11.83697099
Bi      14.29089664      11.29972600      11.90803830
Bi      16.82514308      18.33872844      11.34739229
Bi      19.92648715      14.99626612      11.13462903
Bi      13.79944699      18.66610648      10.79501677
Bi       7.27712731      11.65227158      11.56000511
Bi      11.39269779      12.50505969      13.87344921
Bi      10.91016235       9.53585511      14.00951196
Bi      14.73178910      17.67032068      13.53889969
Bi      21.15285521      18.52137908      13.42586914
Bi      21.90559942      15.78719449      14.41452351
Bi      14.44673900      14.41891022      12.27146180
Bi      11.74655239      16.22759184      14.86110023
Bi       8.71537694      15.79386631      15.09059488
Bi      18.93828700      16.39152278      13.71583312
Bi      16.26486336      10.25120793      13.94862506
Bi      17.37107941      13.06200187      14.19287086
Bi       7.96707651       9.19160050      13.21000149
Bi      22.24142183      16.00058538      17.45783819
Bi       9.73983096       9.67469851      16.79953409
Bi      13.95124455      20.34958581      14.92982841
Bi      17.91119931      18.54775717      16.43110704
Bi      20.52502188      20.16134795      15.90218363
Bi       6.62696365      11.57194735      14.51722896
Bi       9.03848348      12.71953723      15.98213564
Bi      19.13005807      11.88972139      16.41365103
Bi      11.78966994      18.82612514      16.37075858
Bi      13.96719805      13.09327949      15.92629793
Bi      19.42047529      14.92644571      16.92592689
Bi      16.01991474      20.74516338      17.17076744
Bi      21.54294158      18.80364538      18.40528125
Bi      15.76592994      15.87508875      16.33568144
Bi      14.65771313      10.16630123      16.73991484
Bi      11.96690177      10.56851487      18.62380964
Bi      11.91983883      13.61565965      18.00628980
Bi      17.07854627      11.01945716      18.46002113
Bi      18.34472674      18.52404857      19.41284901
Bi      13.65046987      16.92397948      18.15381497
Bi      18.89884217      15.54879832      19.90310833
Bi      16.46296453      14.09873067      18.79931608
Bi      15.19937731      19.10391425      19.57681399
Bi      13.76703701      14.57071094      20.23332056
50
Properties=species:S:1:pos:R:3 config_type=qcd gap_pre_relax_energy=-181.71604925767159 gap_pred_energy=-182.78360918061856 gap_fmax_final=0.0008911558558995609 gap_converged=1 pbc="F F F"
Bi      11.32170081      16.98386330      10.48633014
Bi      11.46040098      19.85695883      11.57205882
Bi      10.74337712      12.19822548       8.64307145
Bi      14.34999448      20.84370717      11.55465453
Bi       9.79478049      15.38529313      12.64758035
Bi      14.97460582      15.37483220       8.01503620
Bi      15.54742203      18.41037731      10.15291626
Bi       9.80744034      10.56269874      11.00187924
Bi      13.10574721      10.64506325       7.53295114
Bi      14.02478183      15.89451875      11.03233156
Bi      11.53076299      13.06217103      11.48005418
Bi      12.57007895      20.88229006      15.86365315
Bi      11.16465906      18.72444358      14.34456176
Bi      13.63262358      16.81190245      14.25627631
Bi       9.58388116      16.21088084      16.53711354
Bi      17.85543032      15.21997354       8.89473886
Bi      14.40808281      11.78168831      12.89967101
Bi      14.08944194       8.58083970       9.55497814
Bi      15.25767969      21.06830401      14.45038130
Bi      16.43575541      12.75810610      10.23791223
Bi      18.06908670      17.15592954      11.30532083
Bi      11.64295055      14.65742618      14.92933409
Bi      10.43529480      17.81498176      19.03720486
Bi      11.74696278       8.22842038      11.41525803
Bi      15.53411119      12.43461605       7.34897930
Bi      12.22734261       9.91878898      13.95973001
Bi      16.60320047      18.33841172      14.73119201
Bi      16.26337522      12.32888019      15.47024157
Bi      13.08889799      19.12594902      18.34517894
Bi      17.05669063      14.95741968      13.17483870
Bi      10.29796847      11.47925175      16.51870439
Bi       8.88334933      13.70680904      18.22325950
Bi      17.86956610      13.21012178      18.29567017
Bi      19.32919420      13.30896123      11.97499843
Bi      14.10057794      16.36171045      17.54766438
Bi      16.14925027       9.83835941      11.39951009
Bi      13.03699502      12.62707256      17.52326010
Bi      19.49948736      15.88450779      14.86262344
Bi      18.77572586      11.20213665      14.11017042
Bi      12.11735530       9.78314503      18.28099219
Bi      13.74178660       8.34594385      16.11566306
Bi      16.67964866      17.97750639      17.74264633
Bi      20.98559202      13.22901174      14.61336696
Bi      19.03450826      16.03641255      17.87678374
Bi      12.57191968      16.06903476      20.32353330
Bi      11.34025539      13.31714737      19.95309540
Bi      16.41385824       9.68475972      16.86010166
Bi      17.86338590      11.93265051      21.09279596
Bi      15.38546952      13.41954206      20.03749154
Bi      15.61365235      10.38506057      19.78834689
50
Properties=species:S:1:pos:R:3 config_type=qcd gap_pre_relax_energy=-181.81316001489353 gap_pred_energy=-182.79149122803597 gap_fmax_final=0.0007261378146122062 gap_converged=1 pbc="F F F"
Bi      20.05713711      11.10345509      11.21192355
Bi      17.45473677      11.59447951       9.60175701
Bi      17.64699041       9.34834227      11.64985660
Bi      18.71341228      15.38153621      10.02499682
Bi      20.13050748      12.97662484      13.65110916
Bi      20.81366722      15.56849931      12.18132143
Bi      17.30698522       9.44434278      16.43962177
Bi      19.55804601      15.77534847      16.38186163
Bi      19.52063620      17.65954809      14.03274777
Bi      16.52620280      13.78752600      11.39909480
Bi      17.32351278      17.99648812      10.73421767
Bi      18.47520621      12.10055356      17.28180600
Bi      16.17669695      10.84095718      13.91222402
Bi      14.88172951      14.44956933       8.99303398
Bi      14.12608624      10.04841682       9.83578651
Bi      12.78647897       9.58400071      16.51015308
Bi      13.50886352       8.47644560      13.79646161
Bi      15.73453185      11.27680815      18.30116626
Bi      14.74168757      17.50574235       9.25482293
Bi      16.44953261      17.27915390      13.63116077
Bi      17.51435843      13.85496796      14.95384847
Bi      17.76091613      17.06599421      18.39214052
Bi      14.87631963      19.80903033      13.00571280
Bi      13.88376575      12.39678319      16.10958086
Bi      15.71996474      18.90184456      16.70979440
Bi      10.98263316       7.35759019      12.41186888
Bi      13.30648754      11.24127064      12.55648847
Bi      11.82567157       7.93017739       9.60831016
Bi      13.53026847      16.54347990      16.42675184
Bi      12.16852857      14.43945974      10.43856436
Bi      14.64590847      19.40125070      19.60347906
Bi      15.52479352      14.95076864      18.56979514
Bi      12.92437598      17.78928422      11.69131187
Bi      13.71740364      15.09677145      13.12826812
Bi      11.61237220      11.58490038       9.27980491
Bi      13.29755619      20.58831640      15.46953051
Bi      14.52287297      16.65830632      20.90653150
Bi       9.25437262      11.88036566      18.10606378
Bi       9.82546108       9.92244971      15.87904154
Bi       9.75828878       9.79857622      11.01735715
Bi      10.96790166      14.59788609      14.86731133
Bi      12.26321719      17.61430576      19.08747789
Bi       9.50263633      12.03098854      13.71794598
Bi       9.65405341      18.59168391      13.00682087
Bi      11.67310592      13.86706128      17.84880870
Bi       9.25899729      15.64717669      12.36611439
Bi      11.09046111      18.49674405      15.73795505
Bi       7.47670600      12.96762574      15.91215285
Bi       7.18245740      17.11149062      14.05992275
Bi       8.51801899      15.83813371      16.47864491
51
Properties=species:S:1:pos:R:3 config_type=qcd gap_pre_relax_energy=-185.3637571021806 gap_pred_energy=-186.35205629563086 gap_fmax_final=0.0009786507503163682 gap_converged=1 pbc="F F F"
Bi      17.69736851       6.04408372      11.71967618
Bi      15.53298999       9.45433998       8.79739567
Bi      16.46502515       5.30062404      14.43129190
Bi      18.53694275       8.83491115      12.71526899
Bi      13.10392808       7.68869285       8.18958269
Bi       9.08649256       9.16491786      10.00261934
Bi      11.62564420       5.64302262      11.02465909
Bi      12.64090671      10.26123919       6.57576136
Bi      16.80889512      12.05930852      12.50876819
Bi      10.23221306       5.21580347      13.76976977
Bi      17.50075589       7.96275363      15.48700863
Bi      15.72148727       8.38029829      11.65762293
Bi      11.98585659       5.35441466      16.26132303
Bi      13.45720697      11.73660707       9.15085156
Bi       9.60996584      10.57618872       6.66312154
Bi      13.70638487       6.69916977      14.08646096
Bi      14.53069243       9.26198369      15.49688240
Bi      12.01730373       8.62692185      10.92504500
Bi       8.64607330       6.11901127      10.31301089
Bi       7.54355716       8.04088195      12.43222807
Bi       9.20328280      12.66724633       4.44535885
Bi      15.39310484      13.77440808       8.04362104
Bi      10.75080807      14.35279426       6.58643080
Bi       9.61554376      12.56036617       8.98065952
Bi      10.17147290       7.76330985      16.92439609
Bi      10.19248707       8.28300440      13.89432689
Bi       6.66217995      12.45026051       8.08260861
Bi      12.17205833       9.96019713      17.56746540
Bi      16.74732209      14.07465156      14.81832969
Bi      13.47903241      16.24530728       7.21683231
Bi      13.20101032      14.47847485      11.58771024
Bi       8.50291772      16.58836194       6.56072294
Bi       9.50587253      15.53895251      11.05303795
Bi       6.75059658      14.08638076       5.50635100
Bi      14.04281283      12.93696892      15.75724813
Bi       8.92983747      11.88883542      12.63744553
Bi      13.91148893      11.38768169      13.14898558
Bi      16.14165013      14.61997238      10.86459681
Bi      10.20487131      12.16903149      16.94099564
Bi      11.10894715      18.37966324       7.46635499
Bi      10.77955575      13.73753159      14.42404373
Bi       8.03195794      10.72667800      15.24093318
Bi       5.32887118      14.47897263       9.85276249
Bi      14.19550455      15.62332277      14.29558234
Bi      10.80505840      18.27073673      10.42824045
Bi       7.29914061      16.76669815       9.43145971
Bi      13.67040598      17.19870759      10.06124733
Bi       8.51587419      15.43955179      15.73961907
Bi       6.25918964      13.31528778      12.87979427
Bi       6.38744312      13.28394850      16.00318246
Bi       7.30233051      16.23984068      13.06362802
52
Properties=species:S:1:pos:R:3 config_type=qcd gap_pre_relax_energy=-188.67773836712365 gap_pred_energy=-189.75057007411112 gap_fmax_final=0.0009818844475113526 gap_converged=1 pbc="F F F"
Bi      22.95914417      17.10493622      14.69052454
Bi      22.62340923      14.10092565      14.39975869
Bi      20.89290103      17.96482027      16.74115123
Bi      21.68098530      13.75523765      11.54228249
Bi      20.80462641      13.56714518      17.57691709
Bi      19.25988745      19.58382130      14.75597675
Bi      20.72437117      18.21672950      12.53025766
Bi      15.85323514      19.19966593      18.94870825
Bi      20.24709067      11.61121867      13.21632649
Bi      17.66067270      10.09464669      15.95322912
Bi      19.85809355      15.24862033      13.46622411
Bi      19.38496245      14.98094094      19.82842509
Bi      17.27724690      15.16964483      11.28197987
Bi      14.80370947      15.89764849      20.95500324
Bi      18.60782869      12.13341771      19.12605808
Bi      18.19471949      18.04570563      10.52814435
Bi      16.64218749      17.90009226      14.55742582
Bi      15.48930176      20.25521891      16.07856492
Bi      18.81513229      15.75401612      16.86295717
Bi      17.83977768       8.71271479      13.17166673
Bi      13.03081796      19.42927634      20.01932656
Bi      16.33057691      19.76742655      12.21659415
Bi      17.62371233      12.75399634      14.39043222
Bi      15.32167985       8.53736671      14.83543316
Bi      14.97759399      12.83993878      20.66148319
Bi      17.56195943      11.39275068      11.68258142
Bi      15.87390196      12.61817726      17.69586707
Bi      15.31893105      16.30640206      17.99913254
Bi      14.28601663      12.62718187      11.37584327
Bi      14.46601896       9.91354452      18.44201347
Bi      14.73740840      15.19178417      13.02688585
Bi      12.43670505      16.55946528      19.15561698
Bi      13.12369163      18.42944574      15.57312198
Bi      13.75797523      19.23242483      10.70761937
Bi      12.05810809       9.73053928      16.61596574
Bi      11.62170788      20.28833817      17.43626779
Bi      13.81179923      16.15796102      10.31300634
Bi      13.24439766      10.65582068      13.83511953
Bi      10.30014930      15.77482298      16.37552728
Bi      12.38575291      11.36177405      20.16905044
Bi      13.17893319      13.06679013      15.66084010
Bi      10.95405983      12.36396863      17.60714995
Bi      11.13936282      16.47985107      13.20290799
Bi       9.22460440      18.41933530      17.45730960
Bi      11.27701343      12.44433199      10.88737333
Bi      11.83348724      19.51009701      13.03180408
Bi       8.66656320      17.98786935      14.41192748
Bi      11.01657977      15.04597676       9.31472809
Bi      10.46517502      13.16500810      13.68347382
Bi       7.30151435      15.55903855      15.52525985
Bi       7.63355097      14.16305850      12.82381008
Bi       8.87108957      16.37919147      11.10506685
53
Properties=species:S:1:pos:R:3 config_type=qcd gap_pre_relax_energy=-192.44057492185016 gap_pred_energy=-193.47878552211705 gap_fmax_final=0.0009878611528727301 gap_converged=1 pbc="F F F"
Bi      11.15821809       9.72571358      11.25271571
Bi      12.04225762      11.09615668       8.71938874
Bi       9.04283886      11.82055932      12.06271248
Bi      15.04345107      10.59472349       8.78613855
Bi      16.60552523      10.09261800      13.68902270
Bi      15.75293325      12.03570425      11.46313703
Bi      12.73423277      10.32747644      14.49733016
Bi      18.28543702      12.19111529       9.70167375
Bi      19.29897562      11.37787232      14.49458334
Bi      14.69187897       8.76836106      18.35619474
Bi      11.88037448      12.76749067      11.38018002
Bi      12.38092976      15.83109532       7.90246028
Bi      10.09818326      14.26948474       9.22229156
Bi      12.11909736      10.28236300      17.50218881
Bi       8.47710477      15.12904109      13.36104458
Bi      16.10780150      13.32811905       7.91873994
Bi      10.16511631      11.90732968      14.95938270
Bi      18.19926371      14.13966933      13.88453130
Bi      18.28993629      17.23426748      11.25571000
Bi      14.50201742      15.01930613       9.94200039
Bi      16.09176042      11.46802480      17.82747329
Bi      14.97473696      12.35722111      14.79342455
Bi      19.07401366      11.11150394      17.50936393
Bi      11.29052153      14.70772917      14.74565728
Bi      19.61773441      14.47641797      11.20401353
Bi      12.86564969      13.20339835      17.74078044
Bi      21.05592985      14.98844891      14.52225569
Bi      15.35851507      17.85281669       9.24678804
Bi       9.29643413      16.64137831      10.91266923
Bi       9.20732942      15.79968987      16.85837440
Bi      14.66701576       9.47412289      21.28710198
Bi      20.78909393      17.73667961      13.07573984
Bi      12.24931152      17.17377423      12.05270747
Bi      16.53951493      17.47242664      13.97538767
Bi      13.43768740      17.04266037      17.12897119
Bi      12.27863440      18.51890768       9.26774777
Bi      16.87985484      11.50591995      20.90304252
Bi      19.17917382      13.86737504      18.88239177
Bi      10.51989892      14.20249523      19.45813778
Bi      13.17958491      12.19242823      20.76218624
Bi      18.59989672      16.81007913      16.79820617
Bi       8.21287491      17.87443076      14.64678619
Bi      21.27673593      15.63995528      17.54231866
Bi      10.66766697      19.28453522      13.52521324
Bi      14.85423357      19.14551076      11.97782007
Bi      18.85900653      19.25055644      14.87715747
Bi      15.21437754      19.96325498      15.59674438
Bi      10.97341635      17.14409631      18.92963609
Bi      15.43476110      14.08040393      21.45541186
Bi      16.34083698      14.98157289      18.60801973
Bi      12.21756965      19.67014939      16.09243154
Bi      15.02548615      19.27233274      18.56953296
Bi      17.46741045      17.72347807      19.44732199
54
Properties=species:S:1:pos:R:3 config_type=qcd gap_pre_relax_energy=-196.33776315773173 gap_pred_energy=-198.0527751921228 gap_fmax_final=0.0009563233827606794 gap_converged=1 pbc="F F F"
Bi      18.56568025      13.88450463       8.87042668
Bi      14.15043247      13.23812206       7.91621712
Bi      17.15284356      11.18680132       9.07178590
Bi      15.92456617      15.49084418       9.05583044
Bi      20.04340737      13.75420714      11.54348722
Bi      18.41953150      17.19152741      11.22634730
Bi      14.36821466       9.20449899      10.68823485
Bi      14.78213955      12.19750331      10.75677477
Bi      11.39703374      14.41992399       7.98793043
Bi      18.41572251       9.31782037      11.10128049
Bi      20.15219949      16.14140852      13.46271834
Bi      14.70000691      18.54918949      10.94577296
Bi      11.50319701      16.74604228      10.05382411
Bi      16.15071269       9.45681328      13.15526159
Bi      20.53601075      10.92761751      12.61361639
Bi       9.04730517      15.27580825      11.11652896
Bi      15.72621305      15.82161485      12.04596751
Bi       9.83599673      12.65306656       9.87958827
Bi      16.80787996      12.40311369      13.59236994
Bi      17.87938130      15.45187813      15.41212436
Bi      11.57516433      12.11427979      12.36265361
Bi      11.50798376       9.07402817      11.79007046
Bi      18.87624898      10.90864872      15.29567809
Bi      12.79741254      20.51617332      12.36910016
Bi      12.24994172      15.60874059      12.87708100
Bi      19.54524107      13.36825833      16.90380852
Bi      17.10712274      19.73985217      12.39485626
Bi       8.78044608      12.08072371      13.57625362
Bi      14.38588110      21.06149355      14.91131070
Bi      15.34889318      13.02309733      16.33536860
Bi      11.47537376       8.33644314      14.73881258
Bi      17.59106742      19.80477856      17.06044139
Bi      15.69596643       9.92291194      16.80481241
Bi      15.86768356      18.48769770      14.90449753
Bi      12.52153904      10.98573749      15.90744682
Bi      18.82738838      17.11435996      17.78422927
Bi      10.79298758      18.43251409      13.09385124
Bi      17.36426023      11.91484894      18.47171370
Bi      12.20064112      20.64569873      17.02287719
Bi      13.27088071      10.23555831      18.75466733
Bi      10.91053276      18.08503754      16.12811126
Bi      13.39384451      16.24369158      16.08539046
Bi      16.20491354      15.83152209      18.81959162
Bi       9.60673541      14.96464208      14.20034299
Bi       9.49152376      10.29616716      15.93024306
Bi      15.69348918      20.39290938      19.35039920
Bi      15.65532174      17.70386267      21.05216405
Bi      13.67071251      13.20795554      19.46944164
Bi      11.44668686      14.28663160      17.32262661
Bi      16.32867020      13.98910263      21.16586900
Bi      13.37656339      18.35185467      18.72452260
Bi      10.95000065      16.38833586      19.55254539
Bi      14.39873042      15.51612452      23.03779545
Bi      11.92052033      14.44285596      21.69418237
54
Properties=species:S:1:pos:R:3 config_type=qcd gap_pre_relax_energy=-196.04217866644802 gap_pred_energy=-197.51320800638007 gap_fmax_final=0.0009663498105930832 gap_converged=1 pbc="F F F"
Bi       6.53383921      14.63016811       8.13372875
Bi      18.85886754      15.15678524      10.14872929
Bi      16.15586497      14.44272065      11.52562459
Bi      14.11189289      18.72779119      12.53896636
Bi      12.10415248      16.86422626      10.92756122
Bi      16.59815784      12.39827867       9.22148990
Bi      13.72035925      14.68953434       9.65254584
Bi      20.49767101      16.29727258      12.48229930
Bi      14.50712892      10.33674984      10.01953852
Bi      17.70889512      19.72930018      13.03039140
Bi       9.08450652      16.00531205       9.12200276
Bi       5.69656813      14.47430296      11.10634174
Bi      20.33889131      12.71940692      11.20460676
Bi      18.42424522      10.41761949      10.54851212
Bi      12.12147914      12.16470705      10.58664190
Bi       7.11960981      11.79645287      11.15897755
Bi      11.63662635      18.49234572      14.31118092
Bi      17.88305505      16.77297916      14.02229145
Bi       7.83186029      12.78290808      13.95309848
Bi      20.69222821      19.40005193      12.37477940
Bi      13.36762892      15.97342349      13.66387189
Bi      15.91888998       7.99326195      13.54325835
Bi      16.08283740      10.92349306      12.60722940
Bi      21.18133813      19.77140323      15.38453749
Bi       7.92924272      16.44790469      11.91269023
Bi      19.09644870      13.20081318      13.98169923
Bi       8.99840593      12.96519964       9.01306638
Bi      18.62429734      21.38203896      15.47589677
Bi      13.04665972       8.94405925      13.88723065
Bi      12.79569731      12.05248778      13.72409478
Bi      18.54756962      10.47466059      15.32492501
Bi       9.97081554      14.85301867      13.58635635
Bi      10.08493456      10.96366683      14.85829620
Bi      15.97586490      11.78528000      16.31932658
Bi      20.64416102      12.38399204      16.44573609
Bi      15.54015965      16.10306192      18.02691393
Bi      15.23113724      18.22790819      15.96296287
Bi      14.89901181       8.84109027      16.26649225
Bi      20.06672905      16.98431553      16.06599568
Bi      12.50246761      18.90180296      17.22872154
Bi      18.26734953      14.05625763      17.53557627
Bi      13.01675607      13.93819844      17.07823667
Bi      16.91036507      20.19197586      17.67156258
Bi      10.13605522      12.74833241      17.34119004
Bi      18.12610480      17.57603752      18.68317440
Bi      11.41630932      16.24037540      18.23347171
Bi       8.98929972      15.36276357      16.41717604
Bi      15.92282533      11.07929193      19.29125256
Bi      13.32633581      12.53271586      19.79893643
Bi      18.18194140      12.85256978      20.31291733
Bi      14.00867787      17.29321523      20.42568895
Bi      16.89336730      17.56303925      21.66374689
Bi      16.91678452      14.62202656      22.46338760
Bi      13.93307046      14.64684384      21.91051141
55
Properties=species:S:1:pos:R:3 config_type=qcd gap_pre_relax_energy=-199.71685600824134 gap_pred_energy=-201.2374395206353 gap_fmax_final=0.000943615191578215 gap_converged=1 pbc="F F F"
Bi      16.25687280      12.91853579       7.68054885
Bi       9.28685016      13.22988144       9.30882017
Bi      13.52233876      11.88088577       8.51742261
Bi      17.28142257      17.97681097       9.51390667
Bi      15.50799927      15.35715781       9.51292026
Bi      10.98608488      17.17138260       8.33486725
Bi      17.78093126      11.28671414       9.83778422
Bi      13.43867496      18.20238764       9.92233492
Bi      13.77357200      12.18459502      11.52347821
Bi      19.91600165      14.29071482      10.81799474
Bi       8.70454810      11.84048428      11.92855835
Bi      19.94425592      17.33954468      10.80027292
Bi      12.11422575      14.49690765       9.45518108
Bi      13.76945303      20.88388738      11.41051206
Bi      15.61474911       9.71419547      11.22141264
Bi      11.39686534      10.68523244      12.72769257
Bi      16.04982681      19.06932908      12.28889593
Bi       9.03068280      16.05715505      10.36256940
Bi      17.03581171      13.67168679      11.68260728
Bi       7.93983632      14.61215270      13.66956725
Bi      14.03364901      16.81441352      12.55658054
Bi      10.64482574      15.60022431      13.00538078
Bi      17.93334110       9.77284235      13.20383023
Bi      20.59770016      14.12885812      13.82340752
Bi      18.60620263      16.46798731      13.41877858
Bi      16.57521816      20.02272888      15.41195649
Bi      12.11753550      12.62430296      14.90796239
Bi       9.16794291      12.75327621      15.85699366
Bi      11.58561941      16.40284940      16.17503002
Bi      18.90829814       9.08150029      17.67638863
Bi      19.12746691      18.37914972      15.77848157
Bi      18.20227659      12.46069245      14.75979947
Bi      12.83797142      19.39798157      13.95407169
Bi      10.04696571      18.62102129      12.87166885
Bi      15.51373974      16.01594657      15.76555699
Bi      20.62441948      10.82775502      15.84030903
Bi      14.44896008      18.46440012      17.02954100
Bi      12.55051647      10.32055568      16.99453450
Bi       9.35010426      14.99873475      17.82223616
Bi      16.60460398       8.66537362      15.73300930
Bi       7.38887689      16.64254093      16.14339785
Bi      15.36526107      11.25831449      16.94008099
Bi       9.62967487      18.76320378      15.84997261
Bi      18.34702460      15.70942911      17.07211068
Bi      15.49833706      18.39664087      19.93215288
Bi      18.90787607      12.11227658      18.08139074
Bi      11.52212346      12.33524671      19.01116450
Bi      13.82251322      14.27543979      17.87226828
Bi      13.27006604      16.35655811      20.11613271
Bi      15.50705358       9.94066553      19.73519665
Bi      17.94506428      16.63307442      19.95848263
Bi      17.85235842      11.38994304      20.98595382
Bi      16.48775186      13.92722447      19.88601513
Bi      13.25904067      11.41440449      21.31646028
Bi      14.40473146      14.19091618      22.03246962
