3
Properties=species:S:1:pos:R:3 config_type=qcd gap_pre_relax_energy=-1.1284742958665472 gap_pred_energy=-1.1298756495879307 gap_fmax_final=0.0008196516982757066 gap_converged=1 pbc="F F F"
Ca       9.32537496       9.75735771      11.06623703
Ca      10.80334680      13.22836155      11.06623703
Ca      13.06998934      10.21299185      11.06623703
4
Properties=species:S:1:pos:R:3 config_type=qcd gap_pre_relax_energy=-2.422741086571225 gap_pred_energy=-2.42282280899565 gap_fmax_final=0.0009920785323764192 gap_converged=1 pbc="F F F"
Ca      10.66971925      12.48426119      12.44661577
Ca       8.83791153      10.36099778      10.05317182
Ca      12.19593345      11.62339361       9.20374829
Ca      11.80050093       9.03541257      11.80052928
5
Properties=species:S:1:pos:R:3 config_type=qcd gap_pre_relax_energy=-3.607743562676913 gap_pred_energy=-3.608258245607791 gap_fmax_final=0.000992628023573601 gap_converged=1 pbc="F F F"
Ca      15.29003081      13.17015213      13.17015213
Ca      13.17043457      16.22324619      13.17015213
Ca      13.17043457      10.11705807      13.17015213
Ca      12.10993034      13.17015213      15.00669239
Ca      12.10993034      13.17015213      11.33361187
6
Properties=species:S:1:pos:R:3 config_type=qcd gap_pre_relax_energy=-4.719873665359072 gap_pred_energy=-4.727925820721064 gap_fmax_final=0.0009243263314894773 gap_converged=1 pbc="F F F"
Ca      12.91275049      13.95077161      12.83089742
Ca      14.30299200      10.81468810      11.30082484
Ca      11.53558998       8.59273179      10.17625207
Ca      11.19312477      12.32952165       9.97976617
Ca      11.15385536      10.71905320      13.24893338
Ca       9.19190073      13.88344697      12.75353948
7
Properties=species:S:1:pos:R:3 config_type=qcd gap_pre_relax_energy=-6.171645389933892 gap_pred_energy=-6.178193973844283 gap_fmax_final=0.000941615266369723 gap_converged=1 pbc="F F F"
Ca      16.39346074      13.15975875      13.15975875
Ca      14.15974723      16.23532862      13.15975875
Ca      14.15974722      10.08418888      13.15975875
Ca      10.54380752      15.06124804      13.15975875
Ca      10.54380752      11.25826947      13.15975875
Ca      13.15887052      13.15975875      14.98230283
Ca      13.15887052      13.15975875      11.33721467
8
Properties=species:S:1:pos:R:3 config_type=qcd gap_pre_relax_energy=-7.2720434686101845 gap_pred_energy=-7.278307182500598 gap_fmax_final=0.0008523220554599253 gap_converged=1 pbc="F F F"
Ca      11.79044126      13.74993691      13.32692241
Ca      12.13368841      12.57797255       9.80892654
Ca      10.56822484      11.18375390      15.82033736
Ca      14.19809375      12.16610397      15.59064838
Ca      12.59517709      10.21520826      12.79488397
Ca      14.74492916      15.76171711      14.37016291
Ca      15.11092614      12.91159648      12.01118138
Ca      13.41483497      15.99002642      10.83325266
9
Properties=species:S:1:pos:R:3 config_type=qcd gap_pre_relax_energy=-8.697689872133033 gap_pred_energy=-8.71657870618765 gap_fmax_final=0.0009120253082491684 gap_converged=1 pbc="F F F"
Ca      11.34146982      12.87651217      12.13759720
Ca      11.91182006      11.46345508       8.75265347
Ca       9.94553769      10.65106351      14.76131861
Ca      13.56522873      11.50713628      14.69505134
Ca      12.16647231       9.32363957      11.92752593
Ca      14.06675848      15.00487082      13.31736918
Ca      14.73659825      11.99125073      11.11457239
Ca      13.08233692      14.96331540       9.60882462
Ca      11.11620584      14.15118453      15.61751533
10
Properties=species:S:1:pos:R:3 config_type=qcd gap_pre_relax_energy=-10.013909748960026 gap_pred_energy=-10.042616379093118 gap_fmax_final=0.0007301387907767259 gap_converged=1 pbc="F F F"
Ca      10.80760756      12.77769691       9.25371890
Ca      14.01386413      14.63609293      10.56464487
Ca      14.12763782      10.71038244       9.63898914
Ca      11.02385580       9.16489546      11.49010871
Ca      12.34229314      12.14504179      12.12977364
Ca       8.63723678      12.00548916      12.26345868
Ca      14.30434666       9.79025941      13.56389986
Ca      10.85395514      15.01933342      12.87035839
Ca      14.19014054      13.71626870      14.48940512
Ca      11.07031225      11.40578961      15.10689252
11
Properties=species:S:1:pos:R:3 config_type=qcd gap_pre_relax_energy=-11.605241769042266 gap_pred_energy=-11.627841298426754 gap_fmax_final=0.0008798002652358848 gap_converged=1 pbc="F F F"
Ca      11.42644585      11.35673951      10.28592838
Ca      16.47756600      13.87369023      12.88529856
Ca      11.35975117      14.02222101      15.89901021
Ca      10.17947625      14.32678806      12.16470345
Ca      14.57851130      11.33348387      15.64036100
Ca      13.79850896      14.22268795      10.03364821
Ca      14.94762207      15.01661681      16.08907770
Ca      13.18704018      13.18692471      13.18705093
Ca      11.11198371      10.63138339      13.93006194
Ca      14.73219439      10.52702482      11.79867937
Ca      13.25919379      16.56073335      13.14447395
12
Properties=species:S:1:pos:R:3 config_type=qcd gap_pre_relax_energy=-13.11634475312417 gap_pred_energy=-13.134707103391854 gap_fmax_final=0.0008243849093330892 gap_converged=1 pbc="F F F"
Ca      14.79748664      16.62902520      12.44370588
Ca      11.32941528      11.66841290      11.05172130
Ca      16.87774282      13.48181062      13.19592072
Ca      11.99081790      13.53564598      17.04216002
Ca      11.40618030      15.56460959      11.09807651
Ca      15.07441541      11.57037687      16.00767951
Ca      14.50205876      13.56417150      10.16930743
Ca      15.15173320      15.39794515      16.05265524
Ca      13.22652897      13.55086176      13.57796587
Ca      11.68858707      10.41495354      14.72538168
Ca      14.67452569      10.43870216      12.37171367
Ca      11.81656225      16.71953902      14.79976646
13
Properties=species:S:1:pos:R:3 config_type=qcd gap_pre_relax_energy=-14.938941201952556 gap_pred_energy=-14.946532951095318 gap_fmax_final=0.0009480862922632094 gap_converged=1 pbc="F F F"
Ca      12.79324882      12.79339464      12.79300871
Ca      12.79315570      12.79333082      16.45752983
Ca      13.80606623       9.67633699      14.43183913
Ca      10.14177115      10.86664975      14.43193318
Ca      10.14159803      14.71953782      14.43194278
Ca      13.80576692      15.90967565      14.43161657
Ca      16.07039207      12.79293396      14.43156162
Ca      11.78040269       9.67638497      11.15448638
Ca       9.51576026      12.79330049      11.15460405
Ca      11.78021321      15.90973205      11.15444733
Ca      15.44427340      14.71945528      11.15437358
Ca      15.44462694      10.86669751      11.15424948
Ca      12.79306409      12.79290956       9.12874687
14
Properties=species:S:1:pos:R:3 config_type=qcd gap_pre_relax_energy=-15.649934434570474 gap_pred_energy=-15.669414190231686 gap_fmax_final=0.0009629896961231166 gap_converged=1 pbc="F F F"
Ca      11.99073127      16.11422432      17.17878826
Ca      15.64874704      16.35970456      16.11119360
Ca      14.34464004      13.23431540      17.95662672
Ca      12.99331206      17.54800132      13.68548050
Ca      15.92422664      15.49267178      12.30537360
Ca      16.83973284      12.89038044      15.02075121
Ca      15.35066121      13.93854075       8.78032555
Ca      14.85103323      11.89139714      11.84786102
Ca      13.39022954      14.00430756      14.55169297
Ca      10.85778333      12.40007025      16.62130445
Ca      12.47150068      14.72088289      10.98999806
Ca      13.87423602      10.48647082      15.32000862
Ca      12.41908102      11.54904247       9.05921505
Ca      11.22118417      11.54708942      12.74847947
15
Properties=species:S:1:pos:R:3 config_type=qcd gap_pre_relax_energy=-17.48470753299345 gap_pred_energy=-17.50409510643105 gap_fmax_final=0.0008616477105244065 gap_converged=1 pbc="F F F"
Ca      11.21674325      15.76316105      11.32062469
Ca      14.56499450      15.84293782      13.29295741
Ca      14.36466667      14.19066865       9.78051752
Ca      10.82810970       9.58942530      12.03872501
Ca      10.95369258      12.41085986       9.41718054
Ca      11.33356096      15.07237541      15.13308294
Ca      14.41332537      16.60717143      16.93376765
Ca      14.16261081      10.38962618      10.22833763
Ca      12.64970166      12.67288813      12.61410660
Ca       9.03017984      12.95288051      12.74075954
Ca      16.36689503      12.55892516      12.67104903
Ca      14.43829777      13.02796613      15.90895831
Ca      14.16285269       9.65750147      13.99199358
Ca      11.01372390      11.22960387      15.53321979
Ca      17.52124953      15.05461325      15.41532399
15
Properties=species:S:1:pos:R:3 config_type=qcd gap_pre_relax_energy=-17.04425480132433 gap_pred_energy=-17.07254886567967 gap_fmax_final=0.0009601620298563408 gap_converged=1 pbc="F F F"
Ca      13.16344073      14.10748198       8.92936856
Ca      12.63741449      10.42468399       9.92980632
Ca      16.65081273      15.49916121       9.78887248
Ca      15.15993852      12.60237732      11.57503065
Ca      11.41995771      13.14101679      12.18194135
Ca      13.78753711      16.13655813      12.09784399
Ca      13.14105080      10.19057378      13.77438812
Ca      17.09781779      15.19898974      13.63468709
Ca      11.04734147      15.94256112      14.86236337
Ca      13.90864873      13.68568741      14.90699672
Ca      10.72994019      12.27480493      15.92281677
Ca      14.56816022      17.13728452      15.78538957
Ca      14.01275819      11.17208454      17.52154397
Ca      16.44744156      14.25861295      17.43624547
Ca      12.71657988      14.71696173      18.14154570
16
Properties=species:S:1:pos:R:3 config_type=qcd gap_pre_relax_energy=-18.88858134734867 gap_pred_energy=-18.910680082611627 gap_fmax_final=0.0007836634117578691 gap_converged=1 pbc="F F F"
Ca      14.73344473      14.09658417      17.07863904
Ca      11.78710911      12.22398653      18.35348560
Ca      12.01296622      16.07883101      18.45117060
Ca      15.62613919      17.44388917      18.42371590
Ca      13.61414148      11.06423178      15.11243047
Ca      11.41566047      14.18271253      15.19410812
Ca      13.68681340      17.27036591      15.23583656
Ca      17.31950219      16.10166130      15.18053808
Ca      17.33503772      12.21109418      14.97176544
Ca      14.70269387      14.16907385      13.35818742
Ca      14.64634824      14.25926787       9.75451231
Ca      11.99440483      12.30598466      11.81361273
Ca      15.64076590      11.07836705      11.72899001
Ca      12.03358237      16.15229416      11.88609274
Ca      15.69434967      17.33583433      11.88171119
Ca      17.95332342      14.22210434      11.77148659
17
Properties=species:S:1:pos:R:3 config_type=qcd gap_pre_relax_energy=-20.229182638880374 gap_pred_energy=-20.26142794545814 gap_fmax_final=0.0006388014501112309 gap_converged=1 pbc="F F F"
Ca      13.86464673      18.05130887      16.18975866
Ca      10.80353523      15.75648468      15.63059671
Ca      11.85267289      18.05349433      12.70369213
Ca      13.86464673      13.86464673      17.10874498
Ca      13.86464673      15.51452314      13.86451626
Ca      13.86464673      15.75694097      10.33073771
Ca      11.05472400      13.86464673      12.24153439
Ca      13.86464673       9.67798459      16.18975866
Ca      11.85267289       9.67579913      12.70369213
Ca      10.80353523      11.97280878      15.63059671
Ca      16.92575823      15.75648468      15.63059671
Ca      15.87662057      18.05349433      12.70369213
Ca      13.86464673      12.21477032      13.86451626
Ca      16.67456946      13.86464673      12.24153439
Ca      16.92575823      11.97280878      15.63059671
Ca      13.86464673      11.97235249      10.33073771
Ca      15.87662057       9.67579913      12.70369213
18
Properties=species:S:1:pos:R:3 config_type=qcd gap_pre_relax_energy=-21.935088798133208 gap_pred_energy=-21.9509642064111 gap_fmax_final=0.0008447682872970821 gap_converged=1 pbc="F F F"
Ca      14.40137590      14.37396880      16.53915106
Ca      15.41444099      11.17306258      17.92769566
Ca      11.68734631      12.40931401      17.94426898
Ca      11.71152279      16.33521736      17.99458250
Ca      15.45344843      17.52591649      18.00847221
Ca      17.74206287      14.33523429      17.96738815
Ca      13.36292868      11.26984288      14.69153615
Ca      11.10592715      14.41762474      14.73169193
Ca      13.40209853      17.53713833      14.77129671
Ca      17.07948528      16.31721321      14.75528783
Ca      17.05483930      12.44337337      14.70574142
Ca      14.40122532      14.42071621      12.88203030
Ca      14.40185415      14.46669419       9.31232154
Ca      11.72957320      12.52532022      11.37364379
Ca      15.39605692      11.30728578      11.35831386
Ca      11.75466786      16.38837547      11.42342917
Ca      15.43694875      17.55917626      11.43828591
Ca      17.68786516      14.41819338      11.39853042
19
Properties=species:S:1:pos:R:3 config_type=qcd gap_pre_relax_energy=-23.761006206530876 gap_pred_energy=-23.784014893442052 gap_fmax_final=0.0009336824479165662 gap_converged=1 pbc="F F F"
Ca      15.50625930      15.48920003      17.31819103
Ca      15.50407061      15.45206942      20.89355863
Ca      16.50256262      12.34322518      18.78230458
Ca      12.83603187      13.55821650      18.79178937
Ca      12.85827062      17.42018318      18.83212111
Ca      16.53852641      18.59238643      18.84740191
Ca      18.79140218      15.45494202      18.81606121
Ca      14.46377838      12.35577625      15.47420475
Ca      12.18739910      15.52642374      15.50527090
Ca      14.49905023      18.67186659      15.53996682
Ca      18.20530362      17.44511107      15.53046581
Ca      18.18365328      13.54113642      15.48981870
Ca      15.50971718      15.52696657      13.69812235
Ca      15.51353458      15.56430296      10.12274489
Ca      12.84265071      13.62589098      12.17980906
Ca      16.50948962      12.41251649      12.17096174
Ca      12.86318729      17.48805834      12.22013672
Ca      16.54306403      18.66144745      12.23585296
Ca      18.79670373      15.52493572      12.20587284
20
Properties=species:S:1:pos:R:3 config_type=qcd gap_pre_relax_energy=-25.14516614275493 gap_pred_energy=-25.16468270347772 gap_fmax_final=0.0008249224493012536 gap_converged=1 pbc="F F F"
Ca      11.97697547       8.59585400       7.77066278
Ca      12.43591359      12.52320488       7.68247192
Ca       9.40426183      14.49863685       9.19839359
Ca      13.97443884      10.35180249      10.37128579
Ca      12.78377046      16.32287738       8.87460688
Ca      10.06561631      10.80127900      10.07719145
Ca      15.57696877      13.78845215       9.66391032
Ca      12.30200431      13.65542973      11.18656076
Ca      11.58513411       7.68872273      11.60050520
Ca      14.45377460      16.25379601      12.41431011
Ca      10.63500438      16.69335239      12.12596244
Ca      15.20159226      12.54565628      13.34443042
Ca      14.68211229       8.70270971      13.78557352
Ca      11.81228863      10.87251344      13.44198315
Ca       8.50921969       9.41111691      13.32198169
Ca       8.94041390      13.26480302      12.87294507
Ca      12.10162570      14.34271659      14.88882343
Ca      11.32957713       8.05834202      15.57269466
Ca      13.55093500      11.12227083      16.57321918
Ca       9.73206361      11.56015448      16.28617852
20
Properties=species:S:1:pos:R:3 config_type=qcd gap_pre_relax_energy=-24.633184362220213 gap_pred_energy=-24.697659891052353 gap_fmax_final=0.0009621532570538497 gap_converged=1 pbc="F F F"
Ca      10.26364886      12.72729867       7.37630230
Ca      14.19637621      12.22287289       7.99259168
Ca       8.25660541       9.80938163       9.10632656
Ca      15.85505229      15.24085308       9.88489810
Ca      12.19770233      14.57111799      10.11893952
Ca      11.54239103      10.85805414      10.20275673
Ca      14.59956750       8.75177244      10.10406615
Ca       8.66599665      13.20330818      10.86045257
Ca      10.89098485       7.32485392      10.66240781
Ca      14.78502840      12.12841364      11.67257761
Ca      10.17843337      16.10587704      13.06218837
Ca      14.01842534      15.41528479      13.37316620
Ca       9.04855379       9.90816725      12.86487080
Ca      11.45863742      12.75753481      13.34153528
Ca      12.81701231       9.23975293      13.36215856
Ca      16.53902214       9.34946282      13.46867129
Ca       8.22484336      13.25463136      14.77608132
Ca      10.79400805      10.80495462      16.28669904
Ca      11.57006528      14.60962625      16.36510923
Ca      14.41139807      12.03053420      15.43195353
21
Properties=species:S:1:pos:R:3 config_type=qcd gap_pre_relax_energy=-26.512481771454556 gap_pred_energy=-26.530102724715015 gap_fmax_final=0.0007692349189042532 gap_converged=1 pbc="F F F"
Ca      16.00864531      15.46164521      17.28956378
Ca      15.81824163      15.42513988      20.82902112
Ca      16.92144145      12.31997989      18.78170846
Ca      13.18334186      13.48452832      18.61379970
Ca      13.23099148      17.47542554      18.65665326
Ca      16.99491675      18.54721321      18.84987438
Ca      19.22740504      15.40681527      18.83963836
Ca      14.94871766      12.32300626      15.45418521
Ca      12.67126443      15.52014132      15.49408541
Ca      15.02484690      18.66268915      15.52229828
Ca      18.70295409      17.39825931      15.49970651
Ca      18.65727613      13.50102312      15.45788490
Ca      15.99985470      15.50047068      13.68169222
Ca      15.79243905      15.54019034      10.14324003
Ca      11.24044808      12.06563981      15.46031215
Ca      11.32388828      19.00832522      15.53490756
Ca      13.16815517      13.55222095      12.32883253
Ca      16.90523066      12.39172152      12.11781280
Ca      13.21581041      17.54315291      12.37171260
Ca      16.97873702      18.61895173      12.18348447
Ca      19.21102985      15.47909631      12.11522221
22
Properties=species:S:1:pos:R:3 config_type=qcd gap_pre_relax_energy=-28.145336938395673 gap_pred_energy=-28.166755108057764 gap_fmax_final=0.0008739710653821952 gap_converged=1 pbc="F F F"
Ca      16.30882840      15.46439584      17.41990116
Ca      16.10229451      15.42842113      20.94956106
Ca      17.19690004      12.31696025      18.89280570
Ca      13.46840589      13.49094332      18.75323558
Ca      13.50780892      17.46494234      18.79640620
Ca      17.25897943      18.56146306      18.96059338
Ca      19.51226526      15.41606095      18.95426635
Ca      15.19658588      12.31341368      15.56405547
Ca      13.09868943      15.51604327      15.62296553
Ca      10.23226448      15.56802070      13.45839289
Ca      15.25964098      18.67687296      15.63305978
Ca      18.96427559      17.41563954      15.60900898
Ca      18.92535218      13.50110258      15.56646191
Ca      16.30760531      15.50430818      13.79011085
Ca      16.06580009      15.54518132      10.25205368
Ca      11.36331756      12.35098729      15.47524155
Ca      11.42650889      18.71720968      15.54470922
Ca      13.38602500      13.60337966      12.41877303
Ca      17.15411533      12.39501759      12.22721945
Ca      13.42461360      17.49197832      12.46114665
Ca      17.21587373      18.62909162      12.29514855
Ca      19.48509882      15.48981601      12.21613237
23
Properties=species:S:1:pos:R:3 config_type=qcd gap_pre_relax_energy=-29.977158272825502 gap_pred_energy=-30.005917692622496 gap_fmax_final=0.0008931142010333148 gap_converged=1 pbc="F F F"
Ca      16.54498403      15.46746759      17.32032431
Ca      16.29605611      15.43991305      20.85253631
Ca      17.38276478      12.32556421      18.81736217
Ca      13.62761573      13.53536906      18.65939541
Ca      13.67609325      17.44771389      18.69275960
Ca      17.45977633      18.56097135      18.87085729
Ca      19.72153990      15.41443439      18.88418696
Ca      15.45689483      12.29109791      15.46846225
Ca      13.39157208      15.52221327      15.49228064
Ca      10.45613670      15.57531170      13.51278207
Ca      15.53608122      18.70051099      15.52326957
Ca      19.19694958      17.40526833      15.51878302
Ca      19.14893331      13.49553536      15.48535779
Ca      16.55139848      15.49842240      13.67505471
Ca      16.31526352      15.53122188      10.14194723
Ca      10.44877464      15.54185001      17.46175269
Ca      11.59505181      12.42561108      15.46281920
Ca      11.67229148      18.66186808      15.51586699
Ca      13.63922036      13.58945904      12.29292144
Ca      17.39484599      12.38267457      12.12762748
Ca      13.68750844      17.50184722      12.32616506
Ca      17.47152117      18.61813402      12.18063898
Ca      19.73369809      15.47251243      12.12182069
24
Properties=species:S:1:pos:R:3 config_type=qcd gap_pre_relax_energy=-31.33970956684448 gap_pred_energy=-31.362107196523485 gap_fmax_final=0.0006166749892221111 gap_converged=1 pbc="F F F"
Ca      16.61655721      15.20417067      17.44809795
Ca      16.35686019      15.16049470      20.97647639
Ca      17.44003633      12.05816161      18.92251441
Ca      13.67158311      13.30554324      18.76647954
Ca      13.74753276      17.20984577      18.79621473
Ca      17.55129693      18.27795914      19.03771786
Ca      19.79392376      15.13558590      19.00358976
Ca      15.51841231      12.03924415      15.57487957
Ca      13.46581338      15.26722391      15.60253658
Ca      10.52536314      15.35700243      13.61585293
Ca      15.61898985      18.45268368      15.66915832
Ca      14.20938836      20.83280865      13.18338426
Ca      19.24943316      17.17003118      15.63822212
Ca      19.21939839      13.26537529      15.58196126
Ca      16.61254878      15.24441641      13.79641270
Ca      16.38123137      15.31480505      10.25483310
Ca      10.51664580      15.40226618      17.52912369
Ca      11.63540710      12.20948765      15.58174046
Ca      11.86554933      18.54659764      15.47431692
Ca      13.70625057      13.33463324      12.40139296
Ca      17.48422098      12.16715467      12.22419784
Ca      13.73434545      17.23241861      12.40101960
Ca      17.34459411      18.50687947      12.32926918
Ca      19.76472244      15.33531558      12.22071270
25
Properties=species:S:1:pos:R:3 config_type=qcd gap_pre_relax_energy=-32.71384727544965 gap_pred_energy=-32.74203853617145 gap_fmax_final=0.0009232457355523178 gap_converged=1 pbc="F F F"
Ca      14.75468627      12.82601188       8.97098809
Ca      12.24571624       9.98320112       9.56678382
Ca      11.03333657      13.77768954       9.84807179
Ca      14.00680381      15.76354173      11.40409179
Ca      16.00298894       9.80800218      11.18464233
Ca      16.88676061      13.36527613      12.22830806
Ca      10.51033935      17.37837408      11.43647191
Ca      13.36645276      12.05520990      12.18831968
Ca      16.86798300      16.74892583      13.94602128
Ca       7.85211091      14.61494777      12.03735681
Ca       9.76472405      11.16570552      12.45379250
Ca      11.05008239      14.52898801      13.52327691
Ca       8.45803334      13.21313882      15.59758496
Ca      20.18541934      14.67940605      13.29030951
Ca      14.39945166      14.23864946      14.91487640
Ca      12.91999944      17.61761333      14.59329691
Ca      19.20785271      10.91961533      13.55173589
Ca      15.63850937      10.68067944      14.88052691
Ca      12.77364934       8.65785470      13.13885605
Ca      11.90108208      11.45803754      15.67879630
Ca      17.83527612      13.62852586      15.98222064
Ca       9.00777308      17.00771583      14.98490807
Ca      15.32626936      16.42900977      17.51632338
Ca      11.60062957      15.02561640      17.20866118
Ca      14.65234282      12.67653692      18.12205192
25
Properties=species:S:1:pos:R:3 config_type=qcd gap_pre_relax_energy=-32.680439150869326 gap_pred_energy=-32.70360114879024 gap_fmax_final=0.0009928248961931531 gap_converged=1 pbc="F F F"
Ca      14.15197353      13.65778561       8.93701185
Ca      17.94441486      13.13593160      10.09621804
Ca      15.17648568      10.28867578      10.58511946
Ca      10.18916149      13.94316844       9.23656800
Ca      11.74106515      10.48963150       8.54623871
Ca      16.24237425      16.52498705      10.75008438
Ca       8.71837561      10.92274783      11.30848071
Ca      12.51214142      15.93282106      11.61746997
Ca      12.10036981      12.11457205      11.64442465
Ca      11.82642343       8.55582716      11.87246926
Ca      15.36807562      13.50783185      12.46064978
Ca       9.32585851      14.25886771      13.05468286
Ca      17.88177049      11.13726632      13.38446919
Ca      18.37429513      15.03907973      13.72100057
Ca      14.20477798      10.36650501      14.33934826
Ca      15.01826796      16.68518596      14.47778864
Ca       6.86401680      12.01620683      14.69310029
Ca      10.37379111      10.80802477      14.74231569
Ca      12.61398494      13.82030647      14.81296547
Ca      11.15808640      17.07809123      15.08543216
Ca      16.06775916      13.23409066      16.16492072
Ca       9.66531681      13.91927112      16.84814431
Ca      17.39324599      16.50177965      17.32435979
Ca      12.78671457      11.71929267      17.70466275
Ca      13.52112079      15.56191940      17.81194198
26
Properties=species:S:1:pos:R:3 config_type=qcd gap_pre_relax_energy=-34.773949785066925 gap_pred_energy=-34.778594595502774 gap_fmax_final=0.0009059910538201821 gap_converged=1 pbc="F F F"
Ca      16.32955308      14.51977603      17.11842231
Ca      16.09670460      14.69145759      20.62883284
Ca      17.18863221      11.48094551      18.67839396
Ca      13.39719003      12.69196599      18.48479056
Ca      13.44834216      16.61233930      18.47408293
Ca      17.15877341      17.87618679      18.47984284
Ca      19.48599941      14.64643249      18.67688146
Ca      15.23250407      11.36445630      15.28507046
Ca      13.15099589      14.55588368      15.28008862
Ca      10.22904755      14.75256090      13.32275250
Ca      15.30836599      17.52890259      15.27666337
Ca      14.21318144      20.24275336      13.31631358
Ca      18.98858808      16.54047098      15.28175406
Ca      18.94544687      12.62113050      15.28667589
Ca      16.33266271      14.51570902      13.44553319
Ca      16.10560658      14.67813256       9.93449255
Ca      10.22758094      14.75848949      17.23407500
Ca      11.31805134      11.54833306      15.28316243
Ca      14.21038249      20.24810967      17.22752202
Ca      11.61544535      17.93920738      15.27356242
Ca      17.59917237      20.20467485      15.27476867
Ca      13.40188593      12.68442725      12.08040330
Ca      17.19477911      11.47323849      11.89458384
Ca      13.45232127      16.60343323      12.07963242
Ca      17.16369420      17.86847069      12.07553378
Ca      19.49183842      14.63925779      11.89291048
27
Properties=species:S:1:pos:R:3 config_type=qcd gap_pre_relax_energy=-36.15196981600836 gap_pred_energy=-36.17160506825348 gap_fmax_final=0.0008643019690008846 gap_converged=1 pbc="F F F"
Ca      16.25505397      14.80249145      17.32805049
Ca      16.75896494      11.08422977      18.22836509
Ca      13.14249652      12.75925670      18.32667270
Ca      13.16421104      16.87017598      18.34279354
Ca      16.79797543      18.50826805      18.25737791
Ca      15.02593962      11.84574113      15.19532548
Ca      13.80201627       9.25630292      13.07067384
Ca      12.95549603      14.82801671      15.25205602
Ca      10.02346867      14.85117141      13.24476678
Ca      15.05701482      17.78841044      15.21880106
Ca      13.86040877      20.40715088      13.11460636
Ca      18.70536036      16.85346179      15.17193984
Ca      18.68372592      12.74282927      15.15584700
Ca      16.13694039      14.81826291      13.43146256
Ca      15.89185710      14.83355513       9.88648378
Ca      13.72271200       9.07400835      16.94143574
Ca      17.17906364       9.06405165      14.96349492
Ca       9.99119248      14.83626732      17.12402546
Ca      11.26829774      11.57162533      15.10991674
Ca      13.78266777      20.55978223      16.98651160
Ca      11.30260634      18.10254176      15.13561236
Ca      17.23928502      20.54933976      15.00849853
Ca      13.18599015      12.90551350      11.97457683
Ca      16.85440518      11.55493861      11.91321939
Ca      13.20626258      16.77338270      11.98984455
Ca      16.88872444      18.08586963      11.93879893
Ca      19.25285505      14.80834687      11.82383475
28
Properties=species:S:1:pos:R:3 config_type=qcd gap_pre_relax_energy=-37.656989364981364 gap_pred_energy=-37.69836609269898 gap_fmax_final=0.0009457468152291985 gap_converged=1 pbc="F F F"
Ca      15.85564983      14.75961497      16.96043556
Ca      16.69992062      11.34863291      18.09682269
Ca      12.87344162      12.73159086      18.13331336
Ca      12.89102065      16.80487974      18.14736798
Ca      16.72929386      18.15510057      18.12031676
Ca      19.14448897      14.74068201      18.31831644
Ca      14.79240296      11.81392931      14.98660484
Ca      13.63916683       9.16852045      12.96018065
Ca      12.66242231      14.78008661      15.00203176
Ca       9.75889600      14.79935310      13.01375972
Ca      14.81781166      17.72750214      15.00697861
Ca      13.68742640      20.39696976      12.99899761
Ca      18.50291960      16.71129993      15.02261692
Ca      18.48606488      12.79851975      15.00910988
Ca      15.86901269      14.77271202      13.16299260
Ca      15.65037335      14.78572889       9.65108553
Ca      13.63625148       9.09783656      16.87207825
Ca      17.03828729       9.10730889      14.88558456
Ca       9.72313576      14.78607194      16.90285861
Ca      11.05585020      11.49382033      14.92873760
Ca      13.68507671      20.44066276      16.91133170
Ca      11.08419981      18.08033552      14.95155612
Ca      17.08704270      20.41566300      14.92460479
Ca      12.94414361      12.82636033      11.75965030
Ca      16.64637304      11.50074888      11.74091520
Ca      12.96101815      16.75362503      11.77327998
Ca      16.67450297      18.04746247      11.76350754
Ca      19.01333906      14.76451430      11.60449748
29
Properties=species:S:1:pos:R:3 config_type=qcd gap_pre_relax_energy=-39.45897578695632 gap_pred_energy=-39.50246495279931 gap_fmax_final=0.0008949483022423861 gap_converged=1 pbc="F F F"
Ca      15.79480429      14.71259020      16.57819018
Ca      15.56387450      14.70410201      20.07317851
Ca      16.56984547      11.41747152      17.93468309
Ca      12.85991879      12.74693136      17.92997266
Ca      12.87571138      16.69424380      17.94061791
Ca      16.59616577      17.99397033      17.95250962
Ca      18.93762092      14.69579045      18.12414951
Ca      14.70992633      11.76360272      14.71390516
Ca      13.56547347       9.09842803      12.74538034
Ca      12.57808839      14.73053008      14.72221860
Ca       9.66675780      14.74733145      12.77504565
Ca      14.73372626      17.68001072      14.72997835
Ca      13.61081055      20.36508168      12.77584843
Ca      18.44012218      16.68130857      14.72658432
Ca      18.42427275      12.73270508      14.71583946
Ca      15.79392131      14.72266543      12.86530397
Ca      15.56199877      14.73302448       9.37026240
Ca      13.56633863       9.08771958      16.66792507
Ca      16.96304559       9.07867794      14.70592479
Ca       9.66756775      14.73684573      16.67129278
Ca      10.98738275      11.44889074      14.71383389
Ca      13.61147354      20.35446204      16.69842878
Ca      11.01381460      18.02459005      14.73154976
Ca      17.00826412      20.34693551      14.73649754
Ca      12.85857664      12.76461156      11.50396947
Ca      16.56864522      11.43487475      11.49029687
Ca      12.87446381      16.71139986      11.51468160
Ca      16.59517375      18.01136549      11.50819471
Ca      18.93655067      14.71417480      11.31807255
30
Properties=species:S:1:pos:R:3 config_type=qcd gap_pre_relax_energy=-40.86534025700617 gap_pred_energy=-40.91150954101239 gap_fmax_final=0.0008979420951003954 gap_converged=1 pbc="F F F"
Ca      11.95075560      13.71380333       8.72324596
Ca      13.37190185      10.05138040       7.87264529
Ca      15.69296116      12.80852584       9.44062584
Ca      14.57764855      16.66848193       9.39689399
Ca       9.81193499      10.38128224       9.42118514
Ca      15.90882777       9.08142953      10.78764420
Ca      12.20853100       7.60290898      10.73158898
Ca      12.78625742      11.03694262      11.19278669
Ca      10.94400576      16.96958393      11.09875010
Ca      18.85137422      11.67569623      11.48916356
Ca      13.52573128      14.53972905      11.94736781
Ca      17.13377203      15.24885600      12.14270959
Ca       9.83264606      13.34691616      11.97149707
Ca      15.77375987      11.92177267      13.16425266
Ca      14.12701023      17.91157984      13.19645534
Ca      10.05801233       9.72340943      13.38208561
Ca       8.00963457      16.26125187      13.72988005
Ca      13.78867018       8.79336383      14.12840552
Ca      17.69026112       9.22667069      14.34889953
Ca      10.54021281      19.10029622      14.43192518
Ca      12.43665049      12.24203069      14.62956308
Ca      11.41309205      15.70212610      14.63161437
Ca      18.49476935      12.95285566      15.15203783
Ca      15.12672660      14.91372416      15.46304696
Ca       9.05020303      12.97415147      15.76381555
Ca      15.24141876      11.25764867      16.80269417
Ca      13.04717334      17.75087395      17.04924485
Ca      11.43481896      10.03882063      17.13643564
Ca       9.36255789      16.61370235      17.33577379
Ca      12.23359833      13.91510316      17.86268327
31
Properties=species:S:1:pos:R:3 config_type=qcd gap_pre_relax_energy=-42.411188730839605 gap_pred_energy=-42.43108391229857 gap_fmax_final=0.0009090420086582055 gap_converged=1 pbc="F F F"
Ca      16.21318293      15.46857615      18.04452625
Ca      17.12414724      12.05222476      19.09078786
Ca      13.23662242      13.45766981      19.14069537
Ca      13.27598850      17.59395222      19.15193659
Ca      17.19385656      18.92512689      19.13816178
Ca      19.74412214      15.67237263      19.08844709
Ca      15.19515923      12.54319837      16.00593946
Ca      14.03840757       9.91106743      13.95747623
Ca      13.04686891      15.51982908      16.01619707
Ca      10.16417317      15.58033483      14.00504555
Ca      15.17362844      18.45887541      16.01525289
Ca      14.21374450      21.17718655      14.00380118
Ca      18.67291180      17.34919861      16.00337298
Ca      20.80962705      19.26953493      13.95216611
Ca      18.93409079      13.49873614      15.98307589
Ca      16.21226066      15.46740389      14.14709358
Ca      16.13031298      15.52542659      10.64442333
Ca      14.03140609       9.82679829      17.87523726
Ca      17.42563182       9.82061561      15.87724435
Ca      10.10772861      15.57123428      17.89721461
Ca      11.44712535      12.24498279      15.92196762
Ca      14.20628079      21.23492464      17.89598948
Ca      11.51150396      18.86967170      15.93960407
Ca      20.89054295      19.30464728      17.86964833
Ca      17.78419231      21.00228729      15.91836515
Ca      21.95596820      16.08151345      15.87291152
Ca      13.34319039      13.56790929      12.75068217
Ca      17.06796501      12.23782156      12.74021367
Ca      13.38222157      17.51471462      12.76366414
Ca      17.11833091      18.78610363      12.74862818
Ca      19.54665293      15.66390703      12.73807597
32
Properties=species:S:1:pos:R:3 config_type=qcd gap_pre_relax_energy=-44.181354854442596 gap_pred_energy=-44.19884474606214 gap_fmax_final=0.0008751000532009156 gap_converged=1 pbc="F F F"
Ca      15.40855500      14.67312424      16.86412445
Ca      15.35282872      14.71383430      20.34175490
Ca      16.26932758      11.41619784      18.19271984
Ca      12.53331278      12.75504769      18.21820890
Ca      12.57995101      16.72599685      18.22390710
Ca      16.34129628      18.00088004      18.21780526
Ca      18.77175690      14.86364029      18.19250007
Ca      14.36827987      11.74777215      14.97730554
Ca      13.21892856       9.09639492      13.00731688
Ca      12.22804093      14.73507566      14.98985006
Ca       9.33126555      14.79629632      13.04392931
Ca      14.36389248      17.67716743      14.98970966
Ca      13.40792531      20.41242954      13.04356652
Ca      17.86722862      16.56792767      14.97692209
Ca      20.03202753      18.48206797      13.00669418
Ca      18.12691095      12.69955122      14.96808147
Ca      15.39729146      14.68095733      13.09650040
Ca      15.32086415      14.73609989       9.61938192
Ca      13.23059419       9.08827008      16.94296060
Ca      16.61113126       9.05495388      14.96492613
Ca       9.34291344      14.78804808      16.95318089
Ca      10.64304802      11.46674869      14.98775706
Ca      13.41949551      20.40426717      16.95295602
Ca      10.71741556      18.07782604      15.00134718
Ca      20.04394115      18.47379728      16.94210670
Ca      16.98034156      20.19701104      14.98718149
Ca      21.12235089      15.26969848      14.96459556
Ca      12.51415675      12.76844590      11.75148349
Ca      16.25008522      11.42965523      11.74913972
Ca      12.56068177      16.73948447      11.76213489
Ca      16.32188867      18.01450694      11.75121009
Ca      18.75258166      14.87713466      11.74905096
33
Properties=species:S:1:pos:R:3 config_type=qcd gap_pre_relax_energy=-45.62520702828512 gap_pred_energy=-45.644541631603886 gap_fmax_final=0.0009666849238936192 gap_converged=1 pbc="F F F"
Ca      15.90648321      15.57569334      17.72051366
Ca      15.87200292      15.59915129      21.18973067
Ca      16.81103515      12.30006499      19.04290704
Ca      13.07926631      13.57884544      19.02445550
Ca      13.10702320      17.61037199      19.04584440
Ca      16.93321087      18.88027183      19.02699678
Ca      19.30069031      15.72491528      19.04463048
Ca      14.93029553      12.63278571      15.78008968
Ca      13.94771157       9.95090867      13.77139118
Ca      12.76545768      15.60146026      15.80688514
Ca       9.88196198      15.62874710      13.85414151
Ca      14.91403440      18.55688953      15.80823758
Ca      13.99966130      21.29263521      13.85687834
Ca      18.40560863      17.41323664      15.78225763
Ca      20.65466536      19.17587837      13.77551243
Ca      18.51641639      13.67914015      15.86680291
Ca      20.71264915      12.08338641      13.59014373
Ca      15.89363261      15.58677407      13.88591553
Ca      15.86333408      15.61031088      10.41020135
Ca      13.95622905       9.89540008      17.68958592
Ca      17.48042950      10.09679005      15.62751153
Ca       9.89060152      15.61345558      17.76486258
Ca      11.25326685      12.27967170      15.77761942
Ca      14.01506953      21.28677271      17.76746754
Ca      11.27022079      18.94723518      15.82150474
Ca      20.70814184      19.18293448      17.69405936
Ca      17.60759909      21.01989260      15.78166062
Ca      21.60462596      15.76980033      15.63017739
Ca      13.08337533      13.61639624      12.55060604
Ca      16.95113466      12.34703672      12.54737441
Ca      13.09134118      17.62482482      12.57332439
Ca      16.90176598      18.86868523      12.55299406
Ca      19.30215832      15.58073741      12.54881673
34
Properties=species:S:1:pos:R:3 config_type=qcd gap_pre_relax_energy=-47.31258646979909 gap_pred_energy=-47.40923029147913 gap_fmax_final=0.0009350508868148696 gap_converged=1 pbc="F F F"
Ca      14.95372512      14.95265931      16.89041950
Ca      14.95443372      14.95143436      20.35765780
Ca      16.01933171      11.68174169      18.19367438
Ca      12.17243819      12.92843911      18.19500387
Ca      12.16971411      16.97211130      18.19643970
Ca      16.01505796      18.22405516      18.19605751
Ca      18.39384267      14.95454257      18.19432416
Ca      13.99304290      11.99143053      14.95249734
Ca      13.10640710       9.25852041      12.99493541
Ca      11.83926957      14.95122696      14.95408974
Ca       8.96513537      14.94993879      12.99799002
Ca      13.98915550      17.91397157      14.95465777
Ca      13.09895976      20.64711535      12.99908403
Ca      17.47141332      16.78520400      14.95344423
Ca      19.79497305      18.47654600      12.99689300
Ca      17.47378199      13.12499905      14.95210372
Ca      19.79951444      11.43815797      12.99428333
Ca      14.95283368      14.95407891      13.01629600
Ca      14.95193882      14.95537951       9.54905736
Ca      13.10736871       9.25706492      16.90846187
Ca      19.80045375      11.43676861      16.90760923
Ca      16.71596743       9.54122632      14.95096274
Ca       8.96605349      14.94846343      16.91154533
Ca      10.35033224      11.60439465      14.95321370
Ca      13.09981148      20.64568232      16.91261952
Ca      10.34592690      18.29604003      14.95565689
Ca      19.79583248      18.47515786      16.91017318
Ca      16.70877061      20.36792781      14.95492673
Ca      20.64581468      14.95719843      14.95204219
Ca      12.17093310      12.93082210      11.71153646
Ca      16.01782270      11.68411250      11.71015033
Ca      12.16821651      16.97447633      11.71305332
Ca      16.01358655      18.22642120      11.71255234
Ca      18.39235066      14.95690120      11.71079753
35
Properties=species:S:1:pos:R:3 config_type=qcd gap_pre_relax_energy=-48.69423908316402 gap_pred_energy=-48.72850945084809 gap_fmax_final=0.0008531683989775791 gap_converged=1 pbc="F F F"
Ca      15.04975097      14.91232877      16.65261125
Ca      14.74829068      14.91125112      20.15196563
Ca      16.11347197      11.63507966      17.95870016
Ca      12.28076066      12.81312712      18.00716646
Ca      12.27779482      17.00692073      18.00818110
Ca      16.10886499      18.19042230      17.96027958
Ca      18.45447056      14.91440183      17.98130982
Ca      14.08793866      11.93833506      14.72286995
Ca      13.18412053       9.22258271      12.74904279
Ca      11.94547675      14.91057481      14.76294224
Ca       8.99581408      14.90886761      12.95290109
Ca      14.08372847      17.88585036      14.72431273
Ca      13.17612267      20.60129086      12.75179642
Ca      17.55964137      16.74622737      14.71973090
Ca      19.87963785      18.42907283      12.75426547
Ca      17.56219875      13.08289346      14.71885335
Ca      19.88457279      11.40426985      12.75259955
Ca      15.03242537      14.91324796      12.79056152
Ca      14.98904420      14.91407131       9.32830615
Ca      10.77016458      14.90829458      20.69367393
Ca      13.23880836       9.16639649      16.64905880
Ca      19.89350854      11.39889829      16.67190570
Ca      16.81822614       9.49597633      14.69525262
Ca       9.20255967      14.90807032      17.00402911
Ca      10.44471128      11.55663780      14.77897650
Ca      13.23073321      20.65567308      16.65185958
Ca      10.43997584      18.26232953      14.78056692
Ca      19.88858750      18.43256203      16.67358678
Ca      16.81061749      20.33208994      14.69787656
Ca      20.72902133      14.91678276      14.72362285
Ca      12.21122895      12.90470616      11.52627295
Ca      16.09095566      11.64934237      11.47211402
Ca      12.20837214      16.91836990      11.52725742
Ca      16.08637466      18.17928454      11.47370150
Ca      18.46423597      14.91597760      11.47405605
36
Properties=species:S:1:pos:R:3 config_type=qcd gap_pre_relax_energy=-50.21410231289722 gap_pred_energy=-50.25323981529954 gap_fmax_final=0.0008897813039073124 gap_converged=1 pbc="F F F"
Ca      15.16783274      14.78672271      16.48619255
Ca      14.86645693      15.00579527      20.02559568
Ca      16.20584211      11.54377466      17.81770240
Ca      12.35187166      12.79906786      17.91104636
Ca      12.37692066      16.81338463      17.70895112
Ca      16.18569694      18.07979474      17.91133720
Ca      18.57228633      14.80258073      17.81844790
Ca      14.15322391      11.85119892      14.58424067
Ca      13.23072680       9.13711856      12.62952732
Ca      12.00769842      14.80534609      14.58837640
Ca       9.05843360      14.83087568      12.78899526
Ca      14.17211172      17.78629160      14.58869935
Ca      13.23500501      20.58261426      12.78870065
Ca      17.64530582      16.66002138      14.58525802
Ca      19.94153755      18.37719022      12.63161419
Ca      17.64569174      12.98724533      14.54605507
Ca      19.94610674      11.31674825      12.56166176
Ca      15.10369502      14.83365118      12.63826722
Ca      15.04716203      14.87573405       9.18264396
Ca      11.03136542      15.28683850      20.63035518
Ca      13.41133173      18.56589982      20.63028720
Ca      13.28913002       9.11108285      16.54282522
Ca      19.98234218      11.28978482      16.48227576
Ca      16.87624456       9.40577183      14.54453198
Ca       9.24521755      14.82688688      16.83284788
Ca      10.50566169      11.47180847      14.65577167
Ca      13.29560376      20.40638788      16.83252892
Ca      10.50013351      18.17623556      14.62724862
Ca      19.98299907      18.32895440      16.54501018
Ca      16.87723275      20.24598430      14.65657053
Ca      20.81339557      14.82704178      14.54629643
Ca      12.27750274      12.82432017      11.37422513
Ca      16.13909927      11.57111453      11.31633823
Ca      12.28658618      16.87935819      11.39232822
Ca      16.14035442      18.14319874      11.37490037
Ca      18.52705505      14.85903634      11.31720663
37
Properties=species:S:1:pos:R:3 config_type=qcd gap_pre_relax_energy=-52.02862778803754 gap_pred_energy=-52.05008491743057 gap_fmax_final=0.0009959190624411196 gap_converged=1 pbc="F F F"
Ca      16.14970831      15.43630956      17.18295305
Ca      15.85242634      15.64717768      20.73555487
Ca      17.17185149      12.18985326      18.49347112
Ca      13.30113884      13.45441904      18.59394169
Ca      13.44996810      17.39565507      18.37705414
Ca      10.74717226      19.35804822      19.31958843
Ca      17.15170857      18.75557740      18.60140303
Ca      19.55135801      15.46521395      18.49817335
Ca      15.08986125      12.52996658      15.27038916
Ca      14.14107693       9.83252595      13.30677241
Ca      12.95002111      15.47982425      15.28007988
Ca       9.97577015      15.54329218      13.52274650
Ca      15.12132750      18.46910043      15.28435753
Ca      14.14330828      21.28106036      13.53083783
Ca      18.58847048      17.34610668      15.27733359
Ca      20.86286113      19.08639583      13.32025466
Ca      18.59532033      13.66236660      15.21423418
Ca      20.87919609      12.00611788      13.20621742
Ca      16.03499294      15.52488742      13.33480278
Ca      15.94846602      15.59230123       9.88133489
Ca      11.88646015      16.10139400      21.22075186
Ca      14.19354705      19.27745447      21.22543991
Ca      14.22538539       9.78387874      17.21914512
Ca      20.93903891      11.95686923      17.12888233
Ca      17.81205734      10.08503357      15.20111747
Ca      10.19752013      15.71249740      17.59025332
Ca      11.43193862      12.16935276      15.36113087
Ca      14.04594073      21.01062897      17.59735926
Ca      11.41971787      18.87421585      15.44026509
Ca      20.93024337      19.01327773      17.23248349
Ca      17.79997645      20.93621016      15.37351017
Ca      21.75524894      15.51326171      15.20899085
Ca      13.19037688      13.52818267      12.07209953
Ca      17.05590956      12.26967215      11.99043150
Ca      13.19615536      17.58841645      12.12117739
Ca      17.05578012      18.84970464      12.07959235
Ca      19.44807771      15.56312863      11.99524771
38
Properties=species:S:1:pos:R:3 config_type=qcd gap_pre_relax_energy=-53.464453429930344 gap_pred_energy=-53.52223937749143 gap_fmax_final=0.0008820160923001622 gap_converged=1 pbc="F F F"
Ca      20.37331325      22.97974807      15.63824990
Ca      20.22304632      13.83546209      17.51910863
Ca      15.98114994      19.80491168      18.45076107
Ca      20.31812747      13.71337319      13.51760623
Ca      19.55475879      15.44934825      21.24397675
Ca      13.15067023      19.69872930      16.00487335
Ca      19.84236470      16.79422263      15.07499097
Ca      19.21837052      19.98000504      16.89640272
Ca      17.99974444      16.64782140      18.14051257
Ca      16.48069374      18.22164598      15.15414450
Ca      13.62527846      16.24083894      14.08117856
Ca      12.95006852      15.06952915      20.65340898
Ca      12.74710760      18.96368372      20.00045343
Ca      16.40787542      21.99963984      15.42880936
Ca      16.09469712      14.44866119      23.21402877
Ca      21.42162196      17.44446418      18.39937978
Ca      23.32600291      14.83911012      19.74092682
Ca      22.03138824      21.12800638      18.89277430
Ca      17.59400587      16.45614291      12.17540878
Ca      17.95050773      17.86033039      23.90949280
Ca      11.01893138      16.54388655      17.27738433
Ca      13.21820344      13.32884020      16.92705401
Ca      15.06580817      19.68027562      12.37155239
Ca      24.77984936      18.25899146      18.44941445
Ca      19.06987602      19.43277362      20.68303948
Ca      18.06287622      22.78984975      18.96476166
Ca      14.45538406      16.50248018      17.66184224
Ca      21.67528287      17.12133966      12.16077901
Ca      22.41569647      18.10151683      21.76507088
Ca      22.50865123      19.49210970      15.31332247
Ca      16.38117645      13.62782414      19.36450997
Ca      13.88633870      17.67056179      23.68102556
Ca      16.00519703      17.15165371      21.00046523
Ca      16.81859776      14.33087452      15.41897631
Ca      15.68714953      20.78518239      21.93922147
Ca      14.02044174      22.63585432      18.68843700
Ca      19.08268592      20.02012570      13.15660432
Ca      23.23262610      15.62575107      15.71561668
39
Properties=species:S:1:pos:R:3 config_type=qcd gap_pre_relax_energy=-55.15667332109764 gap_pred_energy=-55.18117880164839 gap_fmax_final=0.000915296704082641 gap_converged=1 pbc="F F F"
Ca      16.46105709      15.76099646      16.89297868
Ca      16.13427891      15.74990546      20.50541148
Ca      17.37209693      12.48937238      18.36128534
Ca      13.68634782      13.89990711      18.12909179
Ca      10.91155969      12.17468851      19.23235303
Ca      13.68880157      17.61803727      18.14078379
Ca      10.91646735      19.34036841      19.25530250
Ca      17.37600519      19.02256930      18.38116937
Ca      19.83787171      15.75515557      18.21884554
Ca      15.31484077      12.79582097      15.02980677
Ca      14.26765186       9.99503418      13.32841324
Ca      13.15333117      15.76907487      14.97603651
Ca      10.14106677      15.77641778      13.30999827
Ca      15.31828770      18.73895453      15.04799772
Ca      14.27411145      21.55132153      13.36384714
Ca      18.81556192      17.62463904      14.97570066
Ca      21.05006564      19.35304507      12.99755178
Ca      18.81352308      13.90605975      14.96467318
Ca      21.04619500      12.18659511      12.97646151
Ca      16.22991248      15.77258367      13.07725559
Ca      16.09204439      15.78269129       9.63766091
Ca      14.37088758      12.20356423      21.08255106
Ca      12.21358780      15.75119380      20.92406943
Ca      14.37554702      19.29457536      21.10509196
Ca      14.18440318      10.32110622      17.43868690
Ca      21.15090704      12.21279452      16.89787716
Ca      17.97947571      10.32569509      15.09633270
Ca      10.41902355      15.76380526      17.40088345
Ca      11.58107213      12.43897144      15.27102358
Ca      14.19105017      21.20034155      17.47248782
Ca      11.58522106      19.09933885      15.29195962
Ca      21.15480389      19.30397323      16.91876135
Ca      17.98589537      21.20527793      15.12884796
Ca      21.96852772      15.76377787      14.90137189
Ca      13.36458741      13.70748400      11.87222225
Ca      17.20479292      12.44532158      11.80046356
Ca      13.36722673      17.84881564      11.88474037
Ca      17.20850816      19.10614459      11.82034391
Ca      19.62304202      15.77421852      11.71929820
40
Properties=species:S:1:pos:R:3 config_type=qcd gap_pre_relax_energy=-56.41474437458462 gap_pred_energy=-56.455517572520776 gap_fmax_final=0.0009774978286102758 gap_converged=1 pbc="F F F"
Ca      16.01060476      15.56486128      16.68323622
Ca      15.80651653      15.70419657      20.28164734
Ca      17.02104302      12.29762766      18.01686631
Ca      13.11739299      13.60596637      18.05966592
Ca      13.33232555      17.50297651      17.92736378
Ca      10.72022351      19.39488405      19.11102295
Ca      16.96838024      18.92086434      18.06609962
Ca      19.42783101      15.61987015      18.02182384
Ca      14.94341655      12.65330415      14.79956306
Ca      13.99511734       9.89709927      12.97421210
Ca      12.79063730      15.61711046      14.80611290
Ca       9.81141108      15.68750049      13.08857801
Ca      14.95978309      18.61061571      14.80969970
Ca      13.96722326      21.42286913      13.09594423
Ca      18.44685631      17.48880237      14.80587266
Ca      20.77237186      19.25257349      12.98659691
Ca      18.46650631      13.78801918      14.75550656
Ca      20.80036115      12.09974549      12.88433147
Ca      15.89959304      15.65008335      12.87137940
Ca      15.83378566      15.70179772       9.43092374
Ca      14.81044249      12.17273845      21.00492962
Ca      18.74916853      13.57351514      21.03953120
Ca      11.99379616      15.96545696      20.85866795
Ca      14.37500128      19.24744441      20.86271048
Ca      18.84740413      17.75168282      21.01423789
Ca      14.07935842      10.01743502      17.02444845
Ca      20.73597451      12.14052560      16.91912379
Ca      17.67890578      10.18808891      14.78476708
Ca      10.05160148      15.86634736      17.18587011
Ca      11.26695375      12.28825448      14.88595402
Ca      13.86707811      21.13174957      17.19281661
Ca      11.25617774      19.01114177      15.06805557
Ca      20.67948747      19.12814824      17.03610429
Ca      17.64793279      21.09597482      14.89721486
Ca      21.64171493      15.65791787      14.79250714
Ca      13.05644031      13.63146049      11.62167455
Ca      16.94144841      12.36497243      11.56583431
Ca      13.04814790      17.71734567      11.66961015
Ca      16.93340872      18.98238892      11.62850566
Ca      19.34751256      15.68597947      11.57032562
41
Properties=species:S:1:pos:R:3 config_type=qcd gap_pre_relax_energy=-58.039561610454264 gap_pred_energy=-58.10214441688048 gap_fmax_final=0.0009570953067135543 gap_converged=1 pbc="F F F"
Ca      16.28221247      15.77250947      16.59645603
Ca      15.96991886      15.76926013      20.21939350
Ca      17.14298112      12.43367862      17.98976332
Ca      13.52136278      13.90724128      17.84947533
Ca      10.84242741      12.16514847      19.08659620
Ca      13.52276141      17.63787901      17.85122975
Ca      10.84630447      19.38089642      19.09082767
Ca      17.14627800      19.10943330      17.99191908
Ca      19.66291896      15.77207006      17.93540527
Ca      15.12760365      12.78839522      14.72966974
Ca      14.07903343       9.99600458      13.03424208
Ca      12.97671267      15.77430472      14.70330471
Ca       9.95325699      15.77623604      13.07128990
Ca      15.12961651      18.75911158      14.73214491
Ca      14.08267126      21.55344394      13.03926645
Ca      18.63768671      17.63807188      14.68776703
Ca      20.94211127      19.38056054      12.84547838
Ca      18.63633883      13.90728300      14.68669287
Ca      20.94010759      12.16442374      12.84404675
Ca      16.06512983      15.77408581      12.79356631
Ca      15.95555495      15.77555838       9.35930604
Ca      14.50313345      12.25637169      20.82406329
Ca      18.96414856      13.70194777      20.92923411
Ca      12.10073358      15.77174881      20.69365370
Ca      14.50838635      19.28351425      20.82725170
Ca      18.96160957      17.83704822      20.93295597
Ca      13.97569487      10.30101020      17.15264399
Ca      20.85794611      12.25825569      16.89599010
Ca      17.80988083      10.30126555      14.78262091
Ca      10.26410346      15.77434457      17.18770872
Ca      11.39289981      12.44626355      15.03562297
Ca      13.97988800      21.24450632      17.15784226
Ca      11.39534075      19.10332830      15.03907611
Ca      20.86127151      19.28514823      16.89661165
Ca      17.81338200      21.24460443      14.78629182
Ca      21.81591178      15.77163344      14.68568462
Ca      13.19010485      13.71504168      11.59671854
Ca      17.07010767      12.44588494      11.52576126
Ca      13.19130005      17.83634685      11.59846053
Ca      17.07194913      19.10297039      11.52794270
Ca      19.49945725      15.77340768      11.47626248
42
Properties=species:S:1:pos:R:3 config_type=qcd gap_pre_relax_energy=-59.62904887417092 gap_pred_energy=-59.70321249650253 gap_fmax_final=0.0009524016288006986 gap_converged=1 pbc="F F F"
Ca      15.41934355      14.70394013      15.67413783
Ca      15.20075800      14.86160500      19.34997600
Ca      16.31500197      11.43187599      17.11490994
Ca      12.67291949      12.95471458      16.98722820
Ca      10.01005461      11.25197087      18.27066783
Ca      12.69918203      16.67757909      16.99852180
Ca      10.15119199      18.52579187      18.31243897
Ca      16.23021483      17.85720834      16.99013468
Ca      17.02166229      20.91651540      18.27495163
Ca      18.80654531      14.86584946      17.11833271
Ca      14.28103928      11.81397356      13.82923776
Ca      13.23539229       9.04494065      12.13419950
Ca      12.13010347      14.83268844      13.83414845
Ca       9.10393510      14.89077806      12.23378542
Ca      14.27812535      17.79275887      13.83572424
Ca      13.28537005      20.65272761      12.23664794
Ca      17.81507714      16.68376892      13.83231557
Ca      20.12442706      18.53762275      12.14012255
Ca      17.82298749      12.96072217      13.79983552
Ca      20.16210087      11.26420364      11.98719299
Ca      15.23991135      14.83637592      11.90935443
Ca      15.15794959      14.89797310       8.48716467
Ca      13.72104965      11.35771405      19.96103188
Ca      18.13013245      12.73175173      20.05004490
Ca      11.32995087      14.85193176      19.86600752
Ca      14.00837686      18.54410060      19.86785739
Ca      18.07177718      17.35605672      19.96472693
Ca      13.11891147       9.35002373      16.28060573
Ca      20.01946018      11.36521106      16.06280300
Ca      16.99758921       9.35465193      13.88000792
Ca       9.43960028      14.88319429      16.36912854
Ca      10.53505848      11.51486194      14.17414699
Ca      13.39414146      20.33342336      16.37167159
Ca      10.59241605      18.20772224      14.23735658
Ca      19.79572315      18.55086186      16.28610991
Ca      16.93770435      20.33768460      14.17871123
Ca      20.99510453      14.86338262      13.88429934
Ca      12.35174033      12.79999339      10.71345350
Ca      16.26136212      11.52160842      10.63013581
Ca      12.36108279      16.92600598      10.73635494
Ca      16.28119784      18.21448850      10.71665922
Ca      18.70884113      14.89426025      10.63237194
43
Properties=species:S:1:pos:R:3 config_type=qcd gap_pre_relax_energy=-61.24528659173734 gap_pred_energy=-61.30212197962846 gap_fmax_final=0.0008561188712865096 gap_converged=1 pbc="F F F"
Ca      16.34393893      16.03167520      16.53857316
Ca      16.30193471      16.03014760      20.30082150
Ca      17.20168412      12.95719323      17.92634715
Ca      17.95648401       9.86656196      19.14668593
Ca      13.66090700      14.17013804      17.93402348
Ca      11.10682084      12.37406179      19.27705940
Ca      13.65879400      17.88881314      17.93539131
Ca      11.10257552      19.68096072      19.27980572
Ca      17.19803801      19.10580559      17.92856730
Ca      17.94936587      22.19655400      19.15126651
Ca      19.72324995      16.03292423      18.19257576
Ca      15.23224030      13.04126036      14.73052624
Ca      14.24030766      10.21062909      13.11645191
Ca      13.07857773      16.03033078      14.75466038
Ca      10.05314853      16.02908782      13.18242375
Ca      15.22878224      19.02182653      14.73285368
Ca      14.23342877      21.85264071      13.12086421
Ca      18.79658238      17.89299324      14.76924369
Ca      21.14501164      19.68860268      13.09172844
Ca      18.79882724      14.17430422      14.76780033
Ca      21.14922866      12.38273070      13.08897529
Ca      16.21830018      16.03290728      12.81980031
Ca      16.17352251      16.03416350       9.41055326
Ca      14.97909269      12.33246199      20.79283149
Ca      19.04004495      13.29841950      20.91031179
Ca      12.39820057      16.02767315      20.83372007
Ca      14.97477255      19.72592148      20.79561011
Ca      19.03689817      18.76459461      20.91237047
Ca      14.33298682      10.51591306      17.27828150
Ca      20.76215423      12.33755625      17.22916735
Ca      17.91557949      10.51893672      15.07063006
Ca      10.42260840      16.02780330      17.34720635
Ca      11.53393968      12.66717330      15.16149895
Ca      14.32654972      21.54431413      17.28243076
Ca      11.52998996      19.39133604      15.16404028
Ca      20.75785882      19.73022134      17.23195977
Ca      17.90911860      21.54712049      15.07475659
Ca      21.95423369      16.03540580      14.94531170
Ca      13.32482137      13.96715520      11.63654751
Ca      17.28027375      12.67200159      11.62032188
Ca      13.32237923      18.09610990      11.63811059
Ca      17.27632681      19.39592243      11.62287915
Ca      19.72816194      16.03538951      11.61275707
44
Properties=species:S:1:pos:R:3 config_type=qcd gap_pre_relax_energy=-62.719987909552465 gap_pred_energy=-62.775617371098456 gap_fmax_final=0.0008214857045343564 gap_converged=1 pbc="F F F"
Ca      15.07386798      15.07357679      15.40223057
Ca      15.07500632      15.07203941      19.23384405
Ca      16.06170201      12.03982174      16.89370053
Ca      17.01978110       9.09688840      18.26124237
Ca      12.49451707      13.19648713      16.89497375
Ca       9.99247189      11.37574049      18.26378769
Ca      12.49232137      16.94643563      16.89644490
Ca       9.98810240      18.76319876      18.26667362
Ca      16.05813112      18.10719322      16.89607731
Ca      17.01275123      21.05022286      18.26596027
Ca      18.26419710      15.07482028      16.89393774
Ca      21.35932729      15.07614650      18.26146185
Ca      14.09506564      12.05753774      13.67353961
Ca      13.16728441       9.19937945      12.10678535
Ca      11.90189258      15.07239645      13.67528448
Ca       8.89599935      15.07131839      12.11062220
Ca      14.09153749      18.08976092      13.67593901
Ca      13.16029495      20.94812370      12.11150442
Ca      17.63782551      16.93975974      13.67450183
Ca      20.06803600      18.70819902      12.10859040
Ca      17.64004400      13.21165923      13.67304729
Ca      20.07232249      11.44717867      12.10590907
Ca      15.07290419      15.07498808      11.72688883
Ca      15.07176052      15.07640121       8.33444089
Ca      13.88537704      11.40466039      19.79054966
Ca      18.19579238      12.80786079      19.78980508
Ca      11.21987886      15.06959989      19.79271985
Ca      13.88101484      18.73755198      19.79346043
Ca      18.19317240      17.33939895      19.79156958
Ca      13.28195850       9.54694984      16.28854245
Ca      19.77609863      11.66106274      16.28751243
Ca      16.86131172       9.58200705      14.11342156
Ca       9.26446197      15.06981370      16.29190040
Ca      10.40271995      11.67648612      14.11583180
Ca      13.27549012      20.59736236      16.29294952
Ca      10.39872748      18.46622607      14.11854635
Ca      19.77208633      18.49079254      16.29013049
Ca      16.85488063      20.56815536      14.11772638
Ca      20.84920223      15.07742758      14.11405303
Ca      12.19285206      12.98078017      10.56904622
Ca      16.17489511      11.68931233      10.56756029
Ca      12.19039893      17.16678463      10.57069448
Ca      16.17085963      18.46283906      10.57019991
Ca      18.63351457      15.07749205      10.56822948
45
Properties=species:S:1:pos:R:3 config_type=qcd gap_pre_relax_energy=-64.05228307004846 gap_pred_energy=-64.2429125964547 gap_fmax_final=0.0008856698672202578 gap_converged=1 pbc="F F F"
Ca      16.04868025      16.04868161      16.04868533
Ca      16.04952001      16.04711928      19.62492796
Ca      16.05084519      16.04514295      22.99947223
Ca      17.03957536      13.00598036      17.64683798
Ca      17.97482055      10.13536219      19.15399552
Ca      13.46218121      14.16629243      17.64813467
Ca      11.02128293      12.39095807      19.15700423
Ca      13.45950030      17.92656153      17.64907057
Ca      11.01595960      19.69783662      19.15875606
Ca      17.03551825      19.09082502      17.64904041
Ca      17.96654040      21.96163928      19.15792585
Ca      19.24819008      16.04983063      17.64760915
Ca      22.26638270      16.05033509      19.15641831
Ca      15.06184833      13.00654890      14.44833389
Ca      14.13080754      10.13573198      12.93944368
Ca      12.84919205      16.04753437      14.44976374
Ca       9.83099334      16.04703535      12.94092747
Ca      15.05779371      19.09138816      14.45053443
Ca      14.12255428      21.96200942      12.94337952
Ca      18.63518786      17.93107737      14.44924117
Ca      21.07608523      19.70641652      12.94037480
Ca      18.63786580      14.17079735      14.44830062
Ca      21.08139074      12.39951638      12.93860890
Ca      16.04784753      16.05024630      12.47243944
Ca      16.04653667      16.05222275       9.09789656
Ca      14.94425320      12.63800174      20.73817069
Ca      18.95027958      13.94228156      20.73822376
Ca      12.46636716      16.04470701      20.73996084
Ca      14.94013323      19.45365670      20.74083915
Ca      18.94702984      18.15466675      20.73915590
Ca      14.26102065      10.53301458      17.15465994
Ca      20.74216437      12.64296051      17.15392985
Ca      17.84371735      10.53608147      14.93891325
Ca      10.25081120      16.04458414      17.15713405
Ca      11.35957645      12.63870640      14.94057343
Ca      14.25363933      21.56128586      17.15845969
Ca      11.35520191      19.45440947      14.94343272
Ca      20.73778891      19.45866389      17.15679661
Ca      17.83634721      21.56435724      14.94271271
Ca      21.84655403      16.05278600      14.94022340
Ca      13.15033956      13.94270380      11.35820846
Ca      17.15723310      12.64370954      11.35652912
Ca      13.14709985      18.15509479      11.35913911
Ca      17.15312983      19.45937285      11.35920146
Ca      19.63100995      16.05266249      11.35741004
46
Properties=species:S:1:pos:R:3 config_type=qcd gap_pre_relax_energy=-65.39532231395364 gap_pred_energy=-65.51207559025602 gap_fmax_final=0.0008900487168996353 gap_converged=1 pbc="F F F"
Ca      13.36730412      16.99300394      14.32076495
Ca      15.69254227      14.24826647      19.18129759
Ca      17.14869155      12.66014466      16.18797725
Ca      14.67256632      10.76579651      18.25333518
Ca      13.58481930      22.77730043      17.29980090
Ca      10.47207017      17.47681603      19.85807859
Ca      12.00645188      13.65530044      19.54386899
Ca      21.86043730      14.14757735      12.55600073
Ca      18.22620720      15.39349040      21.66462020
Ca      14.15308135      16.55630669      10.67761983
Ca      13.58949000      13.70782154      16.17274275
Ca      16.97440427      23.20367181      15.67106534
Ca      14.12953366      16.43212887      21.72627594
Ca      15.21271062      12.44190641      22.01822985
Ca      22.06546387      16.44390240      16.12537776
Ca      18.30184445      21.06071620      13.06639185
Ca      11.07813576      11.41943198      16.15450862
Ca      10.61480053      17.78893848      12.53590325
Ca      14.64985894      10.76175308      14.12034250
Ca      15.33253830      19.86934364      16.22071234
Ca      11.46065608      19.52920129      16.27243180
Ca      16.81091419      17.77968728      13.01472082
Ca      18.03400304       9.37915899      16.22606072
Ca      16.67103250      17.85531271      19.27591227
Ca      20.29716801      18.46667934      19.60350760
Ca      19.11397377      15.16831035      14.28896025
Ca      18.92970989      18.67019512      16.04277456
Ca      18.46715088      11.74201310      12.83108103
Ca      10.37142351      15.57899716      16.14243531
Ca      21.86446649      14.49481867      19.80715000
Ca      15.11338457      12.43436693      10.34704149
Ca      18.21292839      15.18395973      10.62997385
Ca      16.23914871      16.23509055      16.16168118
Ca      20.45592715      21.71290565      16.51255565
Ca      11.98867516      13.79177450      12.80594305
Ca      19.10173842      15.29564745      18.01858578
Ca      13.30269558      16.89352258      18.06814048
Ca      14.09998007      20.28642089      12.68419096
Ca      18.54760654      11.87486116      19.55779872
Ca      20.88021740      12.49871158      16.22975745
Ca      17.23918050      19.09258847       9.87874448
Ca      13.70733599      19.99976089      19.96266097
Ca      15.67344805      14.23452790      13.16971118
Ca      20.52817951      17.99607767      12.45313532
Ca      17.07455580      19.26048578      22.36426547
Ca      17.36749194      21.42725093      18.98180918
47
Properties=species:S:1:pos:R:3 config_type=qcd gap_pre_relax_energy=-67.14359227595865 gap_pred_energy=-67.22491570037457 gap_fmax_final=0.0008122417183591537 gap_converged=1 pbc="F F F"
Ca      11.95982823      16.96249150      11.32158085
Ca      14.24085211      13.72644099      10.26624505
Ca      13.08294478      14.40750873      13.81650474
Ca      21.69414285      15.26654901      15.92761752
Ca      17.55278972      10.13900056      14.89947734
Ca      14.24931701      21.41675975      15.88539316
Ca      20.53208152      19.18201411      14.82334996
Ca      14.59208450      20.21199872      11.96597173
Ca      20.23543199      12.67589359      13.12092698
Ca      15.55189566      16.64531433      12.17906146
Ca      20.95395614      11.27922198      16.97467770
Ca       9.84467723      14.11998439      19.33070309
Ca      14.13720306       9.03372459      16.72625530
Ca      17.79375661      22.13943626      13.85814702
Ca      16.55282851      13.25452127      13.15875170
Ca      18.64706123      17.05183712      17.32613664
Ca      16.79299073      19.01045024      14.76166850
Ca      14.97659377      17.68818621      21.99824822
Ca      10.82979803      20.15653670      13.49887969
Ca      16.06690824      14.81162375      19.32807407
Ca      18.22910043      14.88968113      10.23529322
Ca      14.86710877      12.37733066      16.36112656
Ca      15.32165743      17.50573814       8.88700160
Ca      15.73315722      15.75885335      15.79477979
Ca      11.60560191      17.69408859      20.48536757
Ca      21.58042929      18.31238588      18.61337447
Ca      13.21785153      18.01015694      14.73910068
Ca      13.10043001      14.52411523      21.65421849
Ca      11.17863248      19.41517174      17.29965947
Ca      13.07457874      11.68878263      19.36133094
Ca      17.14091599      14.34682586      22.56846344
Ca      18.40949950      18.89247524      11.32955113
Ca      14.96273246      18.35403838      18.27765855
Ca      11.15971802      12.11688717      15.95629056
Ca      18.42323243      17.75320915      20.81135853
Ca      13.71298539      21.08047704      19.97317515
Ca      13.79103808      10.79446059      13.08058197
Ca      10.01924106      16.14141299      14.93754396
Ca      21.69313346      16.39821201      11.92093554
Ca      12.61616130      15.35114682      17.69512080
Ca      18.02293517      20.67547537      17.82152853
Ca      10.49909274      13.14200354      11.99173588
Ca      18.82478537      16.07685779      13.73739366
Ca      17.26990737      10.90445055      10.79362362
Ca      17.21602787      11.13568784      18.95041878
Ca      19.98675791      14.37206012      19.56357651
Ca      18.42272385      13.47509909      16.35869752
48
Properties=species:S:1:pos:R:3 config_type=qcd gap_pre_relax_energy=-68.86054489069845 gap_pred_energy=-68.92597755883573 gap_fmax_final=0.0009263261937846184 gap_converged=1 pbc="F F F"
Ca      15.46140103      21.26267508      13.44365179
Ca      15.56266493      17.61918710      12.57752402
Ca      19.06890563      21.88958784      15.46090927
Ca      12.38638633      19.16894648      18.98922615
Ca      10.39579703      12.10576815      13.85689244
Ca      17.83483983      16.15794819       9.99966628
Ca      13.77435580      10.07096474      18.71962946
Ca      18.77839554      15.95358101      17.29547342
Ca      15.92775109      19.62419278      21.31131384
Ca      13.75192956      18.65651707      15.59793302
Ca      13.21853672      11.82541714      11.58939647
Ca      19.06973142      19.35405755      18.81068829
Ca      12.90522762       9.13367933      14.89033246
Ca      15.95519166      13.95474378      12.44626226
Ca       9.53952203      15.78811541      12.10828638
Ca      17.43867784      18.88763559      15.50394350
Ca      15.71997605      17.60090190      18.53217721
Ca      15.76730699      13.61165592      18.60388395
Ca      12.46768680      15.34127705      13.80057579
Ca      17.02671173      10.01354431      17.16487351
Ca      21.51261053      14.30189347      15.33784553
Ca      12.63229729      12.90582399      20.71032590
Ca      19.57354344      12.92258369      11.92012992
Ca      13.87924514      16.26704266      21.28737199
Ca      10.21499385      18.18823985      15.65082131
Ca      12.54850136      15.45282241      17.60306321
Ca      21.11698550      18.32089165      15.44717500
Ca      17.97707768      12.94001271      15.35789560
Ca      20.34444883      10.45509093      15.06231877
Ca      16.53135348      11.52892344      21.19560788
Ca      21.62669828      16.49001410      11.77797243
Ca      21.73015908      16.22300923      18.99528055
Ca       9.93038073      15.72995682      19.75699706
Ca      16.41972177      12.44017650       9.38847953
Ca      15.42137141      19.47606716       9.71260146
Ca      18.76282975      16.09258645      13.59777906
Ca      15.60520567      21.28392833      17.60558801
Ca      16.60953524      10.35952668      13.10034699
Ca      13.64165928      15.67574512      10.11240742
Ca      10.84105481      11.99710583      17.56279315
Ca      12.08427790      21.67076391      15.60411680
Ca       9.05029869      14.78735324      15.93109440
Ca      14.06841080      12.27612644      15.47301587
Ca      18.83810263      19.49870661      12.09869120
Ca      15.60670211      15.60327141      15.58494981
Ca      17.98266512      15.84099537      20.88679337
Ca      19.61920777      12.65730759      18.66967402
Ca      12.17325285      18.98722464      12.25981092
49
Properties=species:S:1:pos:R:3 config_type=qcd gap_pre_relax_energy=-70.51564929710354 gap_pred_energy=-70.56880908762429 gap_fmax_final=0.0009944488233858597 gap_converged=1 pbc="F F F"
Ca      13.91337749      18.00486587      18.46000938
Ca      14.10260341      21.07691893      13.05491495
Ca      12.86738792      11.91388750      18.93065777
Ca      18.84736017      20.16152372      21.35816443
Ca      14.61884620      14.49675763      13.30198182
Ca      16.17029547      10.82653414      19.99084479
Ca      22.25091042      14.08534724      18.83506364
Ca      17.12564997      12.39294233      10.81553123
Ca      14.74766154      10.63862698      12.90918231
Ca      15.69194493      23.42121872      16.06262876
Ca      15.89347642      20.00148870      16.11415803
Ca      16.80842675      15.92364448      10.21317287
Ca       9.67512427      13.79557479      17.53044890
Ca      21.20052660      18.08631789      18.51320146
Ca      15.32512753       9.14841926      16.51931181
Ca      15.85933642      14.66283212      19.48024382
Ca      16.59401081      19.86075864      10.13608948
Ca      16.13145445      16.19786669      16.16852896
Ca      21.94590066      16.15821838      15.00194862
Ca      19.05459841      16.22380004      21.40814259
Ca      13.26371719      13.44941910      10.35464195
Ca      13.18251264      17.90673799      14.81990103
Ca      12.40841129      21.05356066      16.78533733
Ca      16.36721835      18.01814708      13.05215206
Ca      12.09992758      11.80902113      15.10880528
Ca      19.88420452      17.91185500      11.95612349
Ca      18.18644575      21.30117972      13.54110784
Ca      18.98799012      21.40809104      17.53300353
Ca      19.06582441      10.88798225      17.64596986
Ca      15.37581063      17.80475781      21.83704647
Ca      19.15057221      12.66383954      20.91453995
Ca      15.75020538      13.77982021      22.77022108
Ca      15.90150173      12.52473107      16.31382944
Ca      10.82165917      15.33909722      13.75628878
Ca      19.04938578      18.17884689      15.52950931
Ca      21.35815766      12.57431369      15.21483522
Ca      15.41066341      21.25191371      19.56733160
Ca      18.32199307      10.78700890      13.95152639
Ca      21.81582152      20.14751591      14.92148264
Ca      12.17171678      15.52150664      20.48377830
Ca      13.23171544      17.51812956      11.15516913
Ca      20.77163987      13.89237396      11.45936863
Ca      11.81455182      19.63481265      20.62420797
Ca      18.39394676      14.66001880      13.77983395
Ca      17.53195298      18.17367899      18.85425133
Ca      10.39661073      17.65714003      17.28065002
Ca      12.90641152      14.85598417      16.85251171
Ca      19.15573755      14.76204007      17.57540004
Ca      10.39421978      19.44347762      13.55149555
50
Properties=species:S:1:pos:R:3 config_type=qcd gap_pre_relax_energy=-72.27071686210988 gap_pred_energy=-72.3360136732633 gap_fmax_final=0.00089474230598739 gap_converged=1 pbc="F F F"
Ca      15.90111784      16.58272388      21.77027917
Ca      13.36516312      13.48386208      22.05299663
Ca      12.84900030      22.12450190      14.58983820
Ca      16.93631620      10.98598101      10.16338677
Ca      14.19603695      18.97001180      15.07964706
Ca      19.11885076      15.20197085      14.89410670
Ca      17.74406595       9.99169960      13.85324679
Ca      16.74433659      17.22404601      12.60828933
Ca      22.50132381      15.10371498      14.55592349
Ca      18.10956778      19.44134003      19.87081456
Ca      14.30273568      20.31830972      21.14956640
Ca      13.99552417      10.34816851      12.65366807
Ca      12.22368812      16.41670779      16.77607065
Ca      16.28697292      13.28860905      12.87365196
Ca      11.84571156      20.03517958      17.86684089
Ca      18.32786088       9.70601530      18.14198083
Ca      20.91954591      17.59209927      17.53546302
Ca      10.93109357      13.49855060      18.62054708
Ca      20.24403212      18.96945030      13.78056984
Ca      14.91964092      18.13099373      18.57447924
Ca      17.81828414      15.88628450      18.56638141
Ca       9.75272088      14.66763206      14.92228868
Ca       9.02760664      17.17701305      17.87731415
Ca      17.65390061      18.64219024      16.18607492
Ca      17.77366080      19.13948227       9.99388731
Ca      17.29098065      12.89545169      20.65630557
Ca      10.66612876      16.23405028      10.75922706
Ca      20.67216266      11.59795712      15.43330152
Ca      12.02999440      16.94986242      20.53147863
Ca      13.81854863      13.33711771      10.07241228
Ca      17.45904863      14.82640955       9.67840761
Ca      13.18455696      15.76552464      12.99522213
Ca      14.42733598      16.92199664       9.41637649
Ca      14.88215658       9.22715110      16.06115834
Ca      20.56338266      13.64266511      18.38168887
Ca      14.46229117      14.51098992      18.93094317
Ca      14.07722370      10.98522338      19.08566946
Ca      10.62828479      18.56741162      14.24264307
Ca      15.60293582      21.57509877      17.45819720
Ca      11.01135716      10.39834542      15.79962233
Ca      16.80107700      21.09761128      13.57142833
Ca      13.56138171      19.60036811      11.64413358
Ca      19.86918565      16.14912109      21.34670270
Ca      17.02616778      12.49390959      16.69344910
Ca      20.39177994      16.35249244      11.32792199
Ca      19.54996355      21.48999685      16.73359012
Ca      11.02071124      12.51728742      12.34239087
Ca      15.61236004      15.67712075      15.68577263
Ca      13.35885112      12.84241296      15.51963648
Ca      19.88368825      12.75819915      12.01532042
51
Properties=species:S:1:pos:R:3 config_type=qcd gap_pre_relax_energy=-74.19543579932288 gap_pred_energy=-74.22994291097378 gap_fmax_final=0.0009948981856680067 gap_converged=1 pbc="F F F"
Ca      14.69030922      19.65054519      15.59219590
Ca      20.66347821      11.06014969      18.82073373
Ca      13.66153747      22.94264708      15.08758385
Ca      17.67020161      14.80273320      10.30526808
Ca      12.78824843      10.79631783      13.71005267
Ca      12.53367390      20.76282968      18.53927488
Ca      14.90177678      20.59785091      21.70840039
Ca      16.37547646      16.77998013      22.08353986
Ca      18.41205088      16.56642020      19.03536690
Ca      14.93697294      14.51048611      18.92360436
Ca      18.16497745      13.76103603      13.75705286
Ca      10.67330122      18.31872066      11.47330306
Ca      20.46806266      16.96476743      21.81960294
Ca      20.75242590      15.94873263      12.18235317
Ca      13.07500412      17.02935330      13.65378334
Ca      18.10888716      19.05794665      10.32502742
Ca      12.30559508      13.92023965      15.60408673
Ca      12.65944443      17.28992323      21.00503088
Ca      15.51231083      12.16816568      15.72194050
Ca      21.69849320      14.84843307      18.70696607
Ca      18.08826156      19.25817409      16.59147104
Ca      12.51588920      17.18982761      17.27266680
Ca      21.59664794      13.07694754      15.21534644
Ca      19.85816982      16.30619558      15.68838136
Ca      20.59818714      19.44083507      13.91733248
Ca      14.70562913      13.95741422      12.52684143
Ca      16.61856865      10.75324309      19.03961437
Ca      17.01714839      17.50758490      13.11258618
Ca      14.00940291      13.09077630      21.83727787
Ca       9.48968328      18.25484092      18.60095861
Ca      16.54200085      10.69306305      12.39313924
Ca      19.97905200      22.16517678      16.92538085
Ca      18.55280887      20.07288323      20.30182633
Ca      14.15491091      20.27543128      12.06339406
Ca      11.07150299      19.96894011      15.02481725
Ca      17.33077869      21.57805337      13.86637450
Ca      14.36338943      16.96689464      10.24568921
Ca      11.10147703      14.46684625      11.95399411
Ca      23.29937988      16.65146123      15.26210149
Ca      16.16781168      22.12009773      17.99897891
Ca       9.60688133      16.46226092      15.05593688
Ca      18.84172297      10.33900419      15.39808631
Ca      15.91021669      15.95258885      15.96494507
Ca      18.49120554      13.39458477      17.41282678
Ca      10.99042260      14.45594580      19.12845894
Ca      15.29595057       8.68604544      15.83374924
Ca      21.45466398      18.68892312      18.09579960
Ca      15.42430225      18.49858817      18.97656348
Ca      18.33744251      13.54943604      21.10325267
Ca      12.97158374      11.18169200      18.14075289
Ca      20.25813832      11.91442416      11.69174687
52
Properties=species:S:1:pos:R:3 config_type=qcd gap_pre_relax_energy=-75.78144080086008 gap_pred_energy=-75.9535897019912 gap_fmax_final=0.0009681921098045955 gap_converged=1 pbc="F F F"
Ca      14.94472137      19.98130328      15.82707469
Ca      20.79435583      11.22179530      19.00655197
Ca      13.90055542      23.19833964      15.01167081
Ca      17.36173230      14.57838637      10.54916276
Ca      12.72644991      11.29070411      14.17221422
Ca      12.85936852      21.38164968      18.59229219
Ca      13.00203282      17.46307273      21.39329762
Ca      16.80170682      16.94119705      22.34017635
Ca      18.65342674      16.92775501      19.19729225
Ca      15.22005033      14.92972378      19.33803714
Ca      18.24701009      13.85506361      14.04148064
Ca      10.63070987      18.37963681      11.92161715
Ca      20.88406216      17.28917859      21.83271100
Ca      20.64761919      15.89754882      12.17784900
Ca      13.16938671      17.37810279      14.07247720
Ca      18.00912524      18.92108685      10.34499631
Ca      12.73082554      14.44279504      16.19677880
Ca      11.07109297      14.89563259      19.39855360
Ca      15.65957432      12.40611868      16.18290247
Ca      21.91016468      15.02144065      18.75531455
Ca      18.35626784      19.51282682      16.67722707
Ca      12.87336848      17.72148921      17.75697322
Ca      21.65085748      13.10386751      15.33922152
Ca      20.01313817      16.43828271      15.77785905
Ca      20.71504776      19.42424983      13.79708621
Ca      14.81515130      14.32634723      13.18629083
Ca      16.69865919      11.06741477      19.43568711
Ca      17.09175928      17.61952440      13.30849185
Ca      14.29797834      13.49650131      22.24361044
Ca      13.70463415      12.72041062      10.31415523
Ca       9.85354738      18.80397954      19.08395969
Ca      16.32752449      10.95113814      12.70038102
Ca      20.43731214      22.30064082      16.64051416
Ca      19.21019513      20.50948395      20.17480887
Ca      14.24445079      20.31286300      12.18470605
Ca      11.24293092      20.27415416      15.32827696
Ca      17.52625143      21.63134450      13.77583255
Ca      14.15226642      16.78952007      10.55928333
Ca      11.13192614      14.54842252      12.71808861
Ca      23.41767363      16.62363900      15.10793009
Ca      16.67385842      22.61000708      17.73613394
Ca       9.82377664      16.68127105      15.74349433
Ca      18.79696635      10.45700304      15.68488164
Ca      16.15726013      16.32488635      16.34548602
Ca      18.66078359      13.62843078      17.67443643
Ca       9.69118416      12.74663825      16.23988938
Ca      15.16920781       8.96375614      16.25351270
Ca      21.80790374      18.82328220      17.96093140
Ca      15.77202188      19.20895857      19.48094240
Ca      18.71113921      13.84646721      21.30228338
Ca      12.93633264      11.58412607      18.49820082
Ca      20.10725164      11.84113923      11.90957048
53
Properties=species:S:1:pos:R:3 config_type=qcd gap_pre_relax_energy=-77.60775154753321 gap_pred_energy=-77.63114918195879 gap_fmax_final=0.0008997978043827315 gap_converged=1 pbc="F F F"
Ca      15.90859213      15.90857182      15.90878851
Ca      15.90861952      15.90846382      19.33292865
Ca      15.90856475      15.90858868      12.48460380
Ca      19.49027185      15.90851963      17.48969468
Ca      12.32693744      15.90853484      17.48975061
Ca      17.69927659      19.00964056      17.48959400
Ca      14.11794579      19.00964812      17.48962196
Ca      17.69929488      12.80746137      17.48967634
Ca      14.11790116      12.80746902      17.48970430
Ca      15.90858727      19.48978382      14.32751590
Ca      15.90857206      12.32746487      14.32764437
Ca      19.00995574      17.69926063      14.32745021
Ca      12.80721111      17.69927385      14.32749863
Ca      19.00999287      14.11799279      14.32754494
Ca      12.80715878      14.11800591      14.32759337
Ca      19.80960118      15.90867611      11.22266487
Ca      12.00750915      15.90869269      11.22272586
Ca      17.85910341      19.28712380      11.22261069
Ca      13.95802149      19.28713221      11.22264119
Ca      17.85910384      12.53016516      11.22269820
Ca      13.95799234      12.53017333      11.22272870
Ca      15.90853932      15.90922144       9.12609860
Ca      15.90863724      19.80904459      20.59450957
Ca      15.90862066      12.00802836      20.59458638
Ca      19.28757666      17.85898510      20.59451576
Ca      12.52968975      17.85899933      20.59456859
Ca      19.28756030      13.95808234      20.59455300
Ca      12.52968953      13.95809683      20.59460584
Ca      15.90864491      15.90819920      22.69138549
Ca      22.57790701      15.90855312      19.06633537
Ca       9.23932707      15.90858142      19.06643988
Ca      19.24294328      21.68319151      19.06709325
Ca      12.57431515      21.68320556      19.06714550
Ca      19.24298085      10.13384091      19.06698689
Ca      12.57422858      10.13385515      19.06703914
Ca      15.90858147      22.57725077      12.75040270
Ca      15.90855318       9.23998234      12.75045597
Ca      21.68345235      19.24290139      12.75002582
Ca      10.13369628      19.24292599      12.75011632
Ca      21.68345637      12.57432894      12.75001898
Ca      10.13366396      12.57435335      12.75010947
Ca      22.23931393      15.90859801      14.83631425
Ca       9.57785338      15.90862488      14.83641342
Ca      21.39125185      19.07384939      16.98019926
Ca      21.39125984      12.74329942      16.98021578
Ca      10.42592789      12.74332273      16.98030166
Ca      10.42596275      19.07387262      16.98028514
Ca      19.07384818      21.39095923      14.83684949
Ca      19.07388243      10.42625595      14.83684662
Ca      12.74334249      21.39097271      14.83689907
Ca      12.74326169      10.42626934      14.83689620
Ca      15.90861399      22.23879403      16.98078985
Ca      15.90858711       9.57829370      16.98069973
54
Properties=species:S:1:pos:R:3 config_type=qcd gap_pre_relax_energy=-79.06640725040842 gap_pred_energy=-79.17632550933801 gap_fmax_final=0.0009920639198283425 gap_converged=1 pbc="F F F"
Ca      15.16702824      16.54746776      12.64134874
Ca      21.68748647      11.10733918      16.11073499
Ca      14.69725619      10.31260288      13.53239822
Ca      22.56024514      14.86719455      17.67805445
Ca      19.14865720      16.02997152      18.92459441
Ca      18.82933600      11.57938777      13.15270564
Ca      12.80088052      18.14834204      18.14406903
Ca      14.91151798      16.69606909      23.52224120
Ca      18.49541601      15.24074832      13.10590985
Ca       9.40585828      15.48826217      13.68859592
Ca      10.87775475      12.41346761      19.51075301
Ca      12.39794344      21.94907263      13.57461091
Ca      16.27098297      13.45738342      10.84715121
Ca      21.54204651      15.95845745      21.43165392
Ca      11.73602094      16.09259924      21.06320747
Ca      15.53705674      13.29477210      14.88945992
Ca       9.87368357      15.68286254      17.58213210
Ca      21.63279829      18.81958322      18.61823541
Ca      20.74688023      20.66988121      15.11278479
Ca      14.13750248      10.84056267      17.85443062
Ca      14.29626977      19.41502228      15.15544998
Ca      14.10818363      16.57305468       9.31579471
Ca      15.53090212      16.83586113      20.04044316
Ca      12.66565586      13.91346418      12.03518304
Ca      19.03709038      21.18993986      11.51914418
Ca      12.17673542      21.68840067      17.56947585
Ca      18.41220773      18.87755150      21.18348065
Ca      22.06983388      14.27181035      13.75453496
Ca      13.35013246      14.45264605      18.10012921
Ca      13.15669843      19.64206097      21.44455698
Ca      19.27280634      13.61835096      16.18022855
Ca      15.57006208      20.91489381      18.90435445
Ca      15.21243132      20.11610712      11.46758981
Ca      23.72828866      17.80755072      15.20154617
Ca      12.57946773      16.06207416      15.05227058
Ca      20.20726093      14.19714094      10.25612188
Ca      20.38794135      17.01878523      15.62974307
Ca      17.88777094      14.52816707      22.05245677
Ca      11.89083311      18.18155586      12.10717821
Ca      14.25697876      13.23872422      21.46798663
Ca      11.59959811      12.51478771      15.47329679
Ca      16.69557967      13.35508508      18.68816381
Ca      16.87826369      22.08086483      15.11492034
Ca      16.99519234      10.54427880      20.73529809
Ca      18.10056582      19.19282738      17.35519293
Ca      16.30069930      16.37933470      16.32531834
Ca      19.32990233      22.15643004      18.60879468
Ca       9.71144831      19.18233710      19.47103223
Ca      10.32973842      19.03085100      15.49912954
Ca      17.83161379      17.41756321      10.16014991
Ca      21.15451460      17.80234494      12.11602580
Ca      20.21403486      12.44325130      19.58449942
Ca      17.82933679      18.78513285      13.70472791
Ca      17.75621218      10.35632498      16.72131267
55
Properties=species:S:1:pos:R:3 config_type=qcd gap_pre_relax_energy=-81.02878208183175 gap_pred_energy=-81.08279435161327 gap_fmax_final=0.0009360742088043712 gap_converged=1 pbc="F F F"
Ca      10.13364556      12.66901489      19.27170071
Ca      12.43404990       9.26402129      13.79253516
Ca      10.47535528      12.47405979      15.16652315
Ca      12.69362362      10.32095852      17.62741819
Ca       9.65061433      15.87919702      17.12309311
Ca      15.87777728       9.31816441      19.77806943
Ca      12.61152673      12.45982736      11.38223674
Ca      15.87945976       9.07521514      15.75673621
Ca      13.91124442      12.64594962      20.82252198
Ca      12.83339770      14.11057443      17.47753522
Ca      11.97227773      15.88360240      20.61128146
Ca      14.05521888      12.27853603      14.66656299
Ca      15.88072731      10.28914348      12.05123812
Ca      10.13291628      19.09462323      19.26401547
Ca      12.52633965      15.87548950      13.69884625
Ca      15.87825612      12.22775075      17.80164145
Ca      10.47451187      19.27986990      15.15830391
Ca      12.83298484      17.64939943      17.47319631
Ca      15.88146137      12.60250612       8.95892711
Ca      19.32639480       9.26506829      13.79515162
Ca      13.83658216      15.87086210       9.71764213
Ca      19.06337855      10.32186271      17.62989544
Ca      17.84260119      12.64644603      20.82408543
Ca      15.87580948      15.88647154      22.64402191
Ca      15.88013876      14.09279984      12.15817257
Ca      17.70360560      12.27912458      14.66803286
Ca      15.87715596      15.88243839      19.18415471
Ca      12.61062810      19.28566994      11.37398670
Ca      13.91052838      19.12224835      20.81467683
Ca      15.87853266      15.87824686      15.50923026
Ca      12.69228059      21.43937952      17.61401748
Ca      14.05422310      19.47508534      14.65792253
Ca      19.14974354      12.46079238      11.38472394
Ca      18.92261863      14.11118611      17.47994129
Ca      15.87969045      17.65535795      12.15371750
Ca      12.43241996      22.48710138      13.77665970
Ca      15.87741667      19.53369514      17.79273930
Ca      17.92485043      15.87135593       9.71900617
Ca      21.28299467      12.47564575      15.17078817
Ca      19.78101779      15.88457321      20.61446235
Ca      21.62141686      12.67036298      19.27630239
Ca      19.23202707      15.87634377      13.70120270
Ca      15.88065206      19.13792029       8.95096963
Ca      17.84181039      19.12272235      20.81623029
Ca      18.92221198      17.65032387      17.47555972
Ca      15.87629348      22.44804624      19.76224324
Ca      17.70288174      19.47540474      14.65936736
Ca      19.14895564      19.28630641      11.37640955
Ca      15.87933501      21.45870516      12.03767121
Ca      19.06208555      21.44007283      17.61639451
Ca      22.10548440      15.88075040      17.12829414
Ca      21.62062837      19.09612450      19.26859412
Ca      15.87782768      22.68144778      15.74032114
Ca      19.32478104      22.48775647      13.77911728
Ca      21.28220809      19.28099708      15.16251031
