3
Properties=species:S:1:pos:R:3 config_type=qcd gap_pre_relax_energy=-0.684531337810266 gap_pred_energy=-0.691291095986297 gap_fmax_final=0.0005106376650800513 gap_converged=1 pbc="F F F"
Cd      12.77752862      10.23000729      11.39395756
Cd      10.00013050      10.68757970       9.75337005
Cd      10.69759333      12.55766546      12.32792485
4
Properties=species:S:1:pos:R:3 config_type=qcd gap_pre_relax_energy=-1.0712612038551907 gap_pred_energy=-1.0808818237579527 gap_fmax_final=0.0006571357262124869 gap_converged=1 pbc="F F F"
Cd       6.20165782       8.12158192       8.77149951
Cd       8.32446979       8.79712154       6.40999938
Cd       6.19711019       6.37342681       6.03629267
Cd       8.64392821       6.07503574       8.14937445
5
Properties=species:S:1:pos:R:3 config_type=qcd gap_pre_relax_energy=-1.40347386672124 gap_pred_energy=-1.4731171303446877 gap_fmax_final=0.0004731698601333824 gap_converged=1 pbc="F F F"
Cd       9.25373096       8.61094446      10.60105615
Cd       6.12691191       8.02600848       9.41878739
Cd       8.76654487       7.01675192       7.54140092
Cd      11.22409154       9.32390875       7.93189735
Cd       8.00600073      10.39966639       7.88413819
5
Properties=species:S:1:pos:R:3 config_type=qcd gap_pre_relax_energy=-1.437817647479958 gap_pred_energy=-1.4597019645877913 gap_fmax_final=0.0009626296661298719 gap_converged=1 pbc="F F F"
Cd      17.41173532      12.09074825      13.42921509
Cd      15.54655663      14.33449298      14.64057982
Cd      12.70491854      15.80172169      14.36508524
Cd      15.32734686      17.47291221      15.27735221
Cd      14.00944266      15.30012486      17.28776764
6
Properties=species:S:1:pos:R:3 config_type=qcd gap_pre_relax_energy=-1.8140234896274223 gap_pred_energy=-1.906391642184778 gap_fmax_final=0.0007627407739330604 gap_converged=1 pbc="F F F"
Cd       8.09328618      10.51018055      10.22641813
Cd      10.87548802      11.73140032       8.43170090
Cd       8.79048873       9.41680301       7.11791398
Cd      10.97536583       8.35663211       9.45109241
Cd       9.38896419       8.30814955      12.42076047
Cd      11.24435916      11.04478658      11.72006622
6
Properties=species:S:1:pos:R:3 config_type=qcd gap_pre_relax_energy=-1.77670165514555 gap_pred_energy=-1.90639170370209 gap_fmax_final=0.0009098982567235992 gap_converged=1 pbc="F F F"
Cd       9.25358110      10.56991234       7.08311306
Cd       7.71907088       7.35277068      11.22353058
Cd       8.08089813      10.57013197      10.25158005
Cd      10.39253829       8.07936896       9.30744511
Cd       9.61546067       7.35253610       6.11140795
Cd       6.94243280       8.07926182       8.02690514
7
Properties=species:S:1:pos:R:3 config_type=qcd gap_pre_relax_energy=-2.2608919292845684 gap_pred_energy=-2.360396907002766 gap_fmax_final=0.0009442355416178941 gap_converged=1 pbc="F F F"
Cd       7.49310792       9.80177531       9.18221932
Cd       9.20098813      12.33301715       7.73727563
Cd       9.50259003       7.41863984       9.95047531
Cd      12.65600309       8.23557091       9.05760122
Cd       8.22391189      12.56302281      10.98563491
Cd      10.49631247      10.44866395      10.03814689
Cd      11.68709494       8.45931850      12.30865518
7
Properties=species:S:1:pos:R:3 config_type=qcd gap_pre_relax_energy=-2.249194924271521 gap_pred_energy=-2.360398588569794 gap_fmax_final=0.0009119838722209227 gap_converged=1 pbc="F F F"
Cd       9.89470784       5.84114183       9.82880679
Cd      10.64286267       8.62119332      11.63505860
Cd      11.27315312       8.52840441       8.31740754
Cd       8.27853759       8.62371244       9.41305695
Cd       9.02046828      10.16954159       6.72452411
Cd       6.01847454       8.66256053       7.08516853
Cd       6.76484394      11.44649386       8.88902547
8
Properties=species:S:1:pos:R:3 config_type=qcd gap_pre_relax_energy=-2.741045975330459 gap_pred_energy=-2.816581846923733 gap_fmax_final=0.0009920307194130349 gap_converged=1 pbc="F F F"
Cd      12.72380189       9.79334306       7.77934526
Cd      10.75688546      11.79355445       9.37396822
Cd       9.82212126       8.41694254       8.83340617
Cd       7.74477795      12.69152751      10.09601732
Cd      12.56117294       9.28645878      11.11849881
Cd      10.15146221      13.43854378      12.08034963
Cd      10.01744110       7.23900303      11.99401914
Cd       9.24363784      10.36192751      11.74569612
8
Properties=species:S:1:pos:R:3 config_type=qcd gap_pre_relax_energy=-2.801031199815676 gap_pred_energy=-2.905724323716819 gap_fmax_final=0.0008740441249018817 gap_converged=1 pbc="F F F"
Cd      14.54656941      13.32984085      11.33669056
Cd      14.69382638      13.11701948      14.53758030
Cd      13.23731592      13.27515101      17.40553795
Cd      16.44557776      12.80257272      17.22063658
Cd      15.03037941      15.87040179      13.24060417
Cd      13.83918437      18.24181237      15.06330926
Cd      15.16004886      15.59707878      16.30963849
Cd      17.04709788      17.76612301      14.88600269
9
Properties=species:S:1:pos:R:3 config_type=qcd gap_pre_relax_energy=-3.5028978869339387 gap_pred_energy=-3.5183774635962397 gap_fmax_final=0.0009536451759464664 gap_converged=1 pbc="F F F"
Cd       8.01319251       6.12151750       8.03557365
Cd       6.10070184       8.72875565       7.85781298
Cd      11.02210766       7.07155896       7.66596955
Cd       9.91833039       7.67840581      10.58221391
Cd       8.74573187       8.53144525       6.00042857
Cd       8.01780887      10.29539286      10.42000588
Cd       6.75550310       7.38974346      10.66274409
Cd      10.66173296      10.09685984       8.56159092
Cd       7.94923729      11.27066717       7.39800695
9
Properties=species:S:1:pos:R:3 config_type=qcd gap_pre_relax_energy=-3.499417266135966 gap_pred_energy=-3.558158211147516 gap_fmax_final=0.0009788201120689963 gap_converged=1 pbc="F F F"
Cd      12.78115490       9.99211533      11.83030101
Cd      13.31452575      12.29241246       9.67968201
Cd      13.46999832      10.77010845      14.79268313
Cd      10.57190928      11.36905701      13.74234019
Cd      14.84220637      12.39295313      12.48247560
Cd      10.20682044      14.22954697      12.36915775
Cd      10.31086491      11.57339014      10.56492890
Cd      12.63254617      13.77001714      14.39470430
Cd      13.20921853      14.94964403      11.48297180
10
Properties=species:S:1:pos:R:3 config_type=qcd gap_pre_relax_energy=-4.016652806013776 gap_pred_energy=-4.047605573876349 gap_fmax_final=0.0008395540884669508 gap_converged=1 pbc="F F F"
Cd       7.92894888       7.24806851       6.73536695
Cd      10.70776848       8.85959950      10.10576210
Cd       7.92894888      10.47113049       6.73536695
Cd      10.33981981       6.30027301       8.45964762
Cd      10.33981981      11.41892599       8.45964762
Cd       7.93548108      10.46215881      10.10328497
Cd      10.72011764       8.85959950       6.73109132
Cd       5.90444622       8.85959950       8.46108423
Cd       7.93548108       7.25704019      10.10328497
Cd       8.85516313       8.85959950      12.70145828
10
Properties=species:S:1:pos:R:3 config_type=qcd gap_pre_relax_energy=-3.9496621046150677 gap_pred_energy=-4.0481200732679055 gap_fmax_final=0.0005393032918499795 gap_converged=1 pbc="F F F"
Cd      10.42366506       8.67809629       6.96734662
Cd      10.76800254      11.39591849       8.55655241
Cd       8.16616284       9.58756338       8.93378649
Cd      12.20269894       8.72184878       9.54157797
Cd      11.05728934      14.04791777      10.40317783
Cd       8.66665455      12.04448339      10.81497731
Cd      12.22278567      11.28244433      11.35072798
Cd       9.74443011       8.76217684      11.60050313
Cd       6.73052425       9.71919017      11.80601572
Cd      12.69697034       8.43954423      12.70451816
10
Properties=species:S:1:pos:R:3 config_type=qcd gap_pre_relax_energy=-3.8214082486024337 gap_pred_energy=-4.1024361974757495 gap_fmax_final=0.0009338528490666165 gap_converged=1 pbc="F F F"
Cd      12.10297933      10.05577164      12.17125709
Cd       9.89262361       7.83554307      12.40885002
Cd       9.95673037      12.13995126      11.19804091
Cd      12.21896800      11.03352854       9.15508225
Cd       8.05820737      11.00492575       8.82867014
Cd       7.71521202      10.02519917      11.82705726
Cd      10.17973235      13.37712000       8.26646028
Cd       8.50178222       7.92101550       9.56757049
Cd      10.27734531       9.27460840       7.36970358
Cd      11.70777503       7.94369231       9.81866360
11
Properties=species:S:1:pos:R:3 config_type=qcd gap_pre_relax_energy=-4.589010260513437 gap_pred_energy=-4.611616534485524 gap_fmax_final=0.0009233710173871998 gap_converged=1 pbc="F F F"
Cd      11.65781872      11.65781907      14.57159357
Cd      13.26849999      13.28229877      12.58617726
Cd      11.65781919      15.86278228      11.66228310
Cd      10.04713734      13.28229967      12.58617857
Cd      10.04713526      10.03333862      12.58618051
Cd       9.13512544      11.65781784      10.19710299
Cd      11.65781793      13.28573411       9.80045733
Cd      14.18050889      11.65781650      10.19710138
Cd      13.26850061      10.03333821      12.58617929
Cd      11.65781717      10.02990310       9.80045701
Cd      11.65781663       7.45284897      11.66228616
11
Properties=species:S:1:pos:R:3 config_type=qcd gap_pre_relax_energy=-4.492204153728284 gap_pred_energy=-4.533528024109405 gap_fmax_final=0.0008123120112766937 gap_converged=1 pbc="F F F"
Cd      13.04241850      12.29379412      13.06693866
Cd       8.15987886      10.86137136       9.48181509
Cd      10.29473568      12.92501263       8.76508692
Cd      12.72260157      11.48400238      10.00999957
Cd      12.57335314       8.41627955       9.72304841
Cd       9.55493504       8.10170165      10.07076250
Cd      10.80967122      10.05913062       7.85042568
Cd      11.57421995       9.56613735      12.32022356
Cd      10.15494388      12.38009037      11.72289965
Cd       8.58171889       9.90171719      12.39567425
Cd       6.68074769       8.15998717       8.74235009
12
Properties=species:S:1:pos:R:3 config_type=qcd gap_pre_relax_energy=-4.831348958849543 gap_pred_energy=-5.028858955134223 gap_fmax_final=0.0009811668108110304 gap_converged=1 pbc="F F F"
Cd      12.56721875      15.51839971      14.01872626
Cd      12.60722855      18.03439644      17.68799761
Cd      14.64351154      13.57952815      12.65850156
Cd      13.61172715      13.23712846      15.69704306
Cd      15.28666162      16.66012043      13.37247957
Cd      17.60239887      14.80221585      12.52218448
Cd      14.59202704      16.14943953      16.40418433
Cd      18.62862682      13.22152288      15.00167402
Cd      16.01218446      11.55235436      14.73042893
Cd      10.58791594      17.40271820      15.34505447
Cd      16.33381962      13.70295894      17.10786160
Cd      17.52667959      16.13921702      15.45386416
12
Properties=species:S:1:pos:R:3 config_type=qcd gap_pre_relax_energy=-4.9631036836451985 gap_pred_energy=-5.167764189550138 gap_fmax_final=0.0009664339184364532 gap_converged=1 pbc="F F F"
Cd      12.27437326      11.52076479       7.07052770
Cd      10.21460458       9.21506425       8.02918552
Cd       9.47073558       9.77558278      10.99132148
Cd      12.30421539      10.45129909      10.07564806
Cd      12.39811899      13.51465182       9.48657895
Cd      10.11365663      12.69311806      11.30023114
Cd      12.86914690      13.81444119      12.50843368
Cd      14.18377258      11.02689130      12.36264501
Cd       9.39507532      10.88226533      13.83278390
Cd      11.79120895       9.14087566      12.88880999
Cd      10.20843315      13.89176900      14.21605017
Cd      12.31981434      11.61643240      14.78094011
12
Properties=species:S:1:pos:R:3 config_type=qcd gap_pre_relax_energy=-4.928361941503266 gap_pred_energy=-5.256782777956954 gap_fmax_final=0.0007961010666722555 gap_converged=1 pbc="F F F"
Cd       8.25730651      11.54300192      10.49628282
Cd      11.22731398      10.65451459      10.78256423
Cd       6.85712855       8.98896634       9.43837285
Cd       8.43949271       6.51907099       9.93443947
Cd       8.95331058       8.85278189      11.85414332
Cd      11.16969573       7.69905314       9.85409693
Cd       7.99069705       6.03911035      13.01690881
Cd      12.03143687       9.73263695       7.88070217
Cd      10.34469087      12.36744984       8.32362831
Cd      10.06394930      10.58477650       5.72129554
Cd       9.15170788       8.05703487       7.33743769
Cd       7.60593303      11.05426568       7.45279088
13
Properties=species:S:1:pos:R:3 config_type=qcd gap_pre_relax_energy=-5.468154222969082 gap_pred_energy=-5.64970790841125 gap_fmax_final=0.000958354140412464 gap_converged=1 pbc="F F F"
Cd       7.41486382       9.37498304       8.80089834
Cd       8.37655884      14.41323680      10.27520672
Cd      10.20610169       9.01895194       7.75433772
Cd       9.41742424       8.08477172      10.64548258
Cd       9.68520661      11.46269575       9.89084173
Cd      12.29460177      11.09407882       8.21727338
Cd      10.10964611      10.12595287      12.69308739
Cd      14.13643613       9.01865053       9.65009080
Cd      11.90349594       6.89243945       9.13822645
Cd       6.46991460      11.90285006       9.94710512
Cd      12.25037715       8.10429214      12.01448748
Cd       8.09023429      12.23798137      12.58253965
Cd      12.55470132      11.17867804      11.29998513
13
Properties=species:S:1:pos:R:3 config_type=qcd gap_pre_relax_energy=-5.450369666689033 gap_pred_energy=-5.716265512524563 gap_fmax_final=0.0009739381110199514 gap_converged=1 pbc="F F F"
Cd      12.29329876      10.35219205      11.61167110
Cd      12.66661852       9.28356587       8.77073582
Cd      10.25701326      12.55412456      12.22408833
Cd      12.94615632       7.35928138      11.17801812
Cd       9.22412059       9.64892502      11.72893691
Cd      11.01884942      10.38264891       6.43529522
Cd      10.83086210      11.86162251       9.20775178
Cd       9.97918417       6.69751118      11.02964878
Cd       9.65724727       8.41208677       8.43719777
Cd       7.16750614       7.83188648      10.23476652
Cd       8.23933988      11.07093076       7.51794909
Cd       7.86526350      12.13969951      10.35851113
Cd       5.72287318      10.27385811       9.13376255
13
Properties=species:S:1:pos:R:3 config_type=qcd gap_pre_relax_energy=-5.416555163769493 gap_pred_energy=-5.872873359761519 gap_fmax_final=0.0009987518593438116 gap_converged=1 pbc="F F F"
Cd      10.78280112      10.15847640       7.63970152
Cd      11.40988440       7.22168604       7.03058026
Cd       7.69619098      10.49162394       8.10640768
Cd      11.63490070      11.08840017      10.67674722
Cd      12.71943330       8.54481492       9.59876063
Cd       8.74310157       7.71882290       8.66685638
Cd       7.32097913       9.13717651      10.91722920
Cd       9.19157354      10.78392005      12.73269105
Cd      10.25213439       8.24934625      11.60114244
Cd      11.03282070       5.86772429       9.83708196
Cd       9.73167115      12.73402340       8.68576023
Cd       9.96178215      13.57149339      11.64903983
Cd       7.30706411      12.21682897      10.64233883
14
Properties=species:S:1:pos:R:3 config_type=qcd gap_pre_relax_energy=-6.113621918752954 gap_pred_energy=-6.200194153316345 gap_fmax_final=0.0009265778348243567 gap_converged=1 pbc="F F F"
Cd      10.27896784      12.94752852      12.11128146
Cd       9.69968976       8.88551151       6.43656775
Cd      11.79368507       8.61604536       8.54277848
Cd       7.39186101      10.72962418       7.66323128
Cd      10.05576440      11.97245873       6.63903631
Cd       7.65418831       7.74055404       8.48634033
Cd       8.83441513      10.42064150      13.21604118
Cd       9.50475953       8.69818339      10.59066200
Cd      10.81660900       8.04177831      13.25793434
Cd       8.19403342      11.47766200      10.41488193
Cd      11.09016769      11.48849333       9.37188847
Cd      11.91839110      10.86953979      13.89011038
Cd      12.85147922       9.17959738      11.25188470
Cd      13.21242851      12.22882196      11.42380138
14
Properties=species:S:1:pos:R:3 config_type=qcd gap_pre_relax_energy=-6.0643402708061265 gap_pred_energy=-6.213695736656603 gap_fmax_final=0.0009764094525952646 gap_converged=1 pbc="F F F"
Cd       8.72443805      10.60167122       5.86250904
Cd       6.63331527       9.21671180       7.76639579
Cd       9.22665959       7.67661689       6.87853610
Cd       7.13994558      10.66175490      10.36797389
Cd      10.08205552      12.95848837       7.35555309
Cd      10.93047429       9.96812479       8.12124701
Cd      12.64902377      10.84666007      10.46866065
Cd      11.85446557       7.88194142      10.17132529
Cd       9.79390820      12.16136024      10.26446391
Cd      11.29940119      12.12219705      12.97522867
Cd       8.71219932       7.97203000       9.88915843
Cd       9.96236214       7.03124961      12.49131366
Cd      12.14110051       9.13566153      13.03688026
Cd       9.05932989       9.97421100      12.55943312
14
Properties=species:S:1:pos:R:3 config_type=qcd gap_pre_relax_energy=-6.1806725282216055 gap_pred_energy=-6.3430391915422595 gap_fmax_final=0.0008665037232825885 gap_converged=1 pbc="F F F"
Cd       8.74626106      10.53398846       6.54920947
Cd       9.51269936       8.20697660       8.57037292
Cd       9.66527742       6.15094095      10.84859950
Cd       7.75504444      10.72378876       9.36689695
Cd       7.25416095       8.09712108      10.74254600
Cd      11.30826974       8.79274467       6.09172566
Cd      11.60779161      11.93391184       6.40278689
Cd      12.25969493      10.03302277       8.81665201
Cd       9.43885502      13.06742996       8.28438749
Cd      10.44161898      11.69420139      10.77998954
Cd       7.87236007      10.68363301      12.36165714
Cd      11.43037381       8.64322509      11.26452808
Cd      10.70053866      10.53988966      13.64418566
Cd       9.03995996       7.93203175      13.30936867
15
Properties=species:S:1:pos:R:3 config_type=qcd gap_pre_relax_energy=-6.8008518954143184 gap_pred_energy=-6.968900591016556 gap_fmax_final=0.0009170336171614024 gap_converged=1 pbc="F F F"
Cd      11.03863183      11.30627207       7.12773299
Cd       8.82468626       9.13194605       6.91067057
Cd      11.79719175       8.27091206       6.99678819
Cd      13.44348787      10.24465720       8.78347740
Cd       8.73186821      11.13713042       9.24280827
Cd       9.90414901       8.07472584       9.61728151
Cd      12.91081254       7.32912134       9.72825270
Cd      11.55925927      12.30385106       9.92531380
Cd       6.71102757      11.54678226      11.52741392
Cd       9.13551599      13.48154658      11.28081426
Cd      12.06562323       9.66759402      11.53963270
Cd      11.54080616      12.42365244      12.93802366
Cd       8.81562999       9.32217429      12.00026580
Cd       8.61959121      11.90939356      13.93820991
Cd      10.80074906       9.74927079      14.34234428
15
Properties=species:S:1:pos:R:3 config_type=qcd gap_pre_relax_energy=-6.785696861849594 gap_pred_energy=-6.929009791837409 gap_fmax_final=0.0009262047004894449 gap_converged=1 pbc="F F F"
Cd      10.69630297       9.47419561       5.60026986
Cd       8.46138012       8.84661590       7.61231030
Cd      11.36221261       7.62762225       8.03474486
Cd      13.06388456      10.19724155       7.47386731
Cd      10.25058309      11.70246225       7.70160533
Cd       7.65545863      11.51941525       9.04065111
Cd       7.51733491       6.47058716       9.27699957
Cd       5.89738594       9.10211670       9.50758545
Cd      12.46887983       9.33312603      10.42578370
Cd      12.56598435      12.36037997       9.64425776
Cd       9.95595732       7.62174969      10.74873203
Cd      10.05185017      11.29290157      11.04719391
Cd       7.01023334      10.81198314      11.91028499
Cd       7.02348611       7.68103448      12.06458687
Cd       9.35942834       9.29893074      13.25148923
15
Properties=species:S:1:pos:R:3 config_type=qcd gap_pre_relax_energy=-6.896577788361121 gap_pred_energy=-7.267838968227345 gap_fmax_final=0.000907029081152273 gap_converged=1 pbc="F F F"
Cd      15.60286290      14.67096775      11.52806963
Cd      12.62849951      15.19876984      12.38048908
Cd      13.92579621      12.38347333      12.87374191
Cd      16.83405983      12.76919941      13.49199463
Cd      14.74836125      17.29570710      12.69959480
Cd      17.39991932      15.90842147      13.86560266
Cd      12.05236966      13.61798702      14.86292046
Cd      12.79569886      16.72418000      15.18600950
Cd      15.65592186      18.17354294      15.33056202
Cd      14.80417420      12.36760561      15.94846413
Cd      17.74547104      13.64800257      16.12167102
Cd      17.49768957      16.50237689      17.00566691
Cd      12.96294276      14.49603571      17.49319809
Cd      14.52366022      17.02942258      17.86032435
Cd      15.82257278      14.21430780      18.35169080
16
Properties=species:S:1:pos:R:3 config_type=qcd gap_pre_relax_energy=-7.3306884072086556 gap_pred_energy=-7.589308993979004 gap_fmax_final=0.0007304963635564724 gap_converged=1 pbc="F F F"
Cd      11.20296612       8.56004470      13.99863076
Cd      10.70821156       6.78666482      11.40029538
Cd      12.26087778      11.34718122      13.15824690
Cd      13.07372782       8.76006412      11.55429873
Cd       8.31250599       7.83348633      13.05626024
Cd       9.39732713      10.66539069      12.46136480
Cd      11.36656464       8.47900955       8.96675157
Cd      12.48093406      14.00891165      11.35418357
Cd       8.48578985       8.61888096      10.06402900
Cd      11.75573657      11.16963352      10.18319747
Cd       8.52323100      11.89794533      10.01077269
Cd      11.49642332      10.98751820       7.12972064
Cd      10.67733077      13.58296120       8.71712854
Cd       9.13321968       9.01120755       6.98025322
Cd       8.65549841      12.15753554       6.85241782
Cd       6.59419886      10.25810818       8.23699226
16
Properties=species:S:1:pos:R:3 config_type=qcd gap_pre_relax_energy=-7.351377204193697 gap_pred_energy=-7.4803002105446845 gap_fmax_final=0.0008070327167267067 gap_converged=1 pbc="F F F"
Cd      13.95199305       9.80848084      13.04008766
Cd      14.60112290      12.65272573      14.16451491
Cd      11.46657763       8.97981033      11.47472865
Cd       8.49253905      12.03004298       9.91586606
Cd       8.28429123       9.38891237      11.48565916
Cd      11.63859693      11.94991772       9.32914684
Cd      13.38750861      13.71801719      11.51446659
Cd      11.64803344      11.90964773      13.67455298
Cd      14.58995107      12.70186334       8.83985821
Cd       8.49949072      12.00011066      13.10308412
Cd       9.89501959       9.51086192       8.90372260
Cd      10.44262602      13.78331748      11.52167572
Cd      13.94528098       9.83749951       9.91449401
Cd       9.90595162       9.46283526      14.06202741
Cd       7.33270248      14.51055082      11.53512804
Cd      15.88791676      11.72500820      11.49058911
16
Properties=species:S:1:pos:R:3 config_type=qcd gap_pre_relax_energy=-7.235559672959554 gap_pred_energy=-7.510346459230633 gap_fmax_final=0.0008113787956155872 gap_converged=1 pbc="F F F"
Cd      14.64580981      12.57505602      12.24758579
Cd      10.27714976      13.78182426      10.83738989
Cd      14.13949908      12.47706248       9.24568096
Cd      11.33039413      11.84589750       8.67064649
Cd      10.39111502       8.31137272      11.79406762
Cd      12.90633968      10.14115756      11.01211624
Cd      11.30673947       8.71706131       8.90433090
Cd      13.14335711      14.94173662      10.82632401
Cd       9.14452723      10.25414952       7.22541355
Cd       8.27731327       8.39004855       9.51083687
Cd       8.41772845      11.62607261       9.97470733
Cd      10.07062069      11.31302542      12.85464340
Cd      10.87430360       8.81222788      14.74778040
Cd      11.95777131      13.69357304      13.43276694
Cd       7.60583022       9.67496250      12.16399248
Cd      12.93708807      10.87035894      13.97730401
17
Properties=species:S:1:pos:R:3 config_type=qcd gap_pre_relax_energy=-8.134707385592302 gap_pred_energy=-8.23375112502894 gap_fmax_final=0.0008416589424125532 gap_converged=1 pbc="F F F"
Cd      12.84140351       9.95390190       8.43097182
Cd      10.59253272      11.75485062       7.53794779
Cd      10.09965957      14.73262259       8.11771984
Cd      12.67914102      13.23708409       9.30185933
Cd      10.11514955       9.99893766       9.93263510
Cd       8.35034907      12.55194143       9.69004385
Cd      11.86841403       7.59660844      10.37681232
Cd      14.86709271       8.26071315      10.25376463
Cd      14.45693990      11.26830245      10.73817126
Cd       7.53494980      10.24760069      11.45671658
Cd      10.35064829      14.41939993      11.16480865
Cd       9.82509605       8.25586736      12.49517674
Cd      13.08507274       9.18522665      12.75572797
Cd      11.78962332      11.90564777      11.97182734
Cd       8.93183674      12.52945624      13.03959411
Cd       7.88924694       9.86231736      14.48553830
Cd      10.90991230      10.42658992      14.43775265
17
Properties=species:S:1:pos:R:3 config_type=qcd gap_pre_relax_energy=-7.962400370514425 gap_pred_energy=-8.108357528495654 gap_fmax_final=0.0008691944633101773 gap_converged=1 pbc="F F F"
Cd      14.99341018      12.61511451      10.95010859
Cd      13.59099752      12.56599690       8.24260778
Cd      13.56992468       7.75158043      11.96359248
Cd      13.52729365      10.71203525      12.92069785
Cd      13.36516065      13.79158584      13.27627614
Cd      12.41965474      14.46804541      10.37951742
Cd      11.68240064       8.58060186      14.26216299
Cd      13.65542442       9.97441087       9.90982164
Cd      10.78895589       9.05408359      11.19456026
Cd      10.92070828      12.17697812      12.28246608
Cd       9.22014361      10.11943752      13.65292658
Cd      11.00769482      11.28220274       9.08934379
Cd       9.56284591      13.76554195      10.06317660
Cd       7.39665405       9.46249396      11.36442385
Cd       7.79038115      12.46557953      12.26772552
Cd       8.93486140       9.18789108       8.76308493
Cd       7.36611289      11.81904493       9.21013201
17
Properties=species:S:1:pos:R:3 config_type=qcd gap_pre_relax_energy=-8.04883300957321 gap_pred_energy=-8.13446470239891 gap_fmax_final=0.0009334388117187815 gap_converged=1 pbc="F F F"
Cd      14.45227582      15.74178572      15.31040493
Cd      13.38162431      13.42261031      13.43448700
Cd      15.39541893      11.61341551      12.01797480
Cd      13.01008281       9.74197314      12.62276764
Cd      16.63648308      14.27685403      12.89888182
Cd      10.75686810      13.53428064      15.00387599
Cd      13.35905179      12.99828702      16.49266720
Cd      11.77603921      10.65803432      15.32307449
Cd      14.86239532      10.74018527      14.89682590
Cd      10.47956073      11.53835561      12.63015099
Cd      16.30612107      13.31762086      15.75170518
Cd      12.69897657      12.21056981      10.70325513
Cd      11.85183247      16.09024694      13.70818386
Cd      15.07913355      14.19538283      10.23202093
Cd       9.54750177      14.52404144      12.27170424
Cd      12.19303884      15.20120068      10.72016907
Cd      14.53091154      16.51247180      12.29916675
18
Properties=species:S:1:pos:R:3 config_type=qcd gap_pre_relax_energy=-8.584000428698975 gap_pred_energy=-8.875644634412257 gap_fmax_final=0.0009957124331303683 gap_converged=1 pbc="F F F"
Cd       8.26271670      12.61324036       8.93817941
Cd       9.88727868      14.81378534      10.46802247
Cd      11.06951057      13.36735678       7.89523713
Cd       9.11173660      12.25948254      11.96949869
Cd      10.36895742      10.40090315       7.97974753
Cd       8.34497568       9.93965320      10.30944141
Cd      11.82467388      11.24884092      10.45056846
Cd      11.68777914      14.03488621      12.94251881
Cd      12.89914632      14.26826421      10.06957489
Cd      12.79424360       8.68859035       9.06337264
Cd      10.18765347      12.13735760      14.73846215
Cd       9.93344826       7.53719979       9.03459139
Cd      13.64013499       9.48308607      12.01756200
Cd       8.92175652       7.51874982      11.93704323
Cd      14.28616526      12.47381912      11.93362884
Cd      10.65809888       9.64239549      13.10623908
Cd      11.89783466       7.08296282      11.54378347
Cd      13.05767658      11.32321345      14.43631561
18
Properties=species:S:1:pos:R:3 config_type=qcd gap_pre_relax_energy=-8.703816836229581 gap_pred_energy=-8.972384590617086 gap_fmax_final=0.0009519237172375956 gap_converged=1 pbc="F F F"
Cd      11.03196577      13.59731856       8.91732771
Cd      13.23759990      13.92575996      11.00634398
Cd      11.02012709      11.16757284       7.01034314
Cd      11.07660014      11.24251004      15.08343403
Cd      11.05028342       8.18810828      11.07405284
Cd      11.04822432      11.24125573      11.04661317
Cd      11.06142690      13.63600850      13.13213044
Cd       8.85495668      13.92341579      11.03722264
Cd      13.46703541      11.75171463       8.82571465
Cd       9.54155473       8.88028377      13.76497285
Cd       8.62864867      11.79002078      13.25759783
Cd       9.50386488       8.83022083       8.39326214
Cd       8.59806834      11.74893597       8.85979103
Cd      13.68278199       9.72190945      11.04230308
Cd      12.59575513       8.88206303      13.74392714
Cd      13.49780305      11.79281296      13.22400298
Cd      12.55795135       8.83189828       8.37236152
Cd       8.41575704       9.71859539      11.07900367
18
Properties=species:S:1:pos:R:3 config_type=qcd gap_pre_relax_energy=-8.51921770631765 gap_pred_energy=-8.760283390746 gap_fmax_final=0.0009968582523017962 gap_converged=1 pbc="F F F"
Cd      12.28681999       6.79557586      11.54470845
Cd      11.07711381      12.26079003      13.24987619
Cd       9.88637387       8.03880971      12.98754328
Cd       7.50973549      10.62189676       8.45790925
Cd      13.45803012      11.83969636      11.35310262
Cd      10.02326168      12.32725214       7.91494505
Cd      12.54396251       9.51672738      13.00448251
Cd      10.88316624       7.40768564       8.93100103
Cd      10.56480430      10.44518979      10.27366409
Cd       8.15279882      12.86332645      10.33155073
Cd       8.48615314      10.66563938      12.56007347
Cd      11.23653744      13.56362475      10.34854831
Cd       8.27196550      13.68402880      13.34070336
Cd      13.37348488       9.19545780       9.92398339
Cd      11.87855548       9.88010141       7.41443486
Cd       9.25362920      10.16292234       5.87212245
Cd       8.23484793       7.72864360       7.45916867
Cd       8.29296819       8.41684040      10.44639088
19
Properties=species:S:1:pos:R:3 config_type=qcd gap_pre_relax_energy=-9.436321273965714 gap_pred_energy=-9.590525942856939 gap_fmax_final=0.0008156859017309299 gap_converged=1 pbc="F F F"
Cd       8.35323376      11.28412125      12.99391998
Cd      10.08022575       8.92081913      13.39762460
Cd       8.49749885       9.16405047      10.71387885
Cd      10.54624428       8.39678615       8.50810086
Cd       7.66820185      12.16474533      10.10584858
Cd      10.57222818       6.88899915      11.11663690
Cd      10.83560482      13.03437036      13.47314821
Cd       8.34062226      14.23587555      12.15438565
Cd      12.75980203      10.68739703      13.44240853
Cd      12.85344066       7.71315198      13.02931645
Cd      11.04547176      14.65730348      10.85293984
Cd       8.38609886      10.37710779       7.77232448
Cd      13.61501147      13.51664781      12.33123081
Cd      14.30296523      10.93186551      10.83334734
Cd      10.85196372      10.99985724      11.05899024
Cd      13.30865304      13.44554878       9.24258588
Cd      10.29080176      12.78036340       8.57411067
Cd      13.26737233       8.20296690      10.05078372
Cd      12.47893658      10.65239987       8.40279558
19
Properties=species:S:1:pos:R:3 config_type=qcd gap_pre_relax_energy=-9.128258543518623 gap_pred_energy=-9.514293691730781 gap_fmax_final=0.0009829947936569137 gap_converged=1 pbc="F F F"
Cd      13.49388542       8.18126283       8.74925038
Cd      14.34591619       9.02301922      11.60593498
Cd      11.99936206      10.70247497       7.63440623
Cd      14.56400169      11.03540998       9.30415418
Cd      10.55107977       8.14146549       8.43816361
Cd      11.66171728       7.56915903      11.22050715
Cd      10.31713561      13.15361137       7.57327598
Cd      12.15933161      12.52385014      10.24182740
Cd       9.98172092      10.52526745      10.46725790
Cd      11.92749118      10.37751983      12.69877730
Cd       8.63455645       7.49899343      10.62390387
Cd       9.76147484       8.00344670      13.46693092
Cd       8.94542356      10.38630640       7.32070766
Cd       7.54071597      12.12630674      11.63611449
Cd       7.35729233      12.70464307       8.54754166
Cd       6.97789858       9.17890444      12.58252887
Cd       9.51520748      13.97610344      10.39107875
Cd       7.02043627       9.86663859       9.61270379
Cd       9.19092448      10.97118855      13.83050654
19
Properties=species:S:1:pos:R:3 config_type=qcd gap_pre_relax_energy=-9.437991217178105 gap_pred_energy=-9.524310500055517 gap_fmax_final=0.0008535922663464898 gap_converged=1 pbc="F F F"
Cd      11.64255850       6.92022668      11.52639737
Cd      10.18023732       7.12870249       8.74106720
Cd      12.69389846       8.70484373       9.32660368
Cd       9.97528556       8.54307230      13.52771309
Cd      12.40699037       9.92988001      12.07570788
Cd       7.52309244       9.71588200      11.93229926
Cd       8.57778809       6.78704784      11.43425543
Cd      11.73696754       8.72080857       6.39473208
Cd       8.63293780       8.58263397       6.30212299
Cd       7.50907722       8.48084553       9.17243752
Cd      10.01278475      10.20013092       9.86379750
Cd      13.94714089      11.49872443       9.70280009
Cd      11.59954387      11.62570989       7.60487941
Cd       9.87301380      11.45108777      12.71499474
Cd       8.43970270      11.48376417       7.51315878
Cd       5.99452990      11.15123639       9.47069808
Cd      12.25812725      13.14296081      11.73148850
Cd       9.88039291      13.29783519       9.66971755
Cd       7.41119550      12.92987217      11.59039372
20
Properties=species:S:1:pos:R:3 config_type=qcd gap_pre_relax_energy=-10.154977827710571 gap_pred_energy=-10.231730041374693 gap_fmax_final=0.000978512624376775 gap_converged=1 pbc="F F F"
Cd      10.95661145       7.01931285       7.45769704
Cd      10.08311540       6.87264308      10.51767534
Cd      13.02131205       6.70956564       9.59655705
Cd      12.89181419       9.42349411       8.29481252
Cd      12.33716415       8.76247075      11.63045751
Cd       8.12033731       7.47934424       8.05823459
Cd       9.85511292       9.85114863       9.83635281
Cd      10.01366483       9.81475654       6.85258159
Cd       5.59303920       8.67369536       9.17152343
Cd       7.07655149      10.37739542       7.21221344
Cd       7.09571941      11.10823597      10.30392301
Cd       8.82219508      12.58951658       8.03182498
Cd       7.49862624       8.17074477      11.38915424
Cd       8.05099603      10.58592470      13.16059033
Cd       9.85948832       8.14477709      13.29085065
Cd      11.92434099      12.06191632       7.45247367
Cd       9.42585167      12.65653119      11.41823107
Cd      11.01354734      14.14331121       9.39450621
Cd      12.26504482      11.59009813      10.58129228
Cd      11.06701834      10.93666861      13.32059947
20
Properties=species:S:1:pos:R:3 config_type=qcd gap_pre_relax_energy=-9.983089459910833 gap_pred_energy=-10.331016900665862 gap_fmax_final=0.0008550781331238095 gap_converged=1 pbc="F F F"
Cd      13.12569859      11.13611765       7.28986839
Cd      10.86468388      13.13702917       7.47403926
Cd      10.27303558      10.04747364       8.07812733
Cd      10.28127257       8.10979023      10.54423768
Cd      12.95135516       8.97438636       9.30906249
Cd       8.20021272      12.37956506       8.61854976
Cd      10.20151994      14.03860385      10.30240469
Cd      11.19638197      11.07719427      10.98765977
Cd       7.64450184       9.65273033       9.69764291
Cd      13.18142996      13.08572336       9.68909950
Cd      12.61313282      14.91045422      11.98816447
Cd       8.37726268      12.05319216      11.71867083
Cd      14.11731193      10.73494459      11.64717287
Cd      10.64489195       7.91315681      13.61288098
Cd      13.21608878       7.68061854      11.96835936
Cd       8.09631640       9.10408818      12.59394939
Cd      10.06636378      14.02254682      13.47487850
Cd      10.20238129      10.94980476      13.97754775
Cd      12.88129892      12.57543810      13.87222681
Cd      13.07626380       9.62854647      14.36686184
20
Properties=species:S:1:pos:R:3 config_type=qcd gap_pre_relax_energy=-10.111446005314964 gap_pred_energy=-10.246012274273415 gap_fmax_final=0.0009675120591269766 gap_converged=1 pbc="F F F"
Cd      13.54116949      14.60317772      10.46933838
Cd      13.04863830      10.44690251      13.66105908
Cd      11.18649892      11.34337813      11.31547283
Cd      14.29407847      11.60763121      11.05115342
Cd      13.84027899       9.62866480       8.72400434
Cd      11.09762787      14.72986581       8.62661276
Cd       8.95955672       8.59529069      10.08877845
Cd      11.74105991       7.65759560       9.64135198
Cd       9.06043823      12.73479048       9.43208234
Cd      13.08401182      12.46650157       8.28851358
Cd       6.98209673      10.86809302      10.41982784
Cd      10.79986346      10.42888036       8.46246289
Cd      13.94627064       8.52257742      11.56811070
Cd      13.04128023      13.47844798      13.18463009
Cd      10.94176901       8.46531758      12.51347242
Cd      10.61800787      14.39680412      11.66656668
Cd       7.95508520       9.36569396      12.90488771
Cd       8.54688298      12.45697800      12.56843163
Cd      10.10041229      10.72364555      14.46731280
Cd      12.16557080      12.43036138      15.89652799
21
Properties=species:S:1:pos:R:3 config_type=qcd gap_pre_relax_energy=-10.634700233230559 gap_pred_energy=-10.906623798616137 gap_fmax_final=0.0009541401145716561 gap_converged=1 pbc="F F F"
Cd       9.62671867      13.40286455       7.94158721
Cd      12.03332467       9.45503568      13.81966532
Cd      11.06975057       7.24490999      12.10080057
Cd      12.21151320      12.00116840      12.20125856
Cd       6.61287583       8.68923373       9.69459847
Cd       9.47308782      10.97270517      13.19259048
Cd      11.97818558       7.09146204       9.24634164
Cd       9.07378766       6.73879038       9.82452603
Cd       6.53871282       5.99734755       8.05489788
Cd       7.18315801      11.17314720      11.25874047
Cd      11.28321367       7.84576498       6.42282582
Cd      10.44866908      10.74806616       6.89265935
Cd      13.14888401       9.64635896       7.95225195
Cd       9.96280625       9.84532762       9.94198537
Cd       7.11279448      13.64258502       9.60067218
Cd       9.72183809      13.14094403      11.06508522
Cd       8.29638552       8.45370372      12.18013649
Cd       8.51345623       8.36482400       7.28567164
Cd      12.00048539      12.05312293       9.24491385
Cd      13.11159196       9.38868865      10.92369654
Cd       7.53407301      11.03926176       8.09040748
21
Properties=species:S:1:pos:R:3 config_type=qcd gap_pre_relax_energy=-10.502694262684043 gap_pred_energy=-10.737482522548488 gap_fmax_final=0.0009327026217216697 gap_converged=1 pbc="F F F"
Cd       7.92802644      11.35045911      10.26583328
Cd       7.91036765      11.02471656      13.26294793
Cd       8.39474361       8.55005115      11.54205837
Cd      10.35658535      14.10633189       7.94003478
Cd       9.20070729      14.06603987      10.69439500
Cd       8.93080924      11.49138114       7.39620467
Cd      10.03453531       9.25795766       9.12448242
Cd      10.80554207      11.29642315      11.22666167
Cd      11.43574237       8.06996252      11.69561659
Cd       8.53451925      13.90250886      13.62856476
Cd      14.50046332       6.81780383       7.28527640
Cd      12.59498152       9.58149297      14.21610562
Cd       9.73380343       8.80752161      14.23348994
Cd      13.00673697       8.87055475       9.14358407
Cd      10.66220574      11.83110468      14.47725074
Cd      11.41432695      14.44375379      12.93573021
Cd      12.35193417      13.76539468      10.18385732
Cd      11.98691079      11.48240614       8.05530326
Cd      14.29495046       9.32267075      11.83185919
Cd      13.35741423      12.16034657      12.74957655
Cd      14.35044844      11.58687293       9.89692187
22
Properties=species:S:1:pos:R:3 config_type=qcd gap_pre_relax_energy=-11.207199811101908 gap_pred_energy=-11.740152734240873 gap_fmax_final=0.0009398747060814103 gap_converged=1 pbc="F F F"
Cd       9.08964047      13.62034939       9.68387973
Cd      11.52495531      11.87800602       8.86767077
Cd      14.25449327      10.23243546       8.84633483
Cd      11.70025380       8.72560374       9.34689357
Cd      14.34514308      13.24487450       8.70067875
Cd      11.94235374      14.61305725      10.21971480
Cd      14.80802817      14.85657613      11.20109491
Cd      15.37392059      11.74329501      11.35728308
Cd       9.35177779      10.52531592      10.46191636
Cd      10.80297705       8.04783930      12.13929009
Cd       9.66885069      15.13395067      12.32580730
Cd      13.63936274       9.30703714      11.81851110
Cd      12.06765486      11.90016548      11.82017326
Cd       7.99317732      12.59364964      12.33585764
Cd      12.51063274      14.63094953      13.27879717
Cd       6.39320324       9.91398142      11.94063174
Cd      10.37321005      12.65380851      14.22557441
Cd      15.35582771      13.56333768      13.85050168
Cd      11.96868177      10.01734752      14.29036556
Cd      15.01825880      10.55290854      14.30780223
Cd       9.04008058       9.95698436      13.61357134
Cd      13.09970956      12.61072013      15.68984303
22
Properties=species:S:1:pos:R:3 config_type=qcd gap_pre_relax_energy=-11.0575437382602 gap_pred_energy=-11.693342995176444 gap_fmax_final=0.000883135351691055 gap_converged=1 pbc="F F F"
Cd      13.90978424       8.92221228      10.65198838
Cd      15.12888666      11.30590918      12.15928929
Cd      13.94845255      11.68149949       9.34249277
Cd      15.79024869      13.84307704      10.63831515
Cd      11.28634797      10.03912598       9.32074926
Cd      13.56272287      14.65553928       8.70510746
Cd      11.13306497       8.25135559      11.72477901
Cd      13.83211998      16.09263234      11.36902466
Cd      14.88141067      11.48832313      15.18781892
Cd      13.15237606       9.49842572      13.63881456
Cd      12.34096893      12.34135717      12.17912598
Cd      14.81429269      14.08626416      13.52433195
Cd      11.99283249      10.85807512      15.99086313
Cd      11.21041426      12.84595613       8.26958167
Cd      12.99359568      13.73032283      15.95274402
Cd      10.20097834      10.58321431      13.34215462
Cd      11.88910496      14.99615058      13.40445474
Cd       9.66834417      12.13771666      10.84144869
Cd      11.02417314      14.99986376      10.44240971
Cd      10.12037802      13.17582589      15.05477613
Cd       8.85368102      10.51255159      16.21832687
Cd       8.83975016      14.52853028      12.61533153
23
Properties=species:S:1:pos:R:3 config_type=qcd gap_pre_relax_energy=-11.837656750485337 gap_pred_energy=-12.504873852288654 gap_fmax_final=0.0009437121871414818 gap_converged=1 pbc="F F F"
Cd      18.88409377      18.57177829      14.88830098
Cd      16.34456751      11.08266749      15.30038790
Cd      18.55436435      15.51008484      14.30907290
Cd      17.47788884      13.70789298      16.48978246
Cd      18.31174716      12.64555305      13.60680264
Cd      15.12716941      14.95669922      15.01820597
Cd      15.89797015      15.00765674      18.91616377
Cd      17.52043496      16.69140444      16.93630479
Cd      13.55295274      11.97864400      14.47834529
Cd      15.67973608      11.82115680      12.33864525
Cd      16.54066895      14.74078536      12.11551779
Cd      14.65573931      12.81443918      17.17016136
Cd      13.04577683      15.31444572      17.72542070
Cd      17.22699197      17.62573250      12.48893862
Cd      14.34182182      16.99593627      12.78903418
Cd      15.74296546      18.39514834      15.13549778
Cd      13.59235299      14.06841388      12.34012894
Cd      14.86381329      17.72183183      17.97047187
Cd      11.64259278      12.81509040      16.69414557
Cd      11.48563129      16.25596308      13.07650222
Cd      12.98223162      17.36903277      15.55511163
Cd      10.95028498      13.34624223      13.74484834
Cd      10.57820373      15.56340061      15.91220904
23
Properties=species:S:1:pos:R:3 config_type=qcd gap_pre_relax_energy=-11.96136949867281 gap_pred_energy=-12.414871692215172 gap_fmax_final=0.000909700760873001 gap_converged=1 pbc="F F F"
Cd      11.29711698      14.51220358       9.81853938
Cd       8.86265801      14.05051145      11.68831268
Cd       9.30909443      12.22935863       9.29905708
Cd      10.04891031      12.25483786      13.84421853
Cd      10.85867091      10.52156016      11.31217166
Cd       8.68799495       9.66904830      13.60818282
Cd       8.87877011       8.04547358      11.17501949
Cd      10.10730407      10.23287911       7.10519115
Cd       9.85107038       7.52069425       8.37146859
Cd       7.00355728      12.21970564      13.35300514
Cd       6.28148168       9.62383550      11.70691341
Cd       6.51758563      12.34191589      10.34508445
Cd       7.65519236       9.70778916       8.93462448
Cd      11.78532395      14.47700318      12.78269811
Cd      13.90740035      13.18287469      10.84617724
Cd      12.16027613      11.73757047       8.82435932
Cd      15.01538940      10.87895840       8.92564904
Cd      12.94604656      11.75673746      13.36061122
Cd      12.69963654       8.83850558       8.09119582
Cd      15.49275296      10.75830337      11.93472653
Cd      11.77524493       7.54604235      10.69065221
Cd      14.77115246       8.16270241      10.28889482
Cd      13.24149211       8.88561145      12.84736933
24
Properties=species:S:1:pos:R:3 config_type=qcd gap_pre_relax_energy=-12.918109967840415 gap_pred_energy=-13.2558460274416 gap_fmax_final=0.0009834228894869319 gap_converged=1 pbc="F F F"
Cd      16.21181957      13.08558931      13.44020884
Cd      13.54006611       9.08847227      11.87107715
Cd      13.30430157      13.64567347       9.56003082
Cd      14.68624114      15.18966536      11.87166434
Cd      11.89091327      11.56317599       7.83586666
Cd      16.24679231      10.46063383      11.87797866
Cd      10.27236637      13.49688770       9.55222464
Cd      11.86955926      11.56603911      15.89577520
Cd       8.73622528      14.89702983      11.85587731
Cd       7.41290556      12.65491847      13.41699013
Cd       7.42104181      12.65349691      10.28967328
Cd      14.28912539      10.84483270      14.20395395
Cd      14.30143435      10.84311555       9.54098317
Cd      11.87255757      11.72866307      11.86559786
Cd      12.01801317       8.88510554       9.24368106
Cd      16.22012038      13.08394416      10.31281913
Cd      10.26005213      13.49855571      14.16910322
Cd      10.46946535       8.94031059      11.86308816
Cd      13.29199494      13.64726040      14.17730202
Cd       9.55275238      10.61101063       9.52813876
Cd       9.54035289      10.61265636      14.19173102
Cd       7.64091033      10.03964679      11.85516265
Cd      11.72038920      14.85017303      11.86406777
Cd      12.00422435       8.88676789      14.49062884
24
Properties=species:S:1:pos:R:3 config_type=qcd gap_pre_relax_energy=-12.429938668925239 gap_pred_energy=-12.837805846962588 gap_fmax_final=0.0009750340088695359 gap_converged=1 pbc="F F F"
Cd      16.37179118      11.96198396      12.50026955
Cd      14.48510036      12.53653273      14.64655589
Cd      13.93927150      14.33129453      11.92549311
Cd      15.63974706      12.70711452       9.76110236
Cd      14.99937921       9.93485510      10.56062006
Cd      13.43739573      15.28718038      15.15209750
Cd      11.87249862      16.52550022      13.03277598
Cd      12.24030599      12.05657813      12.75633698
Cd      12.12695440      16.50690848      10.12852753
Cd      13.94953558      14.70824642       8.63981924
Cd      13.40141677      10.26548340      16.31206669
Cd      12.34345991       9.31927557      11.64641946
Cd      11.83548789      12.97731531      16.27547958
Cd      14.82360333       9.50220412      13.65944908
Cd      12.51046393      12.02150617       9.74237142
Cd      10.49715647      14.20753948      11.49181102
Cd      12.03561512       8.30351789      14.44203253
Cd       9.50038721       9.52881181      13.15142357
Cd      11.05004509      14.74193083       7.92518791
Cd      10.31723026      10.30759565      16.01769517
Cd       9.69576339      12.58671567      14.12303075
Cd       9.48990778      12.59788210       9.04811452
Cd       9.92779259       9.86844947      10.08495834
Cd       8.19880616      11.90469353      11.66547728
25
Properties=species:S:1:pos:R:3 config_type=qcd gap_pre_relax_energy=-13.259325311146982 gap_pred_energy=-13.760508232715653 gap_fmax_final=0.0008904738762348793 gap_converged=1 pbc="F F F"
Cd      12.52666232      13.52959941       7.96926448
Cd      10.99709359      14.96178890      10.14867473
Cd       9.70868245      12.52144919       8.77578477
Cd      16.26866267      10.39087829      11.57928223
Cd      14.83245210      12.06783177       9.41788284
Cd       8.03926474      14.33145129      10.56312144
Cd      14.49330314       8.95257505       9.57079135
Cd       9.38209305       9.45484822       9.48742036
Cd      11.74449912       8.23586328      10.94002464
Cd      12.12361869      10.73973309       9.15974135
Cd      14.08994627      14.98987058      10.14602884
Cd       7.51524389      11.40942166      10.75500270
Cd      12.49484672      14.96283199      12.77630186
Cd      14.43209300       8.05172786      12.44993349
Cd      11.67050174      12.05542669      11.77860643
Cd      14.67753808      12.85861954      12.31357118
Cd       8.66589313      12.80575104      13.26100113
Cd       9.56124266      15.74617013      12.70549509
Cd      12.11928724       9.32863926      13.84415328
Cd      14.94545163      10.43992982      14.31661699
Cd       9.58822695      10.03983450      12.54832644
Cd      13.03480349      12.77616683      14.80862935
Cd      10.26406127      11.32960265      15.47183349
Cd      10.52673461      14.32156325      15.14176037
Cd      12.91307801      10.31370629      16.68603172
25
Properties=species:S:1:pos:R:3 config_type=qcd gap_pre_relax_energy=-13.545819380945646 gap_pred_energy=-13.949516075104144 gap_fmax_final=0.0008168855881807241 gap_converged=1 pbc="F F F"
Cd       9.45232201      13.21595445       7.59716728
Cd      11.56341544      11.26762596       8.42791707
Cd       8.65710836      10.42621413       8.81422162
Cd      14.51580813      12.12063290       8.67777922
Cd      12.20738870      14.23443089       8.72401657
Cd      10.92567154       8.27031740       8.76884919
Cd       9.45930394      15.34473327       9.77822840
Cd      14.52249171      14.22281807      10.83127300
Cd       7.38161118      13.11572652       9.83142665
Cd       8.88089326       8.17154227      10.97483799
Cd      13.39450729       9.59850952      10.05202651
Cd      14.81760851       8.32568947      12.35324325
Cd      11.86218592       7.50410378      11.65593350
Cd       8.45794926      11.11768624      11.77888394
Cd      15.41351476      11.31272444      11.56589645
Cd      11.44741225      11.44732366      11.44746229
Cd      13.40523625      12.79089848      13.32287786
Cd      11.57395647      14.46126612      11.69940476
Cd       8.66930825      14.06392745      12.54040527
Cd      10.28843857       9.44809153      13.40271075
Cd      12.74687121       8.22575876      14.58739540
Cd       8.89323384      11.84907930      14.74234908
Cd      14.82495206      10.45464582      14.53420136
Cd      10.94536535      14.04991910      14.68984587
Cd      11.87463963      11.14157435      15.38284060
26
Properties=species:S:1:pos:R:3 config_type=qcd gap_pre_relax_energy=-13.623812186405427 gap_pred_energy=-14.047102232997883 gap_fmax_final=0.0008869382439646988 gap_converged=1 pbc="F F F"
Cd      10.73223978      11.68941152      10.93481180
Cd      12.55453925       9.87757683       9.10154971
Cd      11.90355721      13.35775744       8.30031789
Cd      12.39712305       8.50451132      14.10987726
Cd      11.87695234      15.40609241      10.71808722
Cd      15.22465464      10.50824349      10.49684624
Cd       7.84933293      10.21488933      10.10681946
Cd      11.94592334       6.80194348       9.40077171
Cd      13.85495766      13.24021219      10.79761860
Cd       9.60640693       8.33947767       8.66829830
Cd      11.60056005      13.58704324      13.07567484
Cd      10.62881636       8.63351771      11.63200421
Cd       7.86742670      13.09124471       9.04802805
Cd      14.55810058      12.10812431       8.03601620
Cd       9.01788554      14.62069868      11.61400097
Cd       9.69457879      15.37948867       8.67656853
Cd       6.82153745      12.54757129      11.77644621
Cd       6.02631736      11.63668282      14.68926592
Cd      13.31270867      11.04094134      12.73500772
Cd      14.78695482       7.60013807       9.87515928
Cd       8.36912590      10.19023439      13.00144747
Cd      15.17940672       8.49445558      12.81203332
Cd      10.81636496      10.92029029      14.50086181
Cd       9.93522821      11.22167956       8.00910839
Cd       8.81224137      13.05039458      14.13521759
Cd      13.02517070       6.33549043      12.14627266
26
Properties=species:S:1:pos:R:3 config_type=qcd gap_pre_relax_energy=-14.03306843556437 gap_pred_energy=-14.276637110418175 gap_fmax_final=0.0008891930623935436 gap_converged=1 pbc="F F F"
Cd      13.32296563       8.14167858      13.61417020
Cd      11.99376761       6.92874152      11.25252203
Cd      14.09818588       9.21058283      10.91710558
Cd      12.99058358       7.73883327       8.46471373
Cd      13.54775055      11.22966431      13.53703492
Cd      11.38545885       9.73135681      15.17173016
Cd      10.03865495       6.96181056       8.78603527
Cd      14.40465336      12.18568134      10.80087728
Cd       9.20329090       7.95941846      11.47009701
Cd      11.22617496      10.16712876      11.73291187
Cd      12.68578017      10.74870020       8.74679958
Cd       8.70751949       9.62519804      13.89383943
Cd       9.43795512      10.19737408       9.47716702
Cd       8.05876985       8.23058385       6.97340060
Cd      10.37931074      12.26220922      13.90603150
Cd      12.44565903      13.79288637      12.37520851
Cd       9.76900000      13.14209112      11.09133207
Cd       6.75229559       9.65817647      11.42746580
Cd       7.48571432      12.25557314      12.88935473
Cd       6.12121401       9.82039898       8.53074796
Cd       7.15626150      12.31646439       9.84052130
Cd      11.09735155      12.24155347       6.62875172
Cd      10.87532427       9.26526278       6.85161155
Cd      12.10457589      13.67279785       9.24691357
Cd       8.22567601      11.31944869       6.82299903
Cd       9.13852673      13.84880547       8.20307816
27
Properties=species:S:1:pos:R:3 config_type=qcd gap_pre_relax_energy=-14.748783060397304 gap_pred_energy=-15.056949592239821 gap_fmax_final=0.0008831926380544371 gap_converged=1 pbc="F F F"
Cd       8.98798257       7.44559803      11.95916025
Cd      10.13809049       7.89361600      14.69218141
Cd       6.52003478      10.57506207       8.47200779
Cd       8.52742418       9.94001985       6.23899353
Cd       7.59602379      12.85586030      10.15986427
Cd       8.02540411      12.84069946       7.05053966
Cd       7.78237029      10.02951109      11.20097928
Cd       8.39745000       8.22340813       8.86364773
Cd      10.39284089      10.91237167       9.66245259
Cd      12.20779011      13.18377110      11.12520662
Cd      10.23314538      13.81494936       8.89602638
Cd      10.76470520      10.21303306      12.38849212
Cd      11.09389511      12.90365245      13.94035956
Cd       9.52761957      14.44826780      11.84078218
Cd       9.64561713      10.72167038      15.48374244
Cd       8.18197702      12.10306501      13.26222082
Cd      12.05162029       7.36686990      12.39032050
Cd      10.86896696       6.69659618       9.67082695
Cd      10.96169322      11.84154306       6.69376512
Cd      13.89960138      12.05925380      13.36244255
Cd      14.38781560       9.21731160      12.56898482
Cd      12.94719066       8.91293604       9.92984009
Cd      11.08153135       8.91407071       7.52471518
Cd      14.56928408      11.44256530      10.35065663
Cd      13.71917910      10.53165135       7.43452036
Cd      13.22531264      13.38285377       8.23256152
Cd      12.56203943       9.82639785      14.90131498
27
Properties=species:S:1:pos:R:3 config_type=qcd gap_pre_relax_energy=-14.696062661219262 gap_pred_energy=-14.904635523221291 gap_fmax_final=0.0009592331270760255 gap_converged=1 pbc="F F F"
Cd      12.32420318       8.60606734      13.48798969
Cd       9.56641020      10.05503432      13.75038368
Cd      14.60632097       9.82261068      14.88884718
Cd      14.27792857      12.23515436      16.78789400
Cd      11.76169427      10.74178605      15.58222078
Cd      10.43463012       8.72299546      11.19884525
Cd      14.85293280      12.45127241       9.97078803
Cd      16.63369651      12.19910673      14.88121111
Cd      13.29610309       9.75107168      10.72977922
Cd       7.42712019      11.38260890      12.18236346
Cd      15.69194397      10.69390583      12.27848669
Cd      13.09429782      12.17689988      13.01349369
Cd      11.82058539      13.66457283      15.84021878
Cd      14.51933089      14.58817536      14.68838585
Cd      10.96359430      11.81402373      11.15514869
Cd       7.64349750      14.30500137      11.58370224
Cd      16.14426388      13.73329195      12.33578693
Cd       8.59202438      10.50594022       9.50182767
Cd       9.76603934      13.14603994      13.70890979
Cd      11.09648174       8.92694236       8.32302024
Cd      13.20174638      11.05854115       7.98506456
Cd      13.55444238      14.86784264      11.29233920
Cd      11.88678615      15.59540056      13.64848392
Cd       8.94861837      13.52789404       8.98613309
Cd      10.49658512      15.08359922      11.14480187
Cd      10.32130921      11.66266352       7.11071200
Cd      12.07321206      13.67735622       8.93896113
28
Properties=species:S:1:pos:R:3 config_type=qcd gap_pre_relax_energy=-15.53508284800699 gap_pred_energy=-15.815692252996936 gap_fmax_final=0.0009170946474218113 gap_converged=1 pbc="F F F"
Cd       8.19044151      13.84068874      11.02426953
Cd      10.85539904      10.09812235       9.18467166
Cd       8.89865631      11.99605868      13.33386477
Cd      10.89391205      14.95788356      10.19818759
Cd      10.23637521       9.47633516      12.18433202
Cd      10.36127885      14.60957775      13.13212336
Cd      12.44167930      12.75042164       8.71841698
Cd      11.67891388      11.98939273      11.49530534
Cd      10.57278038      10.31773559      15.17821029
Cd      12.68764237       8.23794606      10.86575404
Cd      13.94653154      10.10686830       8.88728731
Cd      10.85393300      13.25033011      15.76277231
Cd      13.87782257      15.22424846       9.98411722
Cd      12.84918558      16.21221589      12.62728606
Cd      11.76612450      16.13441787      15.46619493
Cd      13.00900166       9.72307477      13.52432482
Cd      13.30105197      13.02996488      13.51065619
Cd      14.85023643      12.45646792      10.63058049
Cd      13.34681754      11.47182373      16.04849667
Cd      15.36887502       9.67001648      11.65214570
Cd      13.51121816      14.29955780      17.18006387
Cd      15.55226758      14.74579093      12.58256710
Cd      14.80561636      16.22121201      15.14568972
Cd      15.78560271      10.22516543      14.71426408
Cd      15.79924904      13.26966396      15.32635796
Cd      17.04455748      12.09400516      12.73574003
Cd       9.40461540      12.75634282       8.43605415
Cd       8.11021458      10.83467122      10.47026583
28
Properties=species:S:1:pos:R:3 config_type=qcd gap_pre_relax_energy=-15.294263658417716 gap_pred_energy=-15.626551199554964 gap_fmax_final=0.000964835888465211 gap_converged=1 pbc="F F F"
Cd      16.17941482      13.01714281       9.25598981
Cd      13.41256360      12.75819452       8.25315324
Cd      10.76348647      11.64605492       9.46526465
Cd      11.30388350      14.68157688       9.01214905
Cd      13.25220894       9.98042894       9.19530837
Cd       9.02188677      13.82732895      10.60824781
Cd      16.69900122      14.87175450      11.55258024
Cd       8.49537029      10.84358544      11.27544162
Cd      16.26192808       9.99063890       9.60941290
Cd      14.07837007      15.23226022       9.98330259
Cd      11.21026649       9.10477672      11.14612722
Cd       6.68452262      13.11936987      12.33437828
Cd      16.49209424      11.82329428      12.08366377
Cd      13.45007249      12.43669339      11.45405696
Cd      14.27910207       9.36646578      11.95070306
Cd      11.50219713      15.11645562      11.97607446
Cd      15.82714491      13.86590050      14.27000371
Cd      10.96772152      11.86152527      12.79315453
Cd       7.78773089      11.31377749      14.43212203
Cd      14.16966517      15.92337950      12.89529089
Cd       9.15896586       8.78381034      13.30261363
Cd       9.23296907      14.23374210      13.66584412
Cd      12.14701648       9.05981678      14.02776431
Cd      14.55814955      11.19746033      14.27066617
Cd      12.62981743      13.85499516      14.55082960
Cd       9.92516572      12.81165766      16.09558872
Cd       9.78914297       9.71933207      16.05526385
Cd      12.37939459      11.21783403      16.14425736
29
Properties=species:S:1:pos:R:3 config_type=qcd gap_pre_relax_energy=-15.906915950521428 gap_pred_energy=-16.424420855059303 gap_fmax_final=0.0009751625201577467 gap_converged=1 pbc="F F F"
Cd      11.78018376      11.70573652       7.71070555
Cd      10.08372675       9.67812131       9.12997777
Cd       7.51977934      13.15508383      11.79024710
Cd      11.76446055      16.05741395      11.78559616
Cd      11.80187957       7.50507938      10.28285760
Cd      13.18308653      11.77935864      11.78326061
Cd       9.10527384      15.33560152      13.28592978
Cd       7.27855247      10.43626934      10.29664549
Cd       9.10156454      15.33792296      10.29015619
Cd      11.77754975      13.94961119      13.90427305
Cd       9.30673374       8.60144792      11.78755547
Cd      14.29198651       8.62376845      11.78118513
Cd      13.50575254       9.69265907      14.43907465
Cd       7.28322469      10.43505697      13.28386336
Cd       9.10881217      12.56249804      14.43487477
Cd      16.03562385      13.19377220      11.77992398
Cd       9.10164101      12.56436862       9.14184322
Cd      10.09166622       9.67678477      14.44361094
Cd      16.30470037      10.47576457      13.27286939
Cd      11.77218628      13.94978680       9.66594414
Cd      14.43438180      15.36319800      13.28076701
Cd      14.46144978      12.58814912      14.42696707
Cd      16.29977004      10.47538694      10.28527243
Cd      13.49778818       9.69292378       9.12557468
Cd      11.80680522       7.50472741      13.28566815
Cd      10.38623414      11.76709242      11.78642236
Cd      11.79153189      11.70442398      15.85912202
Cd      14.45414355      12.58770724       9.13632324
Cd      14.43075836      15.36153255      10.28473620
29
Properties=species:S:1:pos:R:3 config_type=qcd gap_pre_relax_energy=-16.1622128503869 gap_pred_energy=-16.40651380064636 gap_fmax_final=0.0009022123752219307 gap_converged=1 pbc="F F F"
Cd       9.24715581      12.47051326       8.18481190
Cd      10.88645537      15.03138589       8.02183760
Cd      15.06756034      11.91220726       9.66898217
Cd      11.16482333       7.45989676      11.01233588
Cd      12.30030345      12.16209351       8.48328428
Cd      13.30634395      14.68236719       9.80199138
Cd       8.32873505      14.96793266       9.74489077
Cd      10.50163223      10.31503619      10.01687892
Cd      13.37919409       9.39562355      10.01777377
Cd      13.65588304      16.47016148      12.37016097
Cd      17.21431285      12.06754571      11.89713663
Cd       8.31557008      12.08732793      11.05124976
Cd       9.37589531       9.32439529      12.62132471
Cd      10.89673625      16.24995140      10.92201685
Cd      12.64177813      10.87511862      12.58720309
Cd      11.38973475      13.15536732      11.53605905
Cd      13.90469417       7.13516023      12.32824974
Cd      14.51967269      13.51015861      12.27017917
Cd      15.47697277       9.67346469      12.21754518
Cd       8.47867513      11.83446494      14.01399717
Cd       9.02727967      14.58439025      12.70257215
Cd      11.41089308       7.36902437      14.10994319
Cd      11.17183710      16.27700364      14.07897131
Cd      15.68768378      11.87186914      14.61834416
Cd      11.02584309      10.30149074      14.99915612
Cd      13.87369460       9.26773823      14.78617338
Cd      13.72368147      14.55613661      14.93492683
Cd      10.97820150      13.31643305      14.80246616
Cd      13.28454392      11.91152848      16.43532471
30
Properties=species:S:1:pos:R:3 config_type=qcd gap_pre_relax_energy=-16.53005865340468 gap_pred_energy=-16.990338609361046 gap_fmax_final=0.0008765950466421279 gap_converged=1 pbc="F F F"
Cd       8.06056112       7.55237927       8.21362229
Cd       6.44178694       8.49696618      10.65938315
Cd       6.88367102      10.35529882       8.41484076
Cd       7.29320788      11.38924438      11.26894591
Cd      11.75398199       9.07763882      15.19876819
Cd       8.64244570       6.49234751      11.07224232
Cd      13.11721745       8.99146075       9.52716131
Cd      13.38489912      11.26587595      13.77616451
Cd      12.51232850       9.95527670       6.64843401
Cd      10.52012906      10.46954541      12.75602483
Cd       8.93078648      10.28886240      15.43949081
Cd      13.94937280      11.76944580       8.70734664
Cd       7.89436966       8.58860844      13.22006299
Cd       9.80628516       9.32504470      10.15125544
Cd       9.46501352      10.12916109       6.89618638
Cd      11.35220219      11.73821839      10.17621099
Cd      11.47564255      13.42545153      12.96558158
Cd      11.46045565      12.71080065       7.12839447
Cd       8.61821790      12.69535638      13.59882018
Cd       8.81071489      12.57813433       8.57321662
Cd      10.39912137      15.24971187       8.43765515
Cd       9.17917594      14.14063366      11.05915866
Cd      11.93997623      15.66014152      11.03958821
Cd      14.96393320      10.50386203      11.35678072
Cd      13.98171724      13.34917381      11.33246816
Cd      13.42886205      14.75053320       8.53329513
Cd      11.55762588       6.69473015      10.58395853
Cd      13.18559489       8.35201045      12.57913781
Cd      10.52017463       6.90152673      13.45454418
Cd      10.99643449       7.62846461       7.75716561
30
Properties=species:S:1:pos:R:3 config_type=qcd gap_pre_relax_energy=-16.396427168280056 gap_pred_energy=-16.820022647701975 gap_fmax_final=0.0009710745907005105 gap_converged=1 pbc="F F F"
Cd      12.01745592      14.95776353      11.86220972
Cd      13.72928367      16.16201076      19.41258915
Cd      17.62521544      16.39454865      13.23593531
Cd      14.76179772      15.07853302      16.12620036
Cd      14.87832666      17.94897062      16.92494737
Cd      12.97303115      11.43077602      16.70896340
Cd      16.15780743      14.88372254      11.15021425
Cd      19.45967386      12.30132371      13.50891684
Cd      11.88204678      17.37899761      17.30459422
Cd      14.43245253      12.99299921      18.74269224
Cd      11.53003699      17.90403511      12.11417867
Cd      12.89722666      18.67273358      14.77553323
Cd      16.86708925      17.02216168      18.98433153
Cd      14.21215087      19.32707439      12.07710319
Cd      16.95515999      12.03375194      11.74662731
Cd      13.97684174      16.79871517      10.42387500
Cd      16.09765727      18.71369478      14.27955770
Cd      17.35321646      10.32522694      14.33958001
Cd      14.45688703      11.07500859      14.16992584
Cd      14.54885715      16.15327205      13.45895192
Cd      19.15666828      14.73591004      15.18408558
Cd      16.09540180      11.37917586      16.81803111
Cd      12.59903447      13.45429612      14.40048055
Cd      14.04976205      12.85836326      11.82994525
Cd      17.35082993      14.10485721      17.50019633
Cd      12.08820098      14.36656413      17.24598104
Cd      11.23920021      16.15344086      14.60815230
Cd      16.50407896      13.61042525      14.35719250
Cd      16.18570556      14.57414953      20.44646650
Cd      17.91890316      17.20749785      16.26254155
31
Properties=species:S:1:pos:R:3 config_type=qcd gap_pre_relax_energy=-17.384974318238285 gap_pred_energy=-17.657551186263966 gap_fmax_final=0.0009707406944440535 gap_converged=1 pbc="F F F"
Cd      11.30165748       8.66524302       6.34075495
Cd      11.17299092      11.61602455       5.93249894
Cd      13.88239871      10.30580254       6.49167345
Cd      10.11141624       7.61299429       8.82445571
Cd      13.19616596       7.94970393       8.55110996
Cd       8.85124166       6.22394044      11.10113323
Cd      10.07632008       6.52711605      13.88822084
Cd       7.47793505       7.94460544      13.11385934
Cd      11.82731989       6.59299145      11.20783381
Cd       9.30645245      12.81426241      14.24749248
Cd       7.55401572      12.04366190       9.76580219
Cd      10.42793828       9.40437979      11.67149681
Cd       7.69103407       8.95113886      10.19072234
Cd      10.30120255      12.25186765      11.28503716
Cd       7.52373597      10.85213958      12.61701604
Cd      11.62719311      10.59415478       9.34334920
Cd       9.45209622       9.56461770      14.68837241
Cd       8.99068450      10.24864685       7.66090822
Cd      12.96854152      13.05729041       7.85498691
Cd       7.21937290      13.76969259      12.31769879
Cd       8.46040338      15.00438756       9.90417262
Cd      11.45493290      14.94843589      10.07048620
Cd       9.67084878      15.57134533      12.65765527
Cd       9.86802251      13.18228161       8.06250608
Cd      13.90943876      13.42708905      10.61431104
Cd      14.13215283       8.41491896      11.29649474
Cd      12.37305344       8.54028386      13.73799245
Cd      13.70689119      11.11083517      12.45388554
Cd      14.58846116      10.73935013       9.43604812
Cd      12.13907729      13.80188163      13.02210003
Cd      11.80018297      11.33209509      14.71310364
31
Properties=species:S:1:pos:R:3 config_type=qcd gap_pre_relax_energy=-17.221171934067463 gap_pred_energy=-17.487501046220707 gap_fmax_final=0.0009966580760368813 gap_converged=1 pbc="F F F"
Cd       9.52503584      10.06363364      14.23410291
Cd      14.53933939       7.34953479      14.27621493
Cd      14.47566946      11.75867568      15.55618563
Cd      14.98715804      11.13368975      10.54381833
Cd      11.14364687      11.87100844       7.03716820
Cd       7.91403790      11.09216004      12.08965154
Cd      15.31771415      14.57318045      15.36558393
Cd      11.34384457      11.59573942      16.03871353
Cd       6.96119508      12.49932918       9.68299743
Cd      11.05412823      12.18578329      11.11620589
Cd      13.01097260       9.06411658      16.41254336
Cd      16.30124568      12.86517234      13.08342373
Cd      12.47138003      10.82977414      13.28040452
Cd      13.24886956      12.98010211       8.93674280
Cd       9.53765405      13.15922248      14.08248887
Cd      10.17945889       8.83363429      11.35997451
Cd      15.58392127      10.01267619      13.23014495
Cd      13.59158664      16.47551716      11.25052250
Cd       8.83481666      14.22624759      11.38051386
Cd      11.10642786      15.62198850      12.91360584
Cd       9.24072011      13.85924510       8.24165809
Cd      11.38379378      15.14285736       9.86842687
Cd      16.27480016      16.07319613      12.82704949
Cd      15.45944000      14.19906436      10.49244251
Cd      13.64342761      16.92205671      14.28958881
Cd      11.53015761       7.91206294      13.85917137
Cd      12.30181598      14.29545899      15.34418259
Cd       9.25005461      10.57249546       9.15809678
Cd      12.30192705      10.04901418       9.26909536
Cd      13.44715053       8.52913301      11.52801006
Cd      13.28641423      13.50203414      12.49907527
32
Properties=species:S:1:pos:R:3 config_type=qcd gap_pre_relax_energy=-17.789344479494986 gap_pred_energy=-18.412945918259567 gap_fmax_final=0.00080451590055003 gap_converged=1 pbc="F F F"
Cd       9.03984449      13.25071672      12.92151697
Cd      15.15149263       7.98850657      12.20283687
Cd       9.06805859       7.91044591       8.26451020
Cd       7.71740832       5.93793917      10.61261719
Cd      10.56662276      15.83716606       8.96179329
Cd      16.05746676      10.42743412      10.58259814
Cd      12.03150610       9.76724679      10.59150588
Cd       9.15712036       9.75544839      10.59627780
Cd      13.66030257      10.60269140       8.24722994
Cd       7.02677793      12.62791737      10.58947705
Cd      10.58415854      12.25068010      10.58469451
Cd       9.03215365      13.23373348       8.24569656
Cd      12.13506816       7.94004202      12.93635705
Cd      12.12742768       7.92300207       8.25942670
Cd      13.66815434      10.61973273      12.92402341
Cd      13.14494860      15.42729924      10.56835743
Cd      13.50187638       5.96177009      10.60284289
Cd       6.05166844       7.93993940       8.99753609
Cd       5.12588784      10.38184615      10.60044519
Cd      14.13765586      12.65720059      10.57723999
Cd       7.99693328      15.40563649      10.57710898
Cd      10.57197943      15.84846369      12.18079088
Cd       7.52068096      10.59442758      12.93408729
Cd      12.11958049      13.24671605       8.23997653
Cd      15.14629661       7.97707560       8.98275826
Cd      10.58502450      10.57871100       7.14778139
Cd      10.59619657      10.60363291      14.03345098
Cd      12.12749551      13.26367374      12.91659283
Cd       7.51312133      10.57752628       8.25764577
Cd       9.07564348       7.92739149      12.94137810
Cd      10.60741291       6.48687243      10.60588922
Cd       6.05646696       7.95154636      12.21798864
32
Properties=species:S:1:pos:R:3 config_type=qcd gap_pre_relax_energy=-17.880488265749847 gap_pred_energy=-18.306985565265023 gap_fmax_final=0.0009847406335425368 gap_converged=1 pbc="F F F"
Cd       7.05312239      13.02895953       9.91549537
Cd      12.96175540      15.57226030      15.82801113
Cd      10.83208312       8.64579050       8.82993036
Cd       8.97141005      10.82638039       9.30292441
Cd      13.61366991       8.36527674      12.79088613
Cd      13.98075187      10.59114121      14.92076905
Cd      11.71904635      12.55502454      15.75752067
Cd      15.73275735      15.12700612      14.49492733
Cd      11.01803676       9.67749828      14.43566077
Cd      12.03066124      11.44441921       8.26632148
Cd      14.83483126      11.34694137       9.48019334
Cd      11.00740618      15.77127608      10.98633551
Cd      15.62555966       8.28775934      10.21689858
Cd       9.05741287      12.22877980      14.40696818
Cd      12.46672253      10.59112704      11.12270975
Cd      15.76402143      10.44505304      12.27835906
Cd      14.62416459      13.09595716      16.62290001
Cd      13.75820753       8.85711569       7.81011530
Cd      10.62461648      15.02768957      14.07629591
Cd       8.66261049       9.97792338      12.33898916
Cd      13.41449738      15.59906726      12.60669287
Cd      13.25536893      14.12529823       9.58659411
Cd      16.63193267      12.22865847      14.46681115
Cd      10.80431778       8.04863126      11.82107542
Cd      12.97127312       6.77210972      10.05241642
Cd       8.09613412      14.57050836      12.64691191
Cd      10.34053916      12.52101040      11.62084426
Cd      10.16795747      13.70770404       8.83432318
Cd       6.38212788      11.97723474      12.72435984
Cd       8.22663097      15.81924674       9.91167817
Cd      12.89109658      12.66501831      13.03749448
Cd      15.46655144      13.48940814      11.79586165
33
Properties=species:S:1:pos:R:3 config_type=qcd gap_pre_relax_energy=-18.435996260000074 gap_pred_energy=-18.851929438705774 gap_fmax_final=0.0008892709425872495 gap_converged=1 pbc="F F F"
Cd       6.78808363       8.23779544      12.67513817
Cd       6.67951857      11.06655782      11.27122809
Cd       6.82459892      10.64693395      14.56136978
Cd      10.03900856      11.26166368      14.95883043
Cd       8.89921952       8.40793094      14.90738681
Cd      11.30284468      13.79486499      13.81039278
Cd       7.97391747      13.09722163      13.28023071
Cd      14.69566806       8.64034857      13.56343325
Cd      13.26035965      11.39471981      14.19675116
Cd      11.02134157      13.30598573      10.85661637
Cd       7.76568832      13.52503044       9.87522027
Cd       9.60425938      10.80047268      11.96049696
Cd      13.81627233      13.11057963      11.70043755
Cd       9.84909982       7.64623969      12.07592344
Cd      15.91964031      11.12072851      12.33540876
Cd      12.43310954      10.38371673      11.28919372
Cd      11.75349594       8.79135935      14.14354909
Cd      12.88668870      13.78985739       8.55103896
Cd       8.50047645       8.23873124       6.99625790
Cd       9.82690409      13.09032315       7.15895114
Cd       7.63780641      11.06743645       8.11081018
Cd      14.73374969      11.39572934       9.31238890
Cd       7.86007808       8.59621211       9.90122758
Cd       9.57415876      10.64769170       5.44279713
Cd      10.45633071      10.78778967       9.15508932
Cd      11.49264478       8.40584673       6.30238671
Cd      15.57272465       8.64551923      10.63068619
Cd      10.71692069       7.64210095       9.18821250
Cd      13.44514986       8.79353234       8.52111529
Cd      12.47149933      11.26001860       6.89502824
Cd      12.84888610       7.42518066      11.40665918
Cd      10.09044223      15.44452339       8.90528389
Cd       9.16760690      15.44555115      11.96865325
33
Properties=species:S:1:pos:R:3 config_type=qcd gap_pre_relax_energy=-18.820274449624257 gap_pred_energy=-19.118490897310657 gap_fmax_final=0.0009933152201798677 gap_converged=1 pbc="F F F"
Cd      10.32339847       9.68134614      15.23094236
Cd      11.17783624      14.88724552       9.88938816
Cd      10.06017620       7.73747051       9.40555184
Cd       9.68149553      12.77385896       8.44474987
Cd      14.95416218      10.29528991      11.40700678
Cd       8.42637473      11.92086423      16.24628227
Cd      11.49222909      12.17542073      13.71019375
Cd      12.91938389       9.16292272      13.49917228
Cd      16.70465119      12.57398329      12.10387004
Cd      10.65866998      14.37126523      15.84495018
Cd      15.44532691      12.77910967       9.40881440
Cd      13.13820905      16.53488930      11.62629732
Cd      11.75329937      11.21101162      10.86947832
Cd       8.95217393      13.28023094      11.27925381
Cd      13.00884328      15.91810330      14.55748919
Cd      13.91633095      10.29506538       8.61937975
Cd      10.25178708       8.67930904      12.29820178
Cd      12.66184359      12.91996536       8.15794971
Cd       8.30134847      13.91110763      14.07409055
Cd      10.65781197      15.27261750      12.82580982
Cd      11.03372943      11.85628334      17.65690562
Cd      14.84453528      11.42497712      14.18389409
Cd      13.07283316      10.26423029      16.24238188
Cd      10.86824935      10.24493143       7.59467998
Cd      14.03809411      15.44433269       8.95091673
Cd      12.89506986       8.22351837      10.70935581
Cd      12.56243690       7.76186498       7.70949580
Cd       8.93168002      10.42304543      10.19038785
Cd      13.43324850      13.30049873      16.16134703
Cd      15.88680573      15.32881441      11.29398368
Cd      15.48992811      14.37619546      14.17327317
Cd      13.34324898      13.42228008      11.86465895
Cd       8.54824565      10.98140789      13.20330440
34
Properties=species:S:1:pos:R:3 config_type=qcd gap_pre_relax_energy=-19.090858841012807 gap_pred_energy=-19.43958520132772 gap_fmax_final=0.0007983873590649325 gap_converged=1 pbc="F F F"
Cd       9.62415120      13.54244863      14.93087014
Cd      10.74811502      11.09706324      11.25973608
Cd      13.52033695       8.56424519      12.52979119
Cd      10.46848927      16.30982189       9.50187103
Cd      11.99076578      17.47231411      11.95073737
Cd       7.56267618      11.17743056       9.60043683
Cd       7.77983339       9.56479233      12.19003747
Cd      12.06124267       9.21749387      15.15433826
Cd      16.77218281      11.15834031       9.56365811
Cd      10.52847647      11.22786153      17.17991429
Cd      13.62864956      11.26828627      16.97408620
Cd       8.29827621      12.58463791      12.42110239
Cd      11.91538602      11.86086266      13.87136139
Cd      10.53112093       8.35321112      12.53322639
Cd      14.40813959      13.47720738      14.73300101
Cd      13.51915915      16.12280666       9.60419423
Cd       9.04723623      10.32686498      14.71061889
Cd       8.96951632       8.40479492       9.56480398
Cd      11.92086812      13.83860020      11.66678302
Cd      15.04413832      10.42689780      14.52396560
Cd      11.98847045       8.45830912       9.60383252
Cd      12.03872251      13.63300831       8.58295244
Cd      15.20698917      13.73848417       9.51639851
Cd      16.59960045       9.50797698      12.19107168
Cd       9.53261812      15.40114336      12.37856217
Cd      14.50161134      15.28092247      12.33965513
Cd      14.89542209       8.69209928       9.78784371
Cd      12.02297766      15.73984222      14.42527560
Cd      12.06911471      13.88103839      16.67991515
Cd      10.45083644      11.01269649       8.33422332
Cd      13.60844425      11.08526258       8.45778535
Cd      13.67983696      11.46568744      11.46467212
Cd      16.21518886      12.63332861      12.39543497
Cd       9.08348523      13.70629749       9.60992198
34
Properties=species:S:1:pos:R:3 config_type=qcd gap_pre_relax_energy=-19.103109555911107 gap_pred_energy=-19.67829111280351 gap_fmax_final=0.0008638147765645809 gap_converged=1 pbc="F F F"
Cd      13.76199825      16.26401875      15.28455587
Cd      15.84093015      16.83670670      17.93981173
Cd      17.33511345      11.92532475      14.18606157
Cd      15.66203975      13.89589037       9.38584173
Cd      16.31270616      11.31617525      16.99164029
Cd      11.05034694      15.69223054      17.03971844
Cd      13.89092105      13.21553290      15.69364452
Cd      15.64077818      18.31457246      13.37089409
Cd      18.93727571      12.62759777      16.89537992
Cd      14.71040043      10.53692332      14.39718772
Cd      12.99784517      17.44964974      12.39251902
Cd      14.93618995      19.16688982      16.09668612
Cd      11.43565799      14.77682038      11.93911029
Cd      17.45796831      13.90683260      11.90309246
Cd      13.41298735      10.34792490      17.10382515
Cd      14.62340690      14.54845047      13.02200648
Cd      18.78227414      15.62218768      17.15801459
Cd      13.27034340      15.82538597       9.82558556
Cd      18.10528378      16.62886770      13.08449782
Cd      15.36714294      11.76451814      11.65286698
Cd      14.29738997      12.25274570      19.25356258
Cd      12.67712119      12.22321431      12.95396799
Cd      16.56880442      13.96899627      18.51965564
Cd      17.64999009      17.94928757      15.74336646
Cd      13.53555120      15.09527985      18.74784021
Cd      12.87561586      12.76935122       9.92787481
Cd      11.68939151      12.82350795      17.67648915
Cd      10.83172350      13.63708434      14.83184732
Cd      15.92425431      16.52439715      10.99135757
Cd      10.76364498      16.60532337      14.21162019
Cd      12.86912096      17.88199121      17.77921316
Cd      19.26360709      14.26051532      14.39539576
Cd      16.35628508      14.82495767      15.36996322
Cd      11.96443154      19.31938959      15.03344735
35
Properties=species:S:1:pos:R:3 config_type=qcd gap_pre_relax_energy=-19.94998906477461 gap_pred_energy=-20.32727461911575 gap_fmax_final=0.0009911668709875856 gap_converged=1 pbc="F F F"
Cd      12.30831411      12.40387213       8.12867345
Cd       9.35122330      12.08587941      14.81479649
Cd      12.38745041      12.37304932      14.02427892
Cd      14.19835096       9.84060146      14.71523134
Cd      12.11083541       8.46615941      13.01706295
Cd       7.78458397       9.59679379      10.45374207
Cd      11.26222560       9.88705335      15.57507296
Cd      14.51830830      14.27160066       9.64029448
Cd       9.63848950      16.18824796      10.67704531
Cd      14.34002293      16.37004825      11.98468709
Cd      17.01087497      12.83728930      10.52281315
Cd      12.87937850       9.56322306       9.65643312
Cd       9.61460980      13.34363980       9.71728834
Cd       7.95038216      12.09675279      12.07431907
Cd      12.25787744      14.11029399      11.61343859
Cd      13.91899878      11.62421055      11.59186751
Cd      14.84060818       8.68972384      11.94216400
Cd      10.41520557       8.13366732      10.61877343
Cd      10.93625506      11.42575181      11.61647426
Cd      15.14199517      12.58503798      15.48453169
Cd      13.70366754      15.17117536      14.74212787
Cd      17.05287146       9.83061845      10.29777745
Cd      15.92424197      14.09883161      12.96574952
Cd       9.14922979      14.57663214      13.10540774
Cd      12.20746814      17.74171613      10.41908933
Cd      10.87175624      14.62248976      15.61355921
Cd      10.69677663      12.19306033      17.61365483
Cd      13.21582661      13.97022359      17.56259476
Cd      13.49558253      10.89937406      17.54305547
Cd      11.43512774      16.57966062      13.24778088
Cd       9.23992246       9.44976327      13.24739538
Cd      16.51317179      11.10640384      13.12683405
Cd      11.80628513      15.24413738       8.67785718
Cd      10.11600355      10.53095906       8.68255261
Cd      15.03276648      11.41874637       8.61226368
35
Properties=species:S:1:pos:R:3 config_type=qcd gap_pre_relax_energy=-19.93262671218393 gap_pred_energy=-20.226004855977163 gap_fmax_final=0.0009239924599726672 gap_converged=1 pbc="F F F"
Cd       8.79261523      13.89329476      15.03733634
Cd       7.74557728      11.52234982      13.40253107
Cd       6.32342843       9.23487019      12.14312898
Cd      10.32170318      11.12451050      15.05144287
Cd      11.85377357      13.81286134      15.22400186
Cd      13.60908718       6.14034030      11.03142512
Cd      11.26722527       9.88559335       7.02640750
Cd      13.48730688      14.25841311       9.34796503
Cd      12.98342148      12.61477738       6.68279909
Cd      15.09537843       8.77074538      10.48671874
Cd      14.71229890       7.56383753      13.46442545
Cd      15.75508511      10.38101285      12.99439527
Cd      11.93614974       8.60880594      14.30206146
Cd      14.16043643      10.26603489       8.10810663
Cd      13.34221028      11.51942179      14.15119447
Cd      12.39738743       9.75796252      11.60727009
Cd      14.80185976      11.97890514      10.68676910
Cd      10.67323462      12.22716822      12.18913718
Cd      11.74793755      11.75410536       9.44397439
Cd      13.01822248      14.18210193      12.33515312
Cd       8.83748210      13.40833451       8.97127173
Cd      10.77441014      15.20979397      10.48276901
Cd      10.50970575      15.81659035      13.40854341
Cd      11.14728081      14.92439719       7.52730328
Cd      12.43118681       7.88949503       8.90324898
Cd       9.08892801       8.79642537      13.40109333
Cd      10.83998174       6.97071528      11.61656103
Cd       9.48527488       7.78548348       8.61614398
Cd       7.95283192       6.87506899      11.14980850
Cd       9.56665530      10.06084081      10.53799359
Cd       6.44759849       8.64061748       9.14193266
Cd       8.36733163      10.56986431       7.71936716
Cd       8.30291748      14.09319889      11.91204334
Cd       6.92652028      11.59939345      10.36346457
Cd       9.95993833      12.52505145       6.19459451
36
Properties=species:S:1:pos:R:3 config_type=qcd gap_pre_relax_energy=-20.256504475007095 gap_pred_energy=-20.797749357128286 gap_fmax_final=0.0008692206319094912 gap_converged=1 pbc="F F F"
Cd      13.32707257      14.28364598      16.32102281
Cd      12.07545156      11.50135045      15.86554334
Cd      10.92373230       8.64033995      16.08486190
Cd      14.69837091      12.25663376      14.50339738
Cd      15.18705188      15.44086130      14.14398790
Cd      15.16699061       8.73801664       9.45017175
Cd       9.79071872      10.34898446       8.70216954
Cd      11.48807437      15.14094707       9.22098886
Cd       9.11128186      13.37027018       8.05706829
Cd      14.15596568      10.86190968       7.59817832
Cd      17.87363613       9.40335775      10.83023316
Cd      16.28275959      11.75176995       9.53802239
Cd      15.03130055      10.42922838      12.10855093
Cd      11.81148799      12.61044029       7.30910774
Cd      15.41876786      13.49103928      11.76744787
Cd      12.50342262      11.48705810      10.19913094
Cd      14.12756928      13.80840143       9.04406855
Cd      12.43429319      13.13661673      12.65850579
Cd       9.84161096      12.79006484      11.09330583
Cd      13.35414278      15.75636352      11.52367187
Cd       8.14731193      13.29801618      13.60453761
Cd      10.31690709      15.53989927      12.53446327
Cd      12.33373225      16.57270184      14.47212979
Cd       8.67878055      15.60868018      10.03739140
Cd      12.21460915       8.71090399       8.87675837
Cd      13.47980716       9.20586277      14.43431104
Cd      13.29782284       7.95851110      11.62232457
Cd      10.23566236       8.14479280      11.11063425
Cd      11.51569210       6.78604284      13.73239090
Cd      11.34447342      10.45057935      12.71639114
Cd       8.78085622       8.05399951      13.96782102
Cd       8.22800401      10.35420319      12.18533977
Cd      10.51993345      14.03149254      15.23521223
Cd       9.19677690      10.96403918      15.11475058
Cd       7.27541236      11.61447840       9.67132606
Cd       6.41892482      14.04690514      11.25319079
36
Properties=species:S:1:pos:R:3 config_type=qcd gap_pre_relax_energy=-20.410068361440498 gap_pred_energy=-20.735768150763423 gap_fmax_final=0.0008504874129204224 gap_converged=1 pbc="F F F"
Cd      10.91986670      13.41119606       8.94610639
Cd      14.16361393      16.19431930      12.54831827
Cd       8.23390288       9.43046044      11.40794701
Cd      15.77476303       8.64768560      12.19145400
Cd      15.19505886      16.01159641       9.73329487
Cd      10.74209898       9.98105349       9.48858757
Cd       8.33675190      11.74014947       9.48100510
Cd      12.21840732      16.13446975      10.16902389
Cd      13.34791213       7.28972481      13.27385247
Cd       9.27074170      13.98848018      14.10720704
Cd      12.63118692      10.73794758      12.66452607
Cd      15.59276069      10.99961052      10.47302120
Cd      10.71253078       8.28855413      12.32689886
Cd      10.65395195      15.52662118      16.24886567
Cd      17.78568769       9.32844507      14.46561158
Cd      13.31868374       8.84618867      10.43137983
Cd       9.21872621      10.51376967      14.26040793
Cd      11.20751019      16.48500446      13.33810005
Cd      10.87900705      12.35131183      16.19830366
Cd      13.80852527      11.61319250      16.05308936
Cd       6.87972911      14.24000722      10.44013205
Cd      13.21632108      14.27861499      17.34093516
Cd      12.41793300      13.46541553      13.83212205
Cd      13.37196961      14.58265309       7.72848594
Cd      15.60899721      11.54419412      13.52583183
Cd      13.29858698      13.16120765      11.07212165
Cd      14.79614592       8.98533943      15.25612637
Cd      16.14649201      13.91970373      11.71628251
Cd      10.37048126      12.43946733      11.75562885
Cd      11.79245089       9.37530589      15.20914750
Cd      15.16319684      14.25941850      14.79914420
Cd       9.54148785      15.39946214      11.16050390
Cd       7.36130757      12.08064741      12.53708031
Cd      13.38296439      16.63784067      15.41415082
Cd      16.01344742      13.31101464       8.57576273
Cd      13.32898510      11.50211070       8.53172751
37
Properties=species:S:1:pos:R:3 config_type=qcd gap_pre_relax_energy=-21.057764661844914 gap_pred_energy=-21.723164526659076 gap_fmax_final=0.0009356485492644424 gap_converged=1 pbc="F F F"
Cd      19.73692712      17.48588572      13.53897441
Cd      12.10369405      15.74532140      17.91601710
Cd      15.34751113      13.83666447      13.37856995
Cd      13.38010130      18.30233320      12.75844062
Cd      15.62166537      10.95057165      14.67640526
Cd      19.46017611      14.86715141      15.26087228
Cd      16.50138198      15.91646653      15.23455807
Cd      16.88486834      11.24537287      11.68103667
Cd      11.70652328      12.93712355      16.94106395
Cd      16.69035535      18.00406186      12.77588838
Cd      15.10412795      16.09715375      18.79170968
Cd      13.49018279      18.30872291      17.41040875
Cd      13.43667719      13.54104783      10.91921448
Cd      10.79642970      15.13106776      15.18257898
Cd      18.30910020      12.50214234      13.90575827
Cd      12.90751217       9.27881379      13.84611638
Cd      14.78542850      13.70289080      16.29129459
Cd      16.65461782      13.43193148      19.56097376
Cd      14.83056449      16.28314575      11.20664760
Cd      12.56477024      12.57075041      13.97458470
Cd      10.38589916      17.90442723      16.66735966
Cd      18.08481744      19.57434702      15.01859326
Cd      19.81886607      17.64580271      16.62652031
Cd      18.02151730      15.41761356      17.85648111
Cd      13.66463463      13.49515460      19.17656172
Cd      13.63055764      16.14294582      15.00464225
Cd      13.08593675      10.42864478      16.47854792
Cd      18.09820469      15.23865722      12.47742645
Cd      12.02499422      15.53373136      12.49988250
Cd      17.75783556      12.53385742      16.78236811
Cd      12.12101310      19.85320142      15.08686864
Cd      13.98699853      10.79003299      11.64186772
Cd      10.30361910      17.86259302      13.57104606
Cd      16.74297867      18.15450188      17.38612444
Cd      15.09891826      19.21071798      15.06053212
Cd      15.40008746      11.16549685      18.03464666
Cd      16.46050637      13.90965464      10.37941720
37
Properties=species:S:1:pos:R:3 config_type=qcd gap_pre_relax_energy=-21.125448324536848 gap_pred_energy=-21.936620441759516 gap_fmax_final=0.0009031025785321862 gap_converged=1 pbc="F F F"
Cd      13.03045422       9.04160769       9.76958025
Cd      13.51439060       6.79625971      11.71332407
Cd      12.76547660      11.38945336       7.86540800
Cd      15.15023027       9.29154561      12.11269503
Cd      12.47603071      14.39625011       7.18038725
Cd       9.99000719      12.72991307       7.59102037
Cd      15.10096090      11.18603531       9.77956311
Cd      13.46469380      15.83652215       9.65729229
Cd      10.47406607      15.23471000       9.40944368
Cd      13.37728453       8.40882170      14.47458622
Cd      16.71173436      11.82970365      12.40854817
Cd      15.54335408      13.97434851      10.66177777
Cd      12.50994928      12.95845007      10.41218767
Cd      10.34373108      10.40451149       9.47344485
Cd      17.49351782      14.81252379      12.81369411
Cd      13.80198113      13.19998596      13.12475408
Cd      14.78149672      16.29096758      12.43431421
Cd      10.62511531       8.10581270      11.36270428
Cd      12.28837645      10.68192537      12.44299129
Cd       8.71960585      12.84309576      10.24944954
Cd      17.18972396      12.98221377      15.24791063
Cd      11.35645102       6.15719718      13.69583093
Cd       8.86876337      15.47283617      11.86324431
Cd      15.12387094      10.79512787      14.75732421
Cd      11.77188062      16.45789658      12.03783701
Cd       9.01778684      10.50600474      12.18695987
Cd      15.99640298      15.79479186      15.28975252
Cd      10.86497323      13.28252356      12.86332813
Cd      10.31037142       8.85730929      14.37666268
Cd      14.20335761      13.32679076      16.11226194
Cd      12.21329637      10.89381228      15.69843290
Cd       7.63684761      13.04083725      13.04644744
Cd      10.05403073      16.14494534      14.50644734
Cd       9.29255233      11.49922821      15.08662063
Cd      12.98857175      15.77539190      14.79040876
Cd      11.18442840      13.67468010      16.01421862
Cd       8.09188405      14.25361975      15.81679604
38
Properties=species:S:1:pos:R:3 config_type=qcd gap_pre_relax_energy=-21.673735608996076 gap_pred_energy=-22.32210995072267 gap_fmax_final=0.0009905767238865422 gap_converged=1 pbc="F F F"
Cd       9.55323887      12.25493142      15.18878199
Cd      18.89203073      14.71976520      14.90487570
Cd      13.15680757      15.39879654      15.14876659
Cd      17.19508755      13.29554274      10.00370163
Cd      18.74018011      19.58925268      15.10882427
Cd      15.26117947      11.14749789      17.25593781
Cd      17.57597701      12.37562020      18.94606782
Cd      14.99606565      13.43280845      20.07810957
Cd      15.80937100      19.72358820      15.02229296
Cd      17.25672511      18.23741198      12.56973365
Cd      19.87414211      17.16090255      16.58356242
Cd      13.06147694      12.55949178      12.58278087
Cd      15.45212198      14.19140323      16.62719645
Cd      15.49399920      10.99712097      11.22639159
Cd      15.21988923      11.31158186      14.29084000
Cd      19.93097211      17.27676871      13.55461142
Cd      17.71737531      12.46034514      12.94470497
Cd      16.19601251      16.61472508      15.00581112
Cd      12.92133346      19.47853705      14.88712717
Cd      12.83025062      15.38890881      11.44150788
Cd      15.70373381      15.96685373      10.77000467
Cd      11.29125068      17.52656778      16.47017854
Cd      12.73611055      12.37875303      15.79726166
Cd      18.23938751      15.10930179      17.92912908
Cd      17.78329707      12.18178471      15.91440930
Cd      15.58594191      16.11861544      19.08108310
Cd      14.16623029      17.86558300      17.20088497
Cd      18.32250940      15.31374860      12.00561699
Cd      15.35828289      14.33589836      13.40339373
Cd      12.67395138      14.98836489      18.13399734
Cd      17.17704479      18.16486266      17.50093246
Cd      12.91423252      11.73694369      18.92565754
Cd      11.51593445      17.26832998      13.36319434
Cd      14.31204661      17.95974076      12.57529497
Cd      10.77010972      14.32209945      13.43394866
Cd      10.37789690      12.71501188      18.04313671
Cd       9.77164993      15.09071054      16.37125543
Cd      14.16615304      13.34182921       9.70899461
38
Properties=species:S:1:pos:R:3 config_type=qcd gap_pre_relax_energy=-21.732658696580692 gap_pred_energy=-22.58736985983085 gap_fmax_final=0.0008492574960644324 gap_converged=1 pbc="F F F"
Cd      15.51362874      13.65664857       7.31238364
Cd      12.51627785      12.54573705       7.32754716
Cd      14.78695468      10.88472955       8.42552505
Cd      13.17220775      15.68823320       7.26172717
Cd       9.77165263      11.56441874       8.44783535
Cd      11.93883459       9.64322742       8.55994781
Cd      10.51910147      14.58814094       8.33246408
Cd      14.45229083       8.01192846       9.06189239
Cd       7.74296008      13.79036416       8.94309723
Cd      15.88936290      12.90101709      10.36312098
Cd      11.77018209       7.22713536      10.30041271
Cd       9.69941623       9.25214196      11.05331883
Cd      12.86896992      13.03334466      10.23749286
Cd      15.39115359      15.93783569       9.42081059
Cd      10.35032136      12.44140466      11.59223885
Cd       7.47861387      11.04989395      10.24717952
Cd      12.29283340      15.99987403      10.30095166
Cd      15.67334882       9.78100291      11.22076745
Cd       9.23014264      15.33082346      11.10519554
Cd      11.57315841      11.60132284      14.12474079
Cd       7.82971516      11.20695237      13.17591010
Cd      12.64434694      10.47820870      11.63882805
Cd      14.42038676      14.87417675      12.14705069
Cd       9.49512349       9.14189135      14.36265438
Cd       6.67840522      13.64934277      11.73018109
Cd      14.43542491       6.97668872      11.87186081
Cd      14.54899556       8.97151180      14.07031443
Cd      11.38868013      15.03651469      13.10985776
Cd      11.80703477       7.79918201      13.21301262
Cd      15.03030953      11.93456569      13.16444160
Cd      13.58167038      13.95588352      14.83434277
Cd       9.56917657       9.29362340      17.46297916
Cd      14.01843985      11.23374562      15.97614281
Cd       8.51848674      14.13937396      13.99542486
Cd      12.18119570       8.88701094      15.95259787
Cd      10.80283826      13.98198421      15.93289847
Cd      11.54362482      11.62096487      17.71176389
Cd       8.77980685      11.79422743      15.91616248
39
Properties=species:S:1:pos:R:3 config_type=qcd gap_pre_relax_energy=-22.436401563578173 gap_pred_energy=-23.370735905573 gap_fmax_final=0.0008889808813018075 gap_converged=1 pbc="F F F"
Cd      11.10928936      10.96577674       5.46657139
Cd       8.87487174      12.40043892       7.06463144
Cd       9.13923942       9.21486502       6.77105122
Cd      13.42546346      11.88424681       7.14000009
Cd      11.97959772       9.17793248       7.81294876
Cd       9.74279730      15.14194842       8.10084366
Cd      14.02313056      10.25942653       9.73200711
Cd      11.40481958      13.87045851       5.97876566
Cd       7.75206274      13.67210097       9.64629736
Cd      14.57448212       8.93982477      12.41050148
Cd       7.32423251       7.74937509       8.57658238
Cd      10.22694520       6.83425197       8.66754028
Cd       7.90447163      10.63695188       9.26654469
Cd      12.66315785      14.46818183       8.66916190
Cd      15.23055967      12.97657046       9.22375908
Cd      10.29867115       9.27520372      10.96214338
Cd      10.70746216      14.68584230      10.92849574
Cd      10.99019154      11.71052653       9.34491977
Cd      12.69027881       7.60838914      10.36236150
Cd       6.93696874       8.70786432      11.45617228
Cd      12.34196692      11.25040203      12.07696178
Cd      13.72953920      14.24557000      11.50564118
Cd       7.96436435       5.87655709      10.77294109
Cd       6.43258225      11.66501646      11.69995792
Cd      10.80626856       5.36867610      11.35829702
Cd      15.70087750      10.75360970      14.66472197
Cd       9.42790627      12.18836637      11.98382511
Cd       6.59025631      14.62318676      12.22908450
Cd       7.91770142      10.31291771      13.89155667
Cd      15.82341995      11.79103103      11.86049954
Cd      10.83024499       9.66979066      14.32185009
Cd      11.98564718      14.12926290      13.89871465
Cd       9.13736850       7.49832733      13.11189095
Cd      12.21972574       7.07326159      13.32344703
Cd      13.54859686       8.82844285      15.29898836
Cd       9.16531782      14.89348855      13.58839704
Cd      12.77835133      11.76386813      15.56695445
Cd      14.91596404      13.57978402      14.21022605
Cd       9.75934291      12.38239966      15.12888077
39
Properties=species:S:1:pos:R:3 config_type=qcd gap_pre_relax_energy=-22.35984849853169 gap_pred_energy=-22.84997578975147 gap_fmax_final=0.0008776894269464367 gap_converged=1 pbc="F F F"
Cd      16.41386664      15.21762219       9.64302478
Cd      13.92354843      13.55038947       9.37304512
Cd      16.43857080      17.61395405      11.23645198
Cd      13.76461438      16.22054383      10.89129501
Cd      16.63523239      12.30839154      10.11213914
Cd      18.01393661      20.03787821      12.48144600
Cd      12.62771385      17.94207566      12.98135104
Cd      17.73026815      14.22579264      12.36101615
Cd      12.07415113      12.39397944      11.27087397
Cd      14.96252137      19.71705955      12.87622817
Cd      16.52421292      11.04393359      12.70916655
Cd      14.68832286      13.69444904      12.63752515
Cd      15.06277621      16.36174765      14.02323785
Cd      10.94333197      12.08557855      14.00282087
Cd      18.44039215      11.86370246      14.73780954
Cd      11.95744311      14.96781238      13.16846759
Cd      16.29470848      14.01859636      15.33516239
Cd      18.18793284      17.06153500      13.60772764
Cd      15.57193244      10.64549221      15.62750320
Cd      10.54261582      13.99105610      16.12310835
Cd      13.81818699      19.13412384      15.58897281
Cd      12.08226961      16.65598898      15.66312610
Cd      17.52491955      16.54162881      16.61813637
Cd      19.39160205      14.72991504      14.85069022
Cd      19.90793168      13.06008039      17.23868434
Cd      13.64377406      10.90234309      13.44787314
Cd      16.80735099      19.14735832      15.25403089
Cd      13.48760584      13.12303785      15.66517739
Cd      14.51971203      15.68800831      17.14334651
Cd      17.64635751      11.15109425      17.65309977
Cd      12.71823698      18.12129164      18.26648484
Cd      17.25763176      14.15662834      18.38647226
Cd      15.72384561      18.57411784      17.93028519
Cd      10.47694767      16.01399973      18.25471841
Cd      12.25303728      15.85063802      20.58548356
Cd      14.87024602      11.88058429      18.28626860
Cd      12.39479958      13.49733204      18.50882602
Cd      14.79685605      17.40716524      20.43811205
Cd      14.88059621      14.40307408      20.02081103
40
Properties=species:S:1:pos:R:3 config_type=qcd gap_pre_relax_energy=-23.57606805621024 gap_pred_energy=-23.90960630339871 gap_fmax_final=0.0008571826923187366 gap_converged=1 pbc="F F F"
Cd      11.51204323      11.79779251      16.34172533
Cd      15.09129172      11.82009185       8.50591741
Cd      14.92799926       9.01761059      13.30157271
Cd      17.74776645      13.53758998      12.87057320
Cd       9.97712528       9.25677785      15.13360810
Cd      10.65977338       9.44551242       9.91366019
Cd      12.41463118      10.63911603       7.77052109
Cd      13.63774720      11.67243911      13.74874080
Cd      12.02463314      17.40461255      12.74549604
Cd       8.08615672      13.39826204      13.51633417
Cd       8.29691780      11.46297576      11.14666883
Cd      15.63039971      14.05664943      15.10792430
Cd       9.41493413      16.03718790      13.51409783
Cd      14.97316313      15.09609894       9.23521460
Cd      17.60767059      16.03835582      10.81293350
Cd      15.79956626       9.03203499      16.18019734
Cd      10.06431533      12.27269471       8.91634252
Cd       8.99065480       8.68284742      12.21573421
Cd      16.83564806      16.43122679      13.65041295
Cd      14.71287504      17.09037340      11.55024433
Cd       9.72359414      14.53058699      16.22139679
Cd      16.10303942      11.13267493      11.53681189
Cd      12.14249698      15.69273592      10.30556127
Cd      13.74260486       9.67166713      10.45200201
Cd       7.18612013      10.33779297      13.89086573
Cd      12.91549234      14.42735417      16.35071899
Cd      14.69410400      13.96093287      12.19451561
Cd      12.49122910      12.41147204      10.92335372
Cd      17.29360005      13.25112834       9.83286062
Cd      14.49309601      11.70729054      16.60858329
Cd      12.81656301       8.91445213      15.85281307
Cd      11.97019847       8.89055773      12.75444366
Cd       9.66151890      14.33319651      11.03600332
Cd      14.18056110      16.86955350      14.84408036
Cd      12.00136451      14.33089892      13.44400123
Cd      11.30099707      17.05346476      15.72192333
Cd      12.63414257      13.68968519       8.10311203
Cd       8.55754588      11.83331312      16.06110733
Cd      10.72542517      11.64905359      13.21429961
Cd      17.07428540      11.23523009      14.58691822
40
Properties=species:S:1:pos:R:3 config_type=qcd gap_pre_relax_energy=-23.54451786815614 gap_pred_energy=-23.931778911135304 gap_fmax_final=0.0009729266230987057 gap_converged=1 pbc="F F F"
Cd      17.64685231      10.96140997      13.78873832
Cd      15.82286970      10.37555768      16.21082606
Cd      16.96618046      11.17998606      10.93313484
Cd      15.45121125       9.12793150      12.93463443
Cd      17.24729482      13.11665075      15.78692718
Cd      15.74749390      11.51551276       8.25328419
Cd      12.96666768      10.64270228      17.42541160
Cd      14.43486388       9.36377084      10.13567822
Cd      16.28511403      13.61373540      12.82089878
Cd      14.60049636      13.13910559      17.17247227
Cd      15.48541750      14.09008668      10.00212358
Cd      12.97931675      10.53361250       7.71786558
Cd      14.05291714      11.68936244      14.07238509
Cd      15.10789187      15.22494236      15.12613250
Cd      13.42369302       8.70645548      15.20849516
Cd      13.62606022      12.07137157      11.16074518
Cd      12.51970238       8.57947230      12.37326405
Cd      14.61218549      16.15561943      12.21467301
Cd      11.82981791      13.31904316      16.12953726
Cd      10.15682274      10.85949721      16.59350769
Cd      13.13429120      17.48578468      14.65865850
Cd      10.55333495      15.80283288      14.88749634
Cd      10.51899912       8.54940574      14.70543936
Cd      11.22722909      11.30384327      13.31930557
Cd      12.58261218      14.21830919      13.31040618
Cd      11.28814213       9.99442451      10.09615040
Cd      13.31129147      13.48916897       7.95084040
Cd       7.96007246      10.29519256      14.61810698
Cd      11.34151878      17.21551867      12.20147045
Cd       9.05479517      13.17839328      14.86659004
Cd       9.13355648       9.27142915      12.04738856
Cd      10.92785733      13.18864315      11.04543619
Cd      12.72874143      15.62642808       9.95199854
Cd      10.33477109      11.89986815       7.75829430
Cd       7.86186342      12.16099969      12.27667521
Cd       8.93347156      15.03654904      12.44503888
Cd       8.29727666      10.76000464       9.62388166
Cd      10.64523198      14.84382764       7.64884911
Cd       9.68629755      16.52701623       9.88694074
Cd       8.38470575      13.75546372       9.50922679
41
Properties=species:S:1:pos:R:3 config_type=qcd gap_pre_relax_energy=-24.49614279771606 gap_pred_energy=-24.796129203468013 gap_fmax_final=0.0009265747631641427 gap_converged=1 pbc="F F F"
Cd      13.18893779       8.04687064      15.50485684
Cd      14.76209302       9.54679747      13.32092944
Cd      12.08764478       7.90234093      12.80248825
Cd      13.56872062       9.49185686      10.54438557
Cd      10.57891372       8.68112420      10.26297028
Cd      16.29928167      11.08077989      11.29403792
Cd      15.41608831       9.86258567      16.28414302
Cd      11.45557008      11.13681797       8.86171082
Cd      13.25112234      11.84297295      15.13315692
Cd      14.30059611      12.08289810       9.20759102
Cd      10.63449357       9.62976068      15.50945023
Cd      12.13792054      11.37688740      12.37963737
Cd      12.20997514      13.51469434       7.25046403
Cd       9.36611817       9.22485901      12.92019114
Cd      16.67346316      13.79610950       9.92466054
Cd      17.04624800      11.36455563      14.30919686
Cd      18.45028372      13.10926497      12.33982893
Cd      14.74120344      14.88623622       7.91934914
Cd      12.51083923      14.02025719      10.96417056
Cd       9.32262593      11.53162659      10.97806522
Cd       9.50663798      12.03419139      14.16333411
Cd       9.97389484      13.90308178       9.27448510
Cd      15.92516004      12.72444552      16.83219467
Cd      10.50363464      12.33451549      16.96628947
Cd      14.73334144      13.13500281      12.79598453
Cd      14.75175953      16.33062582      10.54800984
Cd      12.13786318      16.22411342       8.80660885
Cd      12.68649056      10.09920559      17.67251838
Cd      13.24919737      12.96419638      18.16336375
Cd       8.93605301      14.24788292      12.22888695
Cd      17.28080256      15.83909948      12.03751054
Cd       9.44553231      14.82354233      15.43694787
Cd      11.94472108      14.15396933      13.81290178
Cd      16.91277464      14.47970490      14.68007970
Cd       9.72866460      16.64715025      10.49204769
Cd      12.25905808      17.16442500      12.02512663
Cd      11.40089911      15.21787347      17.67896174
Cd      14.64699587      16.25600743      13.54219454
Cd      14.21512419      15.10796721      16.22532017
Cd      11.91983639      16.82407066      15.16216082
Cd       9.50772906      17.02794243      13.41209856
41
Properties=species:S:1:pos:R:3 config_type=qcd gap_pre_relax_energy=-24.43532087325923 gap_pred_energy=-24.777581107303035 gap_fmax_final=0.0009562292192115984 gap_converged=1 pbc="F F F"
Cd       7.92069657      11.89537682      14.47819342
Cd       9.13877518      14.18934386      15.86260094
Cd       8.67395828      15.92697293      13.44459351
Cd       7.66693014      13.56744279      11.96562352
Cd      10.35222262      11.45342271      16.27261033
Cd      11.72481740      13.92643827      17.38754283
Cd       7.65320934      10.55548634      11.81041834
Cd      12.70829314      11.05835399      18.05821059
Cd      10.84940207      17.67190394      12.38552914
Cd      11.23675070      16.09352241      15.11001240
Cd       9.97174485       9.73305421      13.83716556
Cd      10.56196985      12.94282537      13.10603365
Cd      14.62150422      13.28961771      18.13900167
Cd       9.83447331      15.20794892      10.70374293
Cd      13.48025816      17.61573888      13.87058492
Cd       9.59805751      12.17438987      10.02281007
Cd      12.61237284       9.67323702      15.33272181
Cd      13.18010617      12.77246388      14.65864925
Cd      13.99461509      15.46731761      16.03815890
Cd      10.08649155       9.17944114      10.83891185
Cd      12.84486106      14.82712016      12.50499091
Cd      16.37826816      13.64081346      15.76025985
Cd      12.37199162      16.60018550      10.02550732
Cd      12.81821061      11.41307324      12.00350281
Cd      16.08056124      16.17535505      13.99624672
Cd      15.23159908      10.87699584      16.27453670
Cd      12.33553508       8.35971062      12.62490883
Cd      12.15545735      13.57298527       9.57675725
Cd      14.91622711      17.44846146      11.28541240
Cd      15.00324358       9.56138227      13.53653075
Cd      12.01175013      10.56313452       9.10858624
Cd      15.31133769      13.21314389      12.46275644
Cd      18.34288128      14.22984080      13.60324230
Cd      14.82642765      14.84699627       9.52407754
Cd      17.30466176      11.34980464      14.07570016
Cd      14.71862851      11.83033509       9.19825271
Cd      14.23777138       9.04062238      10.45258431
Cd      17.23713622      15.62544376      11.23656125
Cd      16.65182614      10.53450658      11.20700399
Cd      17.31612998      13.11122516       9.70859930
Cd      19.29105358      12.03677355      11.76307480
42
Properties=species:S:1:pos:R:3 config_type=qcd gap_pre_relax_energy=-25.107116614663052 gap_pred_energy=-25.529306866595814 gap_fmax_final=0.0008944964210281953 gap_converged=1 pbc="F F F"
Cd       8.52367344      13.54987873      10.56810351
Cd       7.93846711      11.14373253      12.28969053
Cd       7.80942188      13.85656059      13.46007091
Cd       9.23813781      13.12840184       7.58658548
Cd       9.61139616      15.94888801      12.23220979
Cd      10.64233625      15.39746307       9.43830563
Cd       8.87580097      11.75931769      15.26540825
Cd       7.59423738       9.06980699      14.43100434
Cd       8.96340837      10.63688224       9.52099635
Cd      11.01968052      13.38448752      13.25607153
Cd       8.70609907      16.19696023      15.26077052
Cd      11.36492691      10.83066977       7.62569909
Cd      12.42411748      16.73298736      11.61651994
Cd      12.23913100      13.64502207       7.58397273
Cd       9.22005709       8.46693031      11.90886263
Cd      10.58401690      14.04142802      16.39301514
Cd       9.62350470       9.11974606      16.67551306
Cd       9.73566304       6.92623143      14.58744228
Cd      11.14233465      10.41816909      13.21067609
Cd      11.73909975      16.19361290      14.51146071
Cd      11.35358314      12.25541586      10.54501104
Cd      11.64629554      11.27550765      16.36008249
Cd      13.39187280      13.72624790      15.44704139
Cd      11.47975849       8.98197631      10.07044710
Cd      13.70742250      15.72975585       9.02317172
Cd      14.59227712      16.00139517      13.67567132
Cd      13.57096446      13.85497522      11.63245756
Cd      14.57416798      12.50435048       9.05205599
Cd      11.94731977       7.21640993      12.61109056
Cd      15.40135422      17.37792001      10.99404480
Cd      13.67632996      10.87373971      11.80274109
Cd      15.67281502      13.10147381      13.63430239
Cd      12.29759517       8.35018562      15.43915851
Cd      14.10621609      10.72969211      14.82055209
Cd      13.87219781       9.51366162       8.24822478
Cd      16.56291519      14.98640258       9.35838508
Cd      14.17035374       7.85098419      10.75040578
Cd      17.25623442      12.60592914      11.03753928
Cd      17.27231153      15.37112910      12.31377435
Cd      14.74449774       7.91708552      13.70567301
Cd      16.52789385      10.27890677      12.99544665
Cd      16.16478389      10.03434985      10.04501542
42
Properties=species:S:1:pos:R:3 config_type=qcd gap_pre_relax_energy=-24.980594700618465 gap_pred_energy=-25.597293490548306 gap_fmax_final=0.0009042616672823296 gap_converged=1 pbc="F F F"
Cd       9.48168388       8.26767792       8.76884116
Cd      12.21682730       7.49962363       7.73493448
Cd       7.95504523       6.32179877      10.52140212
Cd      10.97887900       5.91861729      10.09378492
Cd      11.28571575      10.50412747       7.68575261
Cd      14.07459695       9.59023534       6.79995460
Cd      14.94733096      11.37911843      13.95907144
Cd      12.00375776      11.28984163      12.80801905
Cd      15.76174800       9.07322900       9.30505899
Cd      14.71374959      13.96426925       9.25895126
Cd      12.01242854      12.64928117      10.14575714
Cd      13.24627259      12.65851489       6.92189349
Cd      12.39155631      15.40746544       7.82867168
Cd       9.70395610       5.81336796      12.87465934
Cd      12.30170692       7.32487384      12.50838735
Cd      12.89448482      13.23060425      15.13343346
Cd      15.99916589      11.67346861       7.85151692
Cd      15.41563403      11.57890799      10.96090948
Cd      13.27447742       9.04338300      14.73435171
Cd       6.83105961       9.08712568      10.24475179
Cd       7.68119595      14.04362689       8.56470065
Cd      11.63536281      15.08322673      13.15442025
Cd       7.01351161      13.06849570      13.29056249
Cd      15.01129207       8.88097211      12.26669886
Cd       9.46336232      12.41388912      11.58990701
Cd      10.02270146       9.47206102      11.44899443
Cd      14.19141492      13.84122715      12.37301585
Cd       8.55575986      10.64398906      14.26345419
Cd      10.32809679       8.27714996      14.51107874
Cd      12.73378391       9.77178860      10.24450375
Cd       9.83529237      13.33517632      14.74361143
Cd       5.83579963      10.36479194      12.79455466
Cd      11.16013414      10.87566597      15.79068538
Cd      10.29963896      13.38272481       7.46720743
Cd       7.62538987       8.00857526      13.04285953
Cd      13.93181253       6.86053811      10.07416153
Cd       6.18548495      12.13146066      10.40428889
Cd       8.62660685      11.17809536       8.88915162
Cd       9.96731943      15.34316896      10.11198174
Cd       8.78029058      15.56619975      12.99404236
Cd      12.87783945      15.92782926      10.66387875
Cd       6.63486173      15.14084451      11.06316627
43
Properties=species:S:1:pos:R:3 config_type=qcd gap_pre_relax_energy=-25.872343853842654 gap_pred_energy=-26.29640788214299 gap_fmax_final=0.0009193750551394107 gap_converged=1 pbc="F F F"
Cd       7.05457120       7.87841241      11.66019775
Cd      15.65590308      11.15053632      13.95383298
Cd      12.57656816      11.06529781      13.99657649
Cd      15.68975445       9.64857774      11.29337966
Cd      14.51754410       8.40947183      13.81692080
Cd      13.84719711      15.34043801      11.55415585
Cd      13.72640790      10.12895165       6.53077516
Cd       9.86650438       8.87642127      12.97081115
Cd       6.90607374       9.73409802       8.92590289
Cd       8.26757263      12.67223312      15.52227933
Cd      13.33550336      13.07283284       6.91319347
Cd       9.25155530      14.96888185      13.91282866
Cd      15.66755503      12.93530471      11.56542606
Cd       8.63962134       9.21407136       6.46881738
Cd      10.96118297      11.15504370       6.01446963
Cd      14.59558530      11.42352222       9.15398864
Cd      11.23205498      12.12386902       8.86254554
Cd      12.11084909       6.46628242      12.90527464
Cd       9.31345680      14.56544893       8.72136995
Cd      14.34670289      13.76834474      14.42168222
Cd       9.45788602       6.14426068      11.60678799
Cd      12.39093109       9.66865240      11.03909060
Cd       6.76831718      12.96317745      12.97264112
Cd       8.37717640      12.16643866       7.16611113
Cd      12.53617120      12.56853760      11.43094296
Cd       8.85822766       7.43519934       8.98700629
Cd       5.64827571      10.51270847      11.57429232
Cd      11.92725156       6.60891176       9.86825244
Cd      12.17300533      15.78254194      14.04471837
Cd      14.23197045       8.40140669       8.88071184
Cd       9.82535944      12.17541760      12.46827897
Cd       7.45507337      10.19030615      13.99070901
Cd      10.84520880      15.19523709      11.31752189
Cd      11.35679183       8.80733986       7.92762908
Cd      11.91288787       8.31790994      15.18498296
Cd      10.00209103      10.36003758      15.87507329
Cd      14.60872756       6.77411017      11.35843010
Cd      15.15406260      14.47579411       8.93528211
Cd      11.23867622      13.24609543      15.42327508
Cd       7.86052380      15.15629232      11.29787640
Cd       7.47776739      12.47548349      10.04275925
Cd       9.60051042      10.19747425      10.31981318
Cd      12.23386087      15.28154463       8.62630300
43
Properties=species:S:1:pos:R:3 config_type=qcd gap_pre_relax_energy=-25.90444210960452 gap_pred_energy=-26.27822039340997 gap_fmax_final=0.0009762628363712224 gap_converged=1 pbc="F F F"
Cd      14.86970220      15.97413716      10.49167544
Cd      16.81130335      14.77065524      12.41119143
Cd      18.01826037      12.11025190      11.60387849
Cd      16.57019508      12.33433736      14.23738501
Cd      15.78769067      15.09539394      15.18413999
Cd      14.37512879      16.91431963      13.36566537
Cd      12.61526686      17.75111127      11.05661436
Cd      16.67548282       9.58248527      12.69151127
Cd      15.88675115      13.34018674       9.79093246
Cd      14.08041997      10.79352891      11.87254499
Cd      16.39795172      10.33354733       9.75713378
Cd      12.32731990      14.52529828       9.82192294
Cd      11.34978593      12.64146410       7.67835235
Cd      13.83587798      13.63585288      12.47816787
Cd      14.35398428      12.77073677      16.29854337
Cd      14.83810493      10.06974971      15.09364890
Cd      13.88172004      11.61403613       8.63784187
Cd      11.20849717      17.11131768      13.65923816
Cd      12.69017906      14.98555093      15.12766893
Cd       9.99873209      16.45667047      10.82520655
Cd      14.07145597       7.78401331      13.23173550
Cd      12.11857133      11.69277290      14.02226411
Cd       8.26686429      16.65736651      13.41136802
Cd      15.63246614       7.41307111      10.68015267
Cd      12.90386120      10.46057219      17.53987024
Cd      14.17962784       8.64533057       8.36638429
Cd       7.28826326      15.11216515      11.07864995
Cd      10.73054117      13.96624561      12.59956582
Cd      11.46748730      11.67963584      10.87327922
Cd      12.59983775       8.13130307      15.74517230
Cd      11.34631824      12.93489938      16.92674821
Cd      12.38245448       8.25704282      10.73669400
Cd       9.23434708      14.13362765       9.06699392
Cd       9.70039940      15.06138148      15.50789523
Cd      10.27488714      10.00125344      16.06102464
Cd      11.37140303       9.56525577       8.06512833
Cd      10.96860965       8.74023293      13.28580327
Cd       7.67749537      13.62746601      13.67459049
Cd       8.09745250      12.19394127      11.01865450
Cd       8.90780043      10.86374344      13.50003150
Cd       8.49111314      12.35686606      16.22402810
Cd       9.56601206       9.46047541      10.70723766
Cd       8.84467009      11.14499960       8.28775775
44
Properties=species:S:1:pos:R:3 config_type=qcd gap_pre_relax_energy=-26.57307554219467 gap_pred_energy=-26.894604540198156 gap_fmax_final=0.0009978875219771493 gap_converged=1 pbc="F F F"
Cd      15.02737495       8.39828540       8.63119729
Cd      15.33733251      11.44237923      13.53271616
Cd      12.44974931       6.78888443       8.75360210
Cd       9.36136854      10.03363902      12.96545367
Cd       8.55438902       9.62533494       6.77914530
Cd      13.30531300      14.23290666       8.89894594
Cd      13.81108659       9.92424909       6.28569386
Cd      15.06714777      11.48305859       8.56861759
Cd      13.74018490      12.93834818       6.19689788
Cd       7.73224222       7.26190949      11.26641227
Cd      15.09544092       8.46947534      13.76225444
Cd      15.92666320       9.79885528      11.10768052
Cd       5.95573803      11.57118955      13.54470658
Cd      14.01522855       7.24704192      11.26244540
Cd       9.13869684      15.22468333      11.62292110
Cd      12.34186645      15.13069687      11.61180042
Cd       6.69614213       8.63720202      13.77665966
Cd      10.65547213      12.12382639      15.18216105
Cd       8.27577843      14.34002720       8.90599489
Cd      10.82695199       6.94146028      11.27497414
Cd      11.11636960      14.34382794       6.67279672
Cd       7.94901232      10.81354748      15.65501832
Cd      12.27366786       9.87600024       9.00983788
Cd       9.43451748       7.17553346       8.60244615
Cd       7.71275820      12.44059645      11.28684105
Cd       8.62465094      12.60483290       6.48687868
Cd       5.74939319       9.82890061      11.12459407
Cd      12.16473360       9.73643536      11.95465251
Cd      10.41514920       9.08759759      15.80294866
Cd       6.90350570      11.39013544       8.62902057
Cd      13.29833579      13.45712503      14.10458919
Cd       9.43259859       9.86365168      10.03497872
Cd      10.70803396      12.42799918      11.83930837
Cd      10.67399520      12.29769757       8.87697135
Cd      10.69838831      14.90373115      14.13081009
Cd       9.28041938       7.08026390      13.84360524
Cd      11.16933545      11.27030105       5.68455949
Cd       6.63845073       8.36796170       8.72465281
Cd       7.98676683      13.64897599      14.25136683
Cd      12.27019344       7.46261180      14.01067814
Cd      13.06959003      10.35033842      15.21300076
Cd      13.68843712      12.20625796      11.10121571
Cd      10.79171365      16.01373887       9.18126992
Cd      11.23633594       8.33900500       6.44819847
44
Properties=species:S:1:pos:R:3 config_type=qcd gap_pre_relax_energy=-26.41643352051035 gap_pred_energy=-26.86511218405583 gap_fmax_final=0.0009437624350317603 gap_converged=1 pbc="F F F"
Cd       9.66545472       9.91092381       7.34415208
Cd      10.01432013      12.88474112       7.75123068
Cd       7.80541194      11.25037532       9.37045674
Cd      12.84259103      14.22996077       7.77333824
Cd      12.34042320      11.07080410       8.02533974
Cd      10.26758350      15.84425992       8.20106533
Cd      14.93859544      12.23759711       8.95665494
Cd      11.57114711       7.98645830       8.74323814
Cd      12.74689329      16.90730945       9.42512257
Cd       8.61720683       8.31171378       9.63622495
Cd      14.44761996       9.12735252       8.82679231
Cd      10.09698958      11.44703367      11.34024183
Cd       7.27639946      12.52087629      12.17684473
Cd       8.31048584      14.21940486       9.77836348
Cd      12.11638396      13.41703089      10.52161704
Cd      15.14181449      15.23925852       9.47432339
Cd      16.52744872      10.22522713      10.62234809
Cd      12.95140477      10.42328306      11.21527607
Cd      16.66442712      13.21372244      11.19791101
Cd      10.37677706      16.34807815      11.18396106
Cd      16.10067150      16.05089672      12.13699099
Cd      13.43605439       7.37826503      11.03201596
Cd       7.90233708       9.49283442      12.29083253
Cd      16.60993663      11.30660693      13.55466968
Cd      10.62140374       8.17474683      11.82277406
Cd      15.45469069       8.58997328      12.85794885
Cd      10.37353773      13.86373588      13.04324564
Cd      14.01405630      12.72218244      12.71685986
Cd      13.08296360      15.81778675      12.43748277
Cd      15.16757390      15.87847902      14.97556270
Cd      17.54819231      14.17164481      14.09985396
Cd       7.69419404      14.07660805      14.82802979
Cd      11.68984695      11.14303949      13.89667939
Cd       7.79966741      15.58999454      12.35922235
Cd       8.22681358      11.14593815      14.75448889
Cd       9.86302830       8.66231256      14.68116506
Cd      12.73118434       7.98853358      13.93175338
Cd      14.52638319      10.01731220      15.36085264
Cd      12.61113795      14.30044530      15.03679870
Cd      10.12910984      13.19985944      16.16950458
Cd      15.19814187      12.91768519      15.76708859
Cd      12.20612378       8.71917846      16.78953525
Cd       9.86446205      10.43814469      17.18652285
Cd      12.65181286      11.76108720      16.92832128
45
Properties=species:S:1:pos:R:3 config_type=qcd gap_pre_relax_energy=-27.11916980402041 gap_pred_energy=-27.4895565054371 gap_fmax_final=0.0009429138753150487 gap_converged=1 pbc="F F F"
Cd       8.45750185      11.48557221       6.48392262
Cd      13.10564952      13.41414768       6.53726673
Cd      10.89065958      16.14794561      11.49633264
Cd       9.28932864      16.03136555       8.79948534
Cd      10.14770168      13.91313482       6.77313075
Cd       8.09166091      14.82128125      11.25856263
Cd       7.40828765      13.67067250       8.47317200
Cd       6.37829223      10.75957735       8.41333387
Cd      11.36529580      10.95191299       6.47039720
Cd      14.34744990      10.81619489       7.22681396
Cd      15.19065403       8.33040360       8.60555857
Cd       8.98798426       9.03462524       8.23367053
Cd       8.03057416       6.68970141      10.10102536
Cd      13.20886044       6.44271668       9.85194016
Cd      10.52422126       6.41081020       8.59296009
Cd      12.37391630       8.46368306       7.53064738
Cd      14.69091909      13.49219747       9.14845356
Cd      13.86636716      15.74175088      11.15272616
Cd      11.99921861      14.75734621       9.00997142
Cd      12.73101465      11.18464796       9.87398803
Cd      12.94134574      14.88604116      13.85678963
Cd      14.83021618      13.09693029      12.22059502
Cd      15.78762281      10.91000426      10.16936389
Cd      15.98859264      10.53027704      13.25721718
Cd      11.11083455      13.12532391      11.77794839
Cd       7.00370429      13.40624255      13.66312061
Cd       9.76517529      14.73316285      13.95272943
Cd       9.28562095      11.89043741      14.84763857
Cd      11.64631788      13.35259050      16.04909549
Cd      11.60317438      10.22914142      15.82378937
Cd      12.12194537      10.51950054      12.87024719
Cd      13.92390509       8.73311652      14.53564155
Cd      14.11240593      12.04724998      15.02271468
Cd       8.78875129       9.00966597      15.50669626
Cd       6.86504590      10.37816801      13.59494557
Cd       8.33981467       7.58675030      12.92100934
Cd       9.90867442      12.03704830       9.26748218
Cd       6.43696656      12.25797994      10.97569354
Cd       6.59898743       9.13405653      10.84967517
Cd       9.25435510      10.67023737      11.80457580
Cd      11.08246819       7.49348389      14.29892810
Cd      14.45812965       8.61841205      11.52569945
Cd      13.34998307       6.15960337      12.87119061
Cd      11.17737925       8.74623433      10.65115760
Cd      10.56897524       5.92460353      11.68864595
45
Properties=species:S:1:pos:R:3 config_type=qcd gap_pre_relax_energy=-27.27433842474509 gap_pred_energy=-27.57917453210937 gap_fmax_final=0.0009798051597091906 gap_converged=1 pbc="F F F"
Cd      15.53973017      11.18313802       7.88663821
Cd      14.47433584      13.97873334       7.86137145
Cd      12.51564474      11.58900560       7.56470657
Cd      11.55520740      14.36751341       7.20284287
Cd       9.62248413      12.19592581       8.28594929
Cd      13.42285007       9.33076810       9.17401915
Cd       9.80281963      15.00722147       9.53480573
Cd      16.02579627       9.99881921      10.60125638
Cd      16.70786541      12.97283113      10.09178065
Cd      15.64162024      15.76048455       9.93307322
Cd      10.55677027       9.30408445       8.11243276
Cd      12.70691918      15.93397166       9.52915528
Cd      13.77558358      12.54488447      10.64155319
Cd      10.91871106      11.62392273      10.99186877
Cd       8.58614456       9.77093054      10.28401249
Cd      10.85142652      17.19472611      11.79349086
Cd      16.03919828       8.99660523      13.40962588
Cd      11.17992467       8.06370890      10.78347852
Cd      14.20071210       7.66788192      11.46919445
Cd       7.90637445      12.95664424      10.69828499
Cd       8.14192984      15.74986817      11.87220021
Cd      16.35533429      14.82774319      12.64847862
Cd      13.13342123      10.27397802      12.83901648
Cd      16.74155544      11.87450595      12.91023323
Cd      11.83334795      14.34715900      11.99468482
Cd       9.66610609       8.96726922      13.19425324
Cd      12.14669790       7.40283673      13.60257706
Cd       9.67613577      15.81191143      14.40033836
Cd      14.04694583      17.05066017      12.10402972
Cd       7.54333941      10.91765521      12.80189964
Cd      13.89236819      12.98005882      13.73980771
Cd      10.93077534      12.25757399      13.95768845
Cd       8.93797717      13.92865743      16.69878612
Cd      17.23608772      13.83238139      15.56468909
Cd      14.12706073       8.38122663      15.58168546
Cd      11.30456016       9.49692012      15.68624604
Cd      15.79112015      11.00223554      15.61883066
Cd      12.26513826      17.35366878      14.44058008
Cd       7.63948585      13.60669016      13.99033919
Cd      13.57426370      10.43935833      17.64977796
Cd      11.92534810      14.71925564      15.94325929
Cd      14.70134459      15.72178163      14.97658560
Cd       8.70864710      11.08498287      15.55597060
Cd      11.18376113      12.10504270      17.31920497
Cd      14.30392181      13.26157034      16.89608907
46
Properties=species:S:1:pos:R:3 config_type=qcd gap_pre_relax_energy=-28.34455069816829 gap_pred_energy=-28.520340912688766 gap_fmax_final=0.0007719898612077488 gap_converged=1 pbc="F F F"
Cd      16.04970455      16.81772232      19.52032282
Cd      15.67825072       9.17672091      13.54869425
Cd      14.31535857      20.83493239      13.59932321
Cd      16.84615705      13.94190260      19.50678460
Cd      13.78346994      16.74954963      10.49462487
Cd      19.33771020      17.52300924      15.57597873
Cd      17.52659836      10.66125437      15.55199507
Cd      18.56503126      14.39584283      12.01323374
Cd      14.05975104      18.48639727      17.99264994
Cd      20.82599508      15.68734775      13.56381345
Cd      14.99524657      15.00870124      12.86361961
Cd      13.05278614      11.56902229      17.15054702
Cd      12.88898751      10.44929356      14.41081911
Cd      17.25798054      11.78386360      12.82157202
Cd      18.42692044      13.03914513      17.14463478
Cd      11.58268131      16.94317163      17.17572645
Cd      10.44560326      17.11203731      14.44346251
Cd      16.19645963      13.28723350      10.47508665
Cd      11.50798393      14.04099012      17.98016470
Cd      10.66483745      12.47228624      15.57460237
Cd      18.22024777      17.27162696      12.84183678
Cd      15.13784889      20.86150697      16.44971816
Cd      16.95684063      18.41327520      17.16984365
Cd      12.47596950      19.33400466      15.59857189
Cd      14.37703264      11.44052195      12.01051121
Cd      14.89895062      17.16054380      15.00911450
Cd       9.16771749      14.32435482      13.58413688
Cd      13.97036273      13.14546315      19.50991173
Cd      14.86846626       9.12688772      16.40236267
Cd      17.10848752      19.55545764      14.43867440
Cd      13.17385866      16.02125134      19.52346411
Cd      12.73241855      18.23386144      12.85790741
Cd      15.60975544      18.58380921      12.03687219
Cd       9.13582981      15.12881001      16.43960682
Cd      12.83944703      14.89894500      15.00444140
Cd      15.95343802      11.48924420      17.95989112
Cd      16.72122989      16.22497562      10.48596631
Cd      11.77017979      12.74602732      12.83761808
Cd      20.87051934      14.85952992      16.41248400
Cd      18.50520016      15.93473224      17.97240345
Cd      15.00472274      14.99123573      17.13642135
Cd      11.42171439      15.62845677      12.03412075
Cd      15.10101759      12.83942748      14.99098490
Cd      13.25888848      13.81197040      10.48375125
Cd      19.55180086      12.89260855      14.40606053
Cd      17.16054161      15.10104797      14.99566860
46
Properties=species:S:1:pos:R:3 config_type=qcd gap_pre_relax_energy=-28.13187780623923 gap_pred_energy=-28.36379398371389 gap_fmax_final=0.0009145914607651291 gap_converged=1 pbc="F F F"
Cd      16.02892107      13.75489034       9.79939827
Cd      15.55626591      15.56907057      12.17314494
Cd      16.84896249      12.87164281      12.47647748
Cd      14.76395306      16.48994167       9.37586154
Cd      15.38805615      11.68474073       7.76788499
Cd      16.78395814      10.70426645      10.19128883
Cd      13.08316520      17.21655312      11.74711816
Cd      16.70695267      14.74491120      14.90494622
Cd      13.86928645      14.25424115       7.65964382
Cd      17.26189676       9.99334696      13.02909936
Cd      12.75122549      13.95731097      10.84778156
Cd      14.16004431      16.29479151      14.71954627
Cd      14.16799820       9.23299364       9.02647443
Cd      13.95313220      11.25744846      11.44953857
Cd      16.53352316      11.79238671      15.31881088
Cd      12.43110565      11.58670701       8.43365519
Cd      11.74491442      16.22518579       9.09966551
Cd      15.09964973       8.34994469      11.73572171
Cd      14.46343667      13.69053045      16.66912947
Cd      11.43380188      17.37829113      14.24046573
Cd      13.72708053      13.14271538      13.78435447
Cd      10.94625739      13.93951093       7.34806773
Cd      12.67581884       7.07953449      10.50428981
Cd      11.76440048      14.87551093      15.85780172
Cd      10.14774859      16.47195811      11.69098759
Cd      14.64615655       9.47723227      14.47190413
Cd      10.80694963      11.36983672      11.16023778
Cd      14.46373362      10.68653813      17.21239081
Cd      10.79228983      13.65138337      13.06501598
Cd       9.20690477      14.47205913       9.71783996
Cd      12.53653995       7.52605984      13.55436658
Cd       8.98604885      15.66116684      14.54418313
Cd       9.32105378      11.68199789       8.49994995
Cd      10.89972053       9.04268212       8.99657237
Cd      11.84260804      12.08871417      16.93183289
Cd      12.05724435       9.04378741      16.30908004
Cd      10.15778453       8.11265658      11.76038347
Cd       7.44187637      14.99749503      12.09959916
Cd       9.20164660      13.44860792      16.53802539
Cd      11.88543682      10.80825017      13.83293522
Cd       7.63578034      12.20294003      11.02317135
Cd       7.92751423       9.33719095       9.96498144
Cd       7.75803732      12.70587437      14.04198607
Cd       9.75552583       7.83817357      14.73946679
Cd       9.35632533      10.56517307      15.88008419
Cd       8.26960160       9.96408951      13.04517335
47
Properties=species:S:1:pos:R:3 config_type=qcd gap_pre_relax_energy=-28.305867053960377 gap_pred_energy=-28.764847047921897 gap_fmax_final=0.0009589842476710133 gap_converged=1 pbc="F F F"
Cd      13.88126109      17.17490752      11.86953806
Cd      11.28093465      17.33743970      13.80774451
Cd      10.59265670      12.80959522      13.41853172
Cd       7.56765106      10.48089587      14.52466206
Cd       9.90106957      14.60472035       8.62849886
Cd       7.73031297      14.99389639      10.75809832
Cd      12.53710395       7.24403808      13.13913741
Cd      13.76538632      16.04421902      14.79882622
Cd      11.85685082       7.96784090      15.94129191
Cd      11.37395370      10.14626771      12.19913746
Cd       9.60485938       8.30692592      13.83085202
Cd       7.30475218      12.75692288      12.66825247
Cd       8.68015152       9.43857474       8.75806134
Cd      13.03487330      10.61692641      16.93549917
Cd       7.86147319       9.77954513      11.63244937
Cd      14.05040566      11.37921675      11.27524620
Cd      10.25974381      10.51753684      15.79013312
Cd      13.56922522      13.70575489      16.83936812
Cd      10.11492805       7.72902652      10.89846172
Cd      13.03233606       7.12267614      10.23269777
Cd      10.94548217      15.23125457      15.92839543
Cd      11.38762436      12.50677538      10.30594757
Cd      13.38948598      11.79243655      14.16217953
Cd      14.90883882      15.32067439       9.64292390
Cd      10.62043110      15.68045948      11.31551857
Cd      13.14629747      11.20026390       7.04652495
Cd      12.79777391      14.06539215       7.71460191
Cd      10.25629419      11.81227906       7.57951808
Cd      12.32350234      16.73308083       8.97996430
Cd       7.92930275      12.24861736       9.56755998
Cd      13.10711626      14.17061234      12.23096448
Cd      10.87443952      12.77564594      17.68349409
Cd      11.68334400       9.45953272       8.95634850
Cd       8.60041100      13.10522765      15.66252068
Cd       8.84603660      15.32522850      13.66596951
Cd      16.90869875      10.57867366      10.78327264
Cd      17.17412119       9.59450261      13.73257222
Cd      15.80533645      11.33733319      15.92589746
Cd      17.22711220      13.58835466      10.47765874
Cd      15.31840198       8.11904327      11.88357941
Cd      15.42408580      12.44214402       8.45654600
Cd      14.64353127       8.60384395      15.02555584
Cd      14.69257107       9.41256003       9.05408355
Cd      16.52043728      12.45997611      13.17141827
Cd      16.11629348      14.31619348      15.48774851
Cd      16.03364771      15.33285076      12.63198608
Cd      11.42970361      18.74036688      11.09101231
47
Properties=species:S:1:pos:R:3 config_type=qcd gap_pre_relax_energy=-28.6295587431646 gap_pred_energy=-29.032617097462 gap_fmax_final=0.0008407656526864115 gap_converged=1 pbc="F F F"
Cd      11.76210965      13.44253348       7.99085285
Cd      14.70585829      13.70727957       7.17437490
Cd      13.45021728      10.98113981       7.35284763
Cd      14.78119224      16.86171324      11.50421909
Cd      10.41373620      10.86965137       7.31762681
Cd       8.77948967      12.81602315       8.82317490
Cd      16.26556549      11.58271173       8.52973340
Cd      10.18487292      15.62909852       9.27452263
Cd      13.43309378      15.70905247       8.97940327
Cd      11.96991407      17.64330091      10.70696959
Cd      15.98962536      14.46526748       9.83673576
Cd      10.89582076      12.90825478      11.13837217
Cd      13.67799290      12.09661278      10.40200277
Cd      15.19156762      16.83706893      14.52597829
Cd      11.95555816       8.92236683       9.03387699
Cd      16.53000510      14.66428664      12.78608980
Cd      14.90190584       9.05389056       9.23628947
Cd       9.32568980       9.93587811      10.00986371
Cd      10.01329103      15.97753367      12.23964631
Cd       7.61668726      14.78790195      10.67933042
Cd      13.13443036      14.45717220      12.29536357
Cd      14.63306569       7.22631941      13.78517110
Cd      16.94655380      12.07265264      11.35092154
Cd      15.31705926       9.72546919      12.10086770
Cd      10.43384854       7.26308000      11.05387148
Cd      17.25125257      12.00829990      14.25766938
Cd      12.42226943      17.16690384      13.68782801
Cd      16.06889671      14.33714624      15.78852512
Cd      13.87626829      12.00651302      13.72621194
Cd      10.26196420      15.77813129      15.18292181
Cd       9.09554019       9.30537499      12.95857102
Cd       7.95160296      14.29731185      13.59042958
Cd       7.98387697      11.90018830      11.76778051
Cd      13.44960332       7.20761232      11.10337842
Cd      12.00850374      10.27823724      12.19005654
Cd      13.06020085      14.54275313      15.61422768
Cd      11.62789610       7.61873319      13.76202754
Cd      16.35234630       9.31929397      15.00410720
Cd      10.88432657      12.67936701      14.09162793
Cd      15.16313724      11.65537088      16.53838403
Cd       8.03972800      14.15703606      16.57325808
Cd      13.35544264       9.30668601      15.59332901
Cd      10.87941770      14.30366111      17.68451093
Cd       8.14891773      11.55054649      14.79572202
Cd      10.44367240       9.75208693      15.58125340
Cd      12.28452945      11.76987068      16.98905617
Cd       9.32900658      11.67016711      17.63856858
47
Properties=species:S:1:pos:R:3 config_type=qcd gap_pre_relax_energy=-28.505990944231847 gap_pred_energy=-29.118369774709684 gap_fmax_final=0.0009559523407182284 gap_converged=1 pbc="F F F"
Cd      11.54852082      16.66147465      13.81289766
Cd      13.05194474      10.46693414      13.20998305
Cd      12.07212143      12.04417069      17.48057907
Cd      10.53543123      16.06264895       9.02179206
Cd      11.41020950      10.94185465       7.85193693
Cd      14.07241781      16.07236075      15.25425380
Cd      16.02418579      10.74243421       9.79652298
Cd      17.56779276      12.57074394      14.61088757
Cd      11.64530630      17.93788422      11.02539014
Cd      15.35132905       8.13508688      11.16599934
Cd      14.56454176      13.24691339      12.52366149
Cd      11.70119792      14.32847722      11.27457945
Cd       8.03252649      10.70711853      14.01799873
Cd       9.78454244      13.46380825       7.83780952
Cd       7.76130157       9.07624009      11.43605744
Cd      12.93500584      11.77520838      10.56644400
Cd       9.53704604      12.83934998      15.58866898
Cd      12.56627576       7.62592667      12.02363307
Cd      10.68345209      10.11224989      15.59615885
Cd      14.48692079      12.37282110      15.46153448
Cd      13.64982762      16.25780498       9.39485826
Cd      12.69506770      13.78672661       8.08015892
Cd       9.90993279       8.34284878      13.32165321
Cd      10.69728105       9.36366893      10.48810648
Cd       9.21116813      16.32414931      11.97867349
Cd      10.26864239      11.81075823      12.31189714
Cd      15.57916297      13.56694548       8.90209152
Cd      11.31526600      15.09554176      16.68562541
Cd       6.49505108      11.73155982      11.48897412
Cd      12.16420277       7.54510268      15.08827865
Cd      16.80850225      15.37739308      13.49703814
Cd      17.30489104      13.05709888      11.47290156
Cd       8.52410625      13.87758313      10.49663102
Cd      16.39907658      10.04137135      15.73349682
Cd      13.92125405      14.34148157      17.81634323
Cd      14.92061443       8.02856357      14.12189230
Cd       7.60358504      13.74687092      13.34972353
Cd      13.41112955       9.04197079       9.14475351
Cd      16.48979405      14.66884489      16.36629580
Cd      12.04481039      13.45445638      14.08731312
Cd      14.11866592      16.57212859      12.32277087
Cd      13.59467047       9.61548026      16.67718735
Cd      14.37133411      11.30253461       7.31287161
Cd       8.97669420      15.77381124      14.97271793
Cd      16.45732359      10.41135836      12.75012557
Cd      16.42406588      15.85509128      10.56001503
Cd       8.60350805      11.11684641       9.31251522
48
Properties=species:S:1:pos:R:3 config_type=qcd gap_pre_relax_energy=-28.99953910915285 gap_pred_energy=-29.56886480446967 gap_fmax_final=0.0009293621235185814 gap_converged=1 pbc="F F F"
Cd       9.02660708      11.55520423       8.00689939
Cd       7.68928939      13.60158349       9.86199617
Cd      10.87420038      13.21282899      13.35067530
Cd      10.95185378      14.98431509      16.81158172
Cd       8.44696108       8.85366177      12.72594165
Cd       7.10095403      11.33036700      13.71738211
Cd      16.60374882      12.86719711      15.10660430
Cd      10.32038617      14.27044849       8.49905956
Cd      15.70706585      15.67462270      14.91372786
Cd      13.62819548      12.44030212      14.18509760
Cd      13.88817833      14.00054958      16.76092599
Cd       8.79892244      13.20832675      15.53934524
Cd      11.86247146       9.15780792      16.64063376
Cd      14.50446917      16.68026138      12.26154937
Cd      11.43369472      12.07188100      17.05786458
Cd      14.41627256      11.11558771      11.61413741
Cd      12.74676259      15.72881415      14.54009022
Cd      12.32189253      16.42629099       9.79200875
Cd      14.36133403      10.91021221      16.66679318
Cd      16.57752934       9.94398604      14.75974738
Cd       9.73737837      15.42902565      11.18256689
Cd      11.80653840      10.34728791      12.87333660
Cd      13.27233345      14.01524112      11.63444885
Cd      11.16497020       9.31856343       8.45099483
Cd       9.24118981      11.59369391      11.44425613
Cd      13.23752444       6.80506731      12.39267616
Cd      10.78561381       7.78479820      11.00388869
Cd      10.90212791       7.75966817      14.11863614
Cd       8.37546060       9.13405237       9.75968112
Cd       9.44963987      10.27947267      15.28036848
Cd      11.91060410      11.84100365      10.11835987
Cd      11.55003926      17.50328384      12.46085266
Cd      13.94584400       8.66527392      14.58789551
Cd       9.65352629      15.88643434      14.21045428
Cd       7.45678339      14.25267330      12.88250360
Cd      16.25847077      10.04620568       9.49434510
Cd      17.31502543      12.93020482       9.85834852
Cd      15.26747554      15.18383814       9.67001442
Cd      13.99695720       9.78109656       7.37672076
Cd      17.46493625      11.37799232      12.35701717
Cd      13.88100776       7.98610409       9.74853655
Cd      16.83010159      14.55519453      12.34885304
Cd      15.82112637       8.47155038      12.16432411
Cd      14.69996711      12.47220010       8.48047554
Cd      13.11398056      14.80103299       7.43769377
Cd      11.92200654      12.00536608       7.11514493
Cd       6.11710521      11.02927502       8.93912906
Cd       5.31893045      12.46760467      11.55386960
48
Properties=species:S:1:pos:R:3 config_type=qcd gap_pre_relax_energy=-29.50299444917816 gap_pred_energy=-29.920198024931025 gap_fmax_final=0.0008853296340250536 gap_converged=1 pbc="F F F"
Cd       7.89495610      12.45288234      13.07860559
Cd       9.72184531      11.19184715      17.69875079
Cd      17.05954015      11.04249554      11.81018474
Cd      14.70329088      14.25802825      14.49068585
Cd      10.14894961      11.41267251       8.72262731
Cd      11.20626086      13.81774305      17.84718427
Cd      15.74552577      17.39457884      13.47743229
Cd      11.10423626      11.47476621      13.06354549
Cd      12.96062192      10.55187139       8.41246202
Cd      10.42819996      16.16344181      15.65410289
Cd      10.73490431      16.16078035      10.60134999
Cd      17.57104908      13.73716403      10.54844803
Cd       9.76830205       8.72490008      13.12701312
Cd      11.30643516       9.08231284      10.49914300
Cd      13.30763264      17.27545876      11.69570931
Cd       9.14915845      13.60272787      10.63111602
Cd      11.89587558      14.45164730      13.18274264
Cd       8.44345110      10.42073571      15.17543146
Cd      14.11358864       9.61185278      15.67975652
Cd      14.38493203       9.29914485      10.66473566
Cd      17.66766476      13.40418309      13.58321302
Cd      12.35783729      12.66875785      10.67159323
Cd      12.64322061      16.43529677      17.69589469
Cd      15.70078690       8.78835507      13.26850071
Cd      12.63051244      12.44639682      15.41074939
Cd      11.05735475      14.26930159       8.31927011
Cd      16.01720017      16.73124499      10.34108812
Cd      10.67222464      17.78689123      13.09545162
Cd      14.63802237      14.31729220      11.55331706
Cd      16.74899511      10.98949186      15.01371810
Cd      16.10576022      14.69756965       8.11121769
Cd      16.89420570      13.63284069      16.62280874
Cd      12.62486871      10.97599074      18.13321741
Cd      13.39544032      16.03476535       8.91389321
Cd       8.56080937      10.45847666      10.99907770
Cd      15.42812127      16.35825862      16.64396953
Cd      11.20107220       9.18082988      15.81265944
Cd      13.10506343      17.14048922      14.76199400
Cd      12.74384391       8.53328068      13.11959390
Cd      15.53386784      11.23530716      17.75125958
Cd      18.18928769      16.11165078      12.26488870
Cd      14.21618155      13.87886517      18.13672867
Cd      14.25999609      11.63196366      12.93296158
Cd      13.66544779      13.25525757       7.32971855
Cd      18.00976082      16.06621799      15.21129310
Cd      15.50292139      11.84219114       9.39651177
Cd       9.49790498      13.36063378      15.42127720
Cd       8.94277906      15.30105538      13.08301339
49
Properties=species:S:1:pos:R:3 config_type=qcd gap_pre_relax_energy=-29.817522278494444 gap_pred_energy=-30.357717347169064 gap_fmax_final=0.000802715768207954 gap_converged=1 pbc="F F F"
Cd      14.08645165      11.41376560       7.63260907
Cd      15.86644468       9.75922137       9.42510823
Cd      13.21407265      10.84609783      13.13653389
Cd      14.31302043      10.61080366      16.94875379
Cd      15.75197813      15.39119550      11.06163467
Cd      17.25142411      13.06976202      12.27979349
Cd       8.42461605      12.46166239      16.20423203
Cd      12.96413312       8.93787158       9.05278603
Cd       9.28815325       9.65834843      16.42511298
Cd      11.19253078      12.55694685      14.57179447
Cd      11.43140454      11.61002690      17.40206626
Cd      15.87402821      11.85667781      14.70222358
Cd      13.33185497      16.23424332      15.61382037
Cd       9.82004986       7.76120865      14.08490377
Cd      13.85105163      13.52806105      16.70446051
Cd       9.76870800      13.27523183      11.99652470
Cd      12.08099205       9.07287008      15.74737665
Cd      11.22162424       7.25072591      11.29310854
Cd      10.89773070      14.66687572      16.67472709
Cd       8.32218642      15.19066513      15.11054143
Cd      14.35999693       8.23239956      11.57971962
Cd      12.66197639      14.01624629      12.38458041
Cd      10.27454484      10.36976203      12.68687998
Cd      12.12421876      13.75232115       7.91332989
Cd      14.57954219      12.26079548      10.83492145
Cd      10.95283424      17.43622840      11.30543590
Cd      13.02251698      15.89993626       9.76010428
Cd      13.61032025      16.85560516      12.65416320
Cd      15.09923333      14.15936484       8.38212447
Cd      15.37939138      14.70803225      14.02801408
Cd      11.66246681      11.63040569      10.32908766
Cd      12.78145787       6.95393668      13.79537733
Cd      10.82291321      16.28287872      14.03410602
Cd      15.00080394       8.88399228      14.54660734
Cd      16.67277104      10.10530096      12.31464915
Cd       7.43066826      13.62997736      10.16030749
Cd       6.57712571      11.02581078      11.52061771
Cd       8.32270731       8.51763166      11.37392227
Cd       9.18035416      13.20290101       7.65880412
Cd       6.89759945      13.23253404      13.43981956
Cd       9.76679243      15.59169087       9.31154248
Cd       7.44148380      10.11470983      14.18103954
Cd       8.39526676      15.93163389      12.14363890
Cd       8.54919511      10.85541868       9.35592526
Cd      10.02814955       8.34401686       8.81068223
Cd      11.09751821      10.85509420       7.48075601
Cd      17.07442186      11.91770003       7.55290639
Cd      18.51740968      11.18640841      10.16561088
Cd      18.00391393      14.13505487       9.46726471
49
Properties=species:S:1:pos:R:3 config_type=qcd gap_pre_relax_energy=-30.199715633849628 gap_pred_energy=-30.57945658785554 gap_fmax_final=0.0009705204627278014 gap_converged=1 pbc="F F F"
Cd      16.22491837      13.68043139      17.27388620
Cd      14.67897020      13.98341158      14.79650169
Cd      16.89981498      18.62585028      11.95370311
Cd      18.79468082      21.16251048      16.95839669
Cd      13.98228583      19.55543275      11.66770689
Cd      15.11506687      12.40169605      20.05780838
Cd      11.87796566      12.53243493      15.14328145
Cd      16.24388271      18.28529492      15.66156246
Cd      19.21078923      17.25862937      13.26568128
Cd      15.96162184      21.27181660      16.07506047
Cd      13.51990429      10.09377896      15.70054845
Cd      16.51140060      10.84223882      14.99828664
Cd      14.42814304      16.06792869      16.92325353
Cd      19.14031151      12.62197840      15.00717266
Cd      15.78388576      21.39461994      13.07180393
Cd      17.41365915      16.62996908      17.80159836
Cd      11.87584825      13.12591188      12.20875733
Cd      12.13287035      15.89749872      11.31015015
Cd      16.24277899      15.13927562      20.34833734
Cd      19.90329763      18.33392723      15.94796923
Cd      18.17205708      11.23873048      17.47263230
Cd      18.09869973      12.63212814      20.16602975
Cd      14.80317922      16.90565849      10.57648620
Cd      14.70561514      16.74729985      13.71962849
Cd      13.91015893      19.26519663      17.59898578
Cd      20.74672865      16.54125362      18.17389523
Cd      15.39899748      10.36850715      17.92777116
Cd      19.47659188      13.91991733      17.68287012
Cd      13.31809356      14.84762217      19.77136789
Cd      19.56909755      19.13850071      18.91918984
Cd      17.39400336      15.50973591      15.02858189
Cd      17.03963098      12.91758906      12.91071692
Cd      17.29920321      15.59847118      11.58199921
Cd      19.36824597      15.30763087      20.52985708
Cd      16.54126208      19.97033581      18.83574101
Cd      14.18791613      11.49251281      13.13326601
Cd      11.71629687      17.84449128      16.14648434
Cd      13.44851922      20.16592285      14.76914926
Cd      20.59168313      15.40004166      15.31735493
Cd      18.27075338      20.11135931      14.17279336
Cd      11.88369851      17.40569533      19.10032403
Cd      19.79271639      14.29732319      12.62482915
Cd      17.62897296      17.80277811      20.66686258
Cd      11.59003338      14.93285145      17.27248169
Cd      11.86683217      18.20015722      13.20294779
Cd      13.09792329      12.44258155      17.86162850
Cd      14.70980034      17.67945079      19.98645008
Cd      11.72827876      15.43111285      14.35361257
Cd      14.72370694      14.00130092      11.34538898
50
Properties=species:S:1:pos:R:3 config_type=qcd gap_pre_relax_energy=-30.58443408316177 gap_pred_energy=-31.38122178390606 gap_fmax_final=0.000833432264843153 gap_converged=1 pbc="F F F"
Cd      10.30766818      14.44141914      17.32376157
Cd       9.47480594       9.74360143       6.99508103
Cd      13.19991037      15.76385517      13.05876761
Cd      11.06824461      12.16956810       6.25817537
Cd      10.00500882      11.37050371      17.21147325
Cd      10.49637524      14.90717339      14.30165438
Cd      13.29124261      16.17470352       9.95828663
Cd      11.72549755       9.80783903      12.60915426
Cd      13.97058140      11.89936487       7.04204692
Cd       8.31924820      12.39789070       7.78820700
Cd      10.34442150      10.12808476       9.98200002
Cd      16.39068588      12.45036213      11.24926986
Cd      12.62801383      14.65291532       7.22761906
Cd       7.33007626       9.91648319       9.15055620
Cd      10.81938648       8.45014622      15.90736816
Cd      15.28649093      13.68520209      13.86873931
Cd       8.65858353       7.53947887      10.52112240
Cd      12.92982564      12.97383041      11.90718572
Cd      13.08941507      14.58602497      15.84710027
Cd      10.73423974      16.62938328       8.54987619
Cd      15.75760842      15.41213704      11.48252605
Cd      13.69498950       7.46158118       9.25601928
Cd      10.70304392      15.50178321      11.36968005
Cd       7.31242514       9.72171511      12.12580820
Cd       8.07103010      13.42628239      15.66160018
Cd      13.67182178       8.87653568      15.08171551
Cd      14.89774612      10.63719902      13.03993355
Cd      12.19283753       6.44810042      14.11402868
Cd      11.50468427       6.68522943      11.22884017
Cd      13.29070521      10.66814469       9.99876071
Cd       9.59078788      14.80460437       6.54484232
Cd      12.61357110      12.85565534      18.34951901
Cd       6.80335458      12.52348622      10.58968398
Cd      15.40145555       9.06541600       7.38865920
Cd      15.93566128       9.33849091      10.45165607
Cd       8.91187850      10.44578301      14.57252135
Cd       8.47464644      14.78883144       9.52502958
Cd      10.78659654       7.39670805       8.40626878
Cd      12.46143376       9.35343984       6.93513989
Cd      12.62783640       9.93048169      17.72450166
Cd       9.48267547       7.69153310      13.36829522
Cd       9.82249264      12.26365804      12.04475857
Cd      14.97241969      13.88598940       9.01857758
Cd      14.16490411       7.72459202      12.21001567
Cd       8.02394487      14.56739230      12.60153880
Cd      16.70428819      11.47591163       8.45888956
Cd      11.60452086      12.06705833      14.46920915
Cd       6.48367982      12.16490303      13.55350964
Cd      14.25948376      11.76174286      15.88301788
Cd      11.29757978      12.95760895       9.37783349
50
Properties=species:S:1:pos:R:3 config_type=qcd gap_pre_relax_energy=-30.38728096556267 gap_pred_energy=-31.039749764520113 gap_fmax_final=0.000887998480424876 gap_converged=1 pbc="F F F"
Cd       9.91633073      10.70688976       5.84912223
Cd      11.85661569      13.04978935       6.56712123
Cd      12.74364588      10.24107820       7.34505477
Cd       9.56094640      14.21152923       8.02300570
Cd       7.81732472      11.54868061       8.14934055
Cd      14.90855355      15.09235778      10.18425676
Cd      12.48834182      15.42052651       8.24652014
Cd      11.52358429       8.52920639       9.38653667
Cd       8.58226217       9.05884812       9.89781796
Cd      14.10446584      12.73783554       8.48887405
Cd      10.58566382      11.44851264       9.28195788
Cd      15.23862249       9.91977626       9.12948199
Cd      16.36686070      12.47188591      10.38395303
Cd       7.97785598      13.73126374      10.47939450
Cd       6.49667417      11.06190327      10.81259089
Cd      17.05831032      14.94594532      12.44425929
Cd      10.21061917      16.16487269      10.14169322
Cd      11.88451918      13.67233154      10.85297507
Cd      15.36845139      17.44318929      12.21896690
Cd      13.09688667      10.91556942      11.05715375
Cd      10.46243775       8.10187806      12.08461157
Cd      13.05500272      17.60160810      10.28091833
Cd      13.85848683       7.96567947      11.24467783
Cd      16.56762206       9.66591566      11.80063572
Cd      10.19581085      11.45372443      12.28305451
Cd       7.99118405       9.60518478      13.03393762
Cd      14.64584310      12.38071138      13.10473999
Cd      11.21602669      17.35544449      12.72156923
Cd      17.83030071      12.14876396      12.94131351
Cd      12.53224788       6.89947375      13.80338457
Cd      13.48393300      15.06186273      12.86689412
Cd       7.53241459      12.61439488      13.26347304
Cd      12.70263709      10.12481057      13.91708120
Cd      10.05018125       8.57283529      14.99192023
Cd      15.24178869       8.08353222      13.94502333
Cd      13.47820357      17.54346497      14.65771226
Cd      11.83473368      12.98292015      14.11718518
Cd       9.52451942      14.89099300      12.80865883
Cd       8.93955059      11.23563104      15.69328561
Cd      16.31325396      16.53657672      14.98535314
Cd      16.47584787      10.58247101      15.04477756
Cd      16.45377755      13.62591858      15.33500141
Cd      10.95621244      16.10137002      15.54610886
Cd      12.18720507       7.29146369      16.77766468
Cd      14.05442079      12.14349415      16.44832157
Cd       8.65995346      14.19728929      15.60210008
Cd      13.78969177      15.10111176      16.38643823
Cd      14.47800155       9.19962850      16.66470947
Cd      11.61678877      10.35337277      16.87811616
Cd      11.20227119      13.32336697      16.94813949
51
Properties=species:S:1:pos:R:3 config_type=qcd gap_pre_relax_energy=-31.052950942680013 gap_pred_energy=-31.83096108423581 gap_fmax_final=0.0009923552228126833 gap_converged=1 pbc="F F F"
Cd      11.47519112      16.39738526       8.60909206
Cd      14.37334660      17.37997968       8.59754197
Cd      13.82575176      14.57814531       7.80470335
Cd      13.57759243      12.12525868      11.58875965
Cd      15.76419856       8.43218178      12.45587176
Cd      14.98806457      16.08522118      13.96991288
Cd      16.56661017      14.49818302      11.86595552
Cd      10.79905574       8.61158440      14.88881982
Cd      15.67221647      17.31627561      11.32628149
Cd      11.09026959      13.41737208       7.52977685
Cd      11.37588748       6.70784177      12.60876532
Cd      12.77930387      11.11702012      14.26544318
Cd      13.71211810       7.63053682      14.61981291
Cd      16.61269502      11.37260694      12.12903798
Cd      15.08480055      11.87007805      17.27458045
Cd      10.09816813       7.50492846       9.51243443
Cd      15.65636322      10.03203571      14.95174660
Cd      10.17322587      11.98535691      13.18242130
Cd      12.67703198       9.27563185      11.86159437
Cd      10.56162621      10.14450315       7.63895915
Cd      13.07729395       9.63471438      16.82184650
Cd      10.18968950      10.48050569      17.17459683
Cd      13.30890520      11.51118412       8.22164716
Cd      12.56758508      14.00389780      13.78855963
Cd      10.87865229      11.09724822      10.41652990
Cd      10.09072201      16.96851954      11.28864836
Cd      13.55035051      15.05394615      11.02333105
Cd      11.37619104      15.37951171      16.15651760
Cd      12.16005600      17.10317708      13.70703398
Cd      14.26521180      14.61496247      16.46017981
Cd      12.76092172      18.15358900      11.02612578
Cd      15.87871547      13.08625512      14.43680908
Cd      10.83041598      13.94914937      11.02276516
Cd      12.91751073       8.52777016       8.63408001
Cd      12.12964010      12.69915713      17.47449725
Cd      15.32775478       9.91919685       9.82165016
Cd      15.60792418      12.98236614       9.54075695
Cd       7.32449675      13.22742144      13.52715231
Cd       6.86482382      10.52489756      12.29439123
Cd       8.19502171       9.83108408       9.61195475
Cd       7.50008772      15.50680569      11.59494828
Cd       8.25546785      10.37456991      14.92993689
Cd       9.53484915      15.34520902      13.78023417
Cd       9.30484316       8.82873773      12.29508588
Cd       9.33386658      13.15190816      15.90769765
Cd       7.45114981      12.74630442      10.43390389
Cd       8.35271764      12.19531214       7.60488503
Cd       8.85878186      14.96148967       8.90272140
Cd      15.29893539       6.92395996       9.84379729
Cd      12.47600270       5.83580996       9.95862292
Cd      14.27954412       5.71085853      12.42922801
51
Properties=species:S:1:pos:R:3 config_type=qcd gap_pre_relax_energy=-31.67987172050846 gap_pred_energy=-32.107941834806184 gap_fmax_final=0.0009624014463014815 gap_converged=1 pbc="F F F"
Cd      14.29382762      16.58758019      12.36839416
Cd      15.65142111       7.98892650      12.77029558
Cd      11.70476106      14.68243031      11.78130454
Cd      10.18545653      12.29231320      12.78106007
Cd      12.38283460       9.25805996      16.57684306
Cd      11.23704468      14.03379791      15.11700345
Cd      11.52677105       9.74177439      13.58114367
Cd      10.26906101       9.91701251      10.79084127
Cd       8.38240239       8.08687257      12.93870553
Cd      13.28577181      12.30492951      12.88196809
Cd      14.77458496       9.97342263      14.83770553
Cd       9.29331680      11.27942249       7.21195672
Cd      10.21913840       6.67702854      10.75197796
Cd      12.54928471       7.65484368       9.03887543
Cd      13.48138243       7.23277233      14.69175401
Cd      13.26559829      12.15880418      16.17328131
Cd       8.40595792      12.29351112      10.00002904
Cd      13.99815864      12.48341685       7.79037334
Cd      13.09727308       6.57276233      11.77686811
Cd      17.09983104       9.27002974      10.45552879
Cd       9.59311498       8.54956612      15.69417228
Cd      16.82200172      10.99222359      12.89211562
Cd      12.20953070      18.76905698      11.73225828
Cd      14.19832703      14.96659282      14.91310985
Cd       8.79628270      15.12452572      11.12906759
Cd      15.83062769      13.96892938      12.55230797
Cd       9.43737468      17.90432161      12.31889400
Cd      16.09366903      12.69584585      15.24988550
Cd       7.31743786      13.13209965      12.85260348
Cd      10.31610261      11.39503469      16.44602500
Cd       7.77557988      10.60675050      14.52686688
Cd      11.79512251      12.36408051       9.91054326
Cd      11.50367689      12.93504781       6.20579979
Cd      11.78446411      16.74351985      14.04424143
Cd       9.82626876      14.29145899       8.34678147
Cd       6.94048202      10.28857032      11.61982447
Cd      14.87079655       9.54588211       8.36646367
Cd      10.78221469       6.56541297      13.72429724
Cd       8.24302670      13.31245748      15.72351521
Cd      12.55020117      15.32766986       7.61608025
Cd       9.70783471       8.38756515       8.22391386
Cd      15.44591432       6.86850743       9.83007761
Cd      13.57364641      17.43264970       9.45535366
Cd      14.23792083      14.54779235      10.05779465
Cd      10.57263816      17.02427362       9.54647531
Cd      12.07234523      10.17055395       7.47649320
Cd       7.05284037       9.92731855       8.55904489
Cd       7.38061162       7.48334345      10.15809704
Cd      13.28617852       9.83977724      11.19388884
Cd      15.41178796      11.81733073      10.35729741
Cd       8.68469647      15.74872512      14.17739561
52
Properties=species:S:1:pos:R:3 config_type=qcd gap_pre_relax_energy=-32.07547860335924 gap_pred_energy=-32.67819635682738 gap_fmax_final=0.0009946532518245459 gap_converged=1 pbc="F F F"
Cd      18.19764775      11.26297419      20.45425814
Cd      19.10066067      18.17348160      13.35149767
Cd      16.46710760      20.36356290      17.80086079
Cd      17.26414123      14.32399077      14.96254682
Cd      14.32876155      19.98557095      19.96249537
Cd      15.25120676      21.22784872      15.07841338
Cd      12.38152038      19.78521259      15.28912459
Cd      13.53467887      21.48028548      17.53147973
Cd      15.15601980      11.00575108      13.12606252
Cd      14.68929058      14.08594974      13.45458504
Cd      18.08989578      11.42580576      17.42381057
Cd      17.31889915      12.57326863      11.68981261
Cd      13.10185763      15.02496167      10.81282872
Cd      15.32896000      11.54386266      16.18378771
Cd      12.01815639      18.88312338      18.39551232
Cd      17.81847369      11.24294295      14.49412267
Cd      15.56347559      12.01089350      19.19410520
Cd      12.00239592      15.70327357      18.46045295
Cd      14.88451655      18.21519457      15.77257137
Cd      17.19228563      17.88892116      10.93540389
Cd      16.08739086      16.72972126      13.55354345
Cd      20.81273294      18.50113489      15.80828741
Cd      11.39849767      13.83472657      12.81355306
Cd      15.18856997      17.13672145      18.43026901
Cd      12.67226358      16.78789042      13.56169199
Cd      11.27139681      14.39674969      15.66377013
Cd      14.62964606      12.49736196      10.45220650
Cd      11.15517026      17.25765960      16.09325728
Cd      16.87618567      20.15497591      12.82154483
Cd      18.29665038      16.32110643      19.74499773
Cd      20.07845375      13.30934753      16.28046042
Cd      14.26341280      15.25772769      16.15381877
Cd      15.88261431      16.45836925      21.69137613
Cd      17.59872001      17.01534906      16.28137451
Cd      20.40258649      15.80700130      14.60554080
Cd      17.03656585      18.91787796      20.39386430
Cd      18.27020348      20.14045234      15.49670366
Cd      13.87849637      19.75493311      12.72336933
Cd      13.17751556      17.30595141      20.72476355
Cd      20.43071824      16.10090923      17.61801274
Cd      14.18806986      14.47811741      20.07899061
Cd      14.25450406      17.65945298      10.81923907
Cd      13.07490130      12.92710890      17.69061655
Cd      16.70378256      14.51188895      17.86529857
Cd      19.11484820      18.89815281      18.23887190
Cd      16.13645165      15.09490957      10.31839789
Cd      12.74218626      11.94992853      14.81332803
Cd      17.09166380      13.82781171      21.47039078
Cd      18.74004284      15.51029575      11.80558357
Cd      12.31899855      11.05884281      11.83007076
Cd      19.47528889      13.65980860      19.15559964
Cd      19.72994221      13.19926170      13.29589767
52
Properties=species:S:1:pos:R:3 config_type=qcd gap_pre_relax_energy=-31.69097718926698 gap_pred_energy=-32.56554933882787 gap_fmax_final=0.0008579977512283288 gap_converged=1 pbc="F F F"
Cd       9.87778912       5.90365805      10.48502467
Cd      14.72266899       7.49293742      11.77934781
Cd      12.70140585       5.30047464      11.62271671
Cd      12.10734062       7.84266686       9.84378405
Cd      10.45767078      11.18557484      11.22103494
Cd       7.61050398      13.53635383       9.71943665
Cd      10.09881897       7.96702502      15.03668293
Cd       8.63348001       7.92112580      12.33326840
Cd      11.24551598      17.11793034      12.60890441
Cd      10.15788582       5.28215272      13.48056123
Cd      14.28630876       9.72779954       9.34430132
Cd      10.79615408      16.75351482       9.62640920
Cd      11.06937471      14.10586722      12.52921134
Cd       8.29305509      16.21720223      11.52127263
Cd       7.60619858      10.59312811      10.95502703
Cd       8.22407755      12.85045142      15.52718517
Cd      12.81303802      15.15392440       7.93934571
Cd       8.06553812      13.11182786      12.60052873
Cd      13.71547287      13.35243976      13.47206123
Cd      10.64956330      13.68313722       9.64846797
Cd      13.88395880      12.35180428       7.50997884
Cd       9.08630400      15.51628531      14.35440926
Cd      11.75743122      16.48433657      15.49305762
Cd      11.56456317      10.49489774       8.35835982
Cd      11.49707269      11.48960071      14.08006810
Cd      13.30241973      12.56749610      10.59042471
Cd      15.20950602       8.57494334      14.73311658
Cd      11.65046706       8.92798532      12.59334012
Cd      12.76058050      11.81780820      17.57702288
Cd      12.70326039       9.13646686      16.23498345
Cd      10.06806231      10.67471860      16.54859494
Cd      12.88247540       6.68767250      14.34890128
Cd       8.16944918      10.23584328      14.09978167
Cd      14.16301199      10.52928837      12.59105706
Cd      11.03669133      13.00022217       6.69271788
Cd      10.90846551      13.79676824      16.32629135
Cd       8.64297180      11.26339965       7.98597941
Cd       9.18289079       8.62414905       9.30458209
Cd      16.50977593      13.78944402      14.47262009
Cd      16.42860283      15.68442513      12.03722115
Cd      15.39355097      14.33462137       9.40624947
Cd      17.05576070      10.81839493      13.79324761
Cd      14.21073952      16.40617189      13.87854162
Cd      15.27603882      11.35678639      16.12221703
Cd      13.53296561      16.17560493      10.84174290
Cd      13.95349583      14.33134024      16.35033786
Cd      17.00880431      12.78330181      11.51372743
Cd      16.54213245      11.61420895       8.73057920
Cd      16.74369601       9.69998343      11.01639630
Cd       8.07798816      13.90006095       6.65768365
Cd      10.25951965      16.08771676       6.48739988
Cd       7.99280303      16.33237774       8.56211354
53
Properties=species:S:1:pos:R:3 config_type=qcd gap_pre_relax_energy=-32.750412100606965 gap_pred_energy=-33.24219630113741 gap_fmax_final=0.0007712534553068586 gap_converged=1 pbc="F F F"
Cd      11.50394779      15.84540487       8.18930309
Cd      13.64203874      10.49219952       7.27446104
Cd      12.22096629      13.26241881       7.02565004
Cd      10.71335569      10.88663308       8.19486576
Cd      17.01468815      10.71597462       7.70160688
Cd       9.40372563      13.69418825       8.44593724
Cd      15.14863783      13.10575182       7.38725406
Cd       9.43542932      16.07486282      10.37733361
Cd      14.01568215      14.80262637       9.58166197
Cd       7.85604358      11.34418946       9.40588351
Cd      16.70823178      13.01571514       9.97897223
Cd       9.46882451       8.70926536       9.81896121
Cd      15.36161328       8.38871692       8.77148599
Cd      12.40668328       8.57513359       9.30320928
Cd       9.51267238      10.95461443      11.91383000
Cd      13.96254765      11.48873274      10.14375382
Cd       6.32225758       8.78430571      10.49647552
Cd      11.43039102      12.93912118      10.52866382
Cd      16.38229264      15.13137945      12.00336528
Cd       7.85739626      13.80571427      11.30687783
Cd      11.85473451      17.92475830      10.18872381
Cd      16.72134558      10.11201361      10.85336704
Cd       8.42340584       7.66105765      12.48271598
Cd      14.57633408      17.27244706      11.15755745
Cd      10.87089444      13.03787767      13.51743387
Cd       9.91593535      18.10823306      12.56879899
Cd      17.09225478      12.32201511      12.97882189
Cd       6.41452694      11.37528318      12.21478235
Cd      15.25431129       9.98995930      13.45466256
Cd       7.86460953       9.93428070      14.39422367
Cd      11.39675567       7.32713819      11.89824792
Cd      12.31393722      10.19248056      12.18246751
Cd      14.44882408       7.77737688      11.49785433
Cd      14.10353991      13.10295289      12.65714679
Cd      12.12573899      15.30898261      12.13903480
Cd      16.19101733      14.36596953      14.98908702
Cd      12.76579581      18.84851675      13.01147906
Cd      14.51559623      16.61513092      14.07512541
Cd      16.67147869      11.29831314      15.94176697
Cd      11.34985055      16.67957564      14.81748681
Cd      12.97929306      11.42409432      14.80214270
Cd       8.72941929      15.61759999      13.56810660
Cd       7.79006538      12.95621716      14.46197413
Cd      13.37052712       7.47614073      14.25943097
Cd      15.29107115       8.52034390      16.21155298
Cd      10.52967963       8.53834939      14.53073027
Cd      13.15018084      14.45638427      15.58945142
Cd      15.12382754      13.35124944      17.57684062
Cd      10.08849315      14.22231076      16.13242330
Cd      14.66458909      10.51234816      18.34820811
Cd      12.30509239       9.28551423      16.79399232
Cd       9.66780076      11.19098331      16.38757538
Cd      12.20612267      12.31162757      17.60170916
53
Properties=species:S:1:pos:R:3 config_type=qcd gap_pre_relax_energy=-32.792084163663205 gap_pred_energy=-33.310622596318055 gap_fmax_final=0.000903969370123176 gap_converged=1 pbc="F F F"
Cd      11.62249680       8.82903984       5.38024397
Cd      11.62385560       8.51058422      17.79474907
Cd      13.80058709       8.21864418       7.49854764
Cd      14.12820411       8.04072417      16.21675632
Cd      13.19645045      11.18112491       6.68896100
Cd      13.19271680      11.02578222      16.84395943
Cd      10.20794321      11.28376324       6.87931881
Cd      10.22667351      11.18680370      16.73487297
Cd       9.58468721       8.27695809       7.58211701
Cd       9.13504245       8.19353175      16.18955315
Cd      11.70977332       7.02860477       9.21527420
Cd      15.26023199      10.31030734       8.98868589
Cd      15.19687915      10.31096679      14.60970164
Cd      14.26734702      13.25504877       8.50547116
Cd      14.26819837      13.21915286      15.09425611
Cd      11.60434146      13.98831722       7.24258021
Cd      11.62539826      13.88337978      16.30216304
Cd       8.79873980      13.45192102       8.36846049
Cd       8.81047751      13.47293506      15.27784433
Cd       8.27398026      10.50754478       9.04515915
Cd       8.58592566      10.50627678      14.34150689
Cd      14.55244538       7.67332052      10.38935201
Cd      14.59099085       7.54176660      13.33022045
Cd       8.91744954       7.66684713      10.42508263
Cd       8.79232132       7.48681017      13.33959716
Cd      11.77872014       7.74968576      12.04576359
Cd      11.63651109       7.04502954      14.89023627
Cd      16.58279745      12.60827449      10.31048006
Cd      16.56588991      12.61274270      13.26237161
Cd      15.94523154      15.61583044       9.30059551
Cd      15.95210637      15.58620756      14.28302618
Cd      13.08942827      16.23492152       8.85298102
Cd      13.11173094      16.20810501      14.72926490
Cd      10.15468609      16.06746376       9.02805321
Cd      10.20089993      16.04366763      14.47030045
Cd       7.37723976      15.38535625      10.22654138
Cd       7.46633314      15.35657974      13.31292143
Cd       6.47402405      12.50840722      10.30729377
Cd       6.62183445      12.48488617      13.27423875
Cd      16.25252289       9.79293264      11.81660097
Cd       7.17250439       9.78177743      11.75776563
Cd      17.53801923      15.22805822      11.78692404
Cd      14.59926803      16.66176718      11.79717293
Cd      11.79680007      15.70986586      11.77226557
Cd       9.21779624      17.20669911      11.72920491
Cd      11.83798459      10.24558447      14.25096028
Cd      14.00501853      13.47205944      11.80170814
Cd       9.16082198      13.24566629      11.67226987
Cd      11.89252924      10.17035713       9.25445854
Cd      11.62772485      12.98096853      10.07085152
Cd      13.40696540      10.63800702      11.78670233
Cd      10.23356275      10.49177048      11.70365608
Cd      11.52731303      13.01659397      13.42037787
54
Properties=species:S:1:pos:R:3 config_type=qcd gap_pre_relax_energy=-32.90924856380191 gap_pred_energy=-33.87165656498048 gap_fmax_final=0.0009057303404844782 gap_converged=1 pbc="F F F"
Cd       5.61382457      11.40871276      12.53541550
Cd       9.17846896       7.58378399      12.99636417
Cd       6.43474701       8.64026053      13.67397407
Cd       7.80898155       9.87299300      11.14594144
Cd      10.80326836      13.27417772      11.82163789
Cd      10.89578387      16.66771765       9.57963114
Cd       8.93519110      12.27387553      16.13149970
Cd       7.51318311      13.45925181      13.71599416
Cd      16.48904980      15.30704084      11.20216768
Cd       6.19925161      11.12401858      15.51650558
Cd      10.45545991       8.87805053      10.29275646
Cd      15.12708859      15.07624119       8.42364737
Cd      13.81843592      13.92329307      11.87824406
Cd      13.91555515      17.04732863      10.38403837
Cd       8.86562103      15.48149553      11.66747471
Cd      12.47662427      16.19734630      15.39452663
Cd      14.20746847      12.40375956       7.31250779
Cd      11.65874004      16.46307017      12.44960017
Cd      14.76830630      11.23493844      13.19527653
Cd      12.34048803      13.99776212       9.37143743
Cd      12.13751650      10.25600201       7.86522672
Cd      14.57714084      16.69500343      13.23245247
Cd      17.23412913      15.28928438      14.14869796
Cd       9.83561399      11.66321652       9.41209596
Cd      12.13101072      12.37157381      14.34830156
Cd      13.01677161      11.23194632      10.63644293
Cd      11.35852987       7.83450364      15.25504184
Cd       9.56272623      11.01528808      13.23973326
Cd      14.23655124      11.94440888      17.40480926
Cd      11.42638225      10.60209032      16.75621827
Cd      11.43482706      13.63549459      17.03012353
Cd       8.77231810       9.27334976      15.63051208
Cd       9.94303100      14.89090252      14.62914621
Cd      12.20518636       9.71633268      12.96988189
Cd      11.16703042      12.88353799       6.83027400
Cd      14.57494270      14.00418503      14.73929230
Cd       8.95117928      14.50684624       8.66490733
Cd       7.33793018      13.03832843      10.68048471
Cd      16.34526439       8.67302975      14.01073651
Cd      16.87466517      10.13117468      11.32052509
Cd      15.03652074       9.92092985       8.90647224
Cd      14.00155811       6.87236615      14.17015382
Cd      17.51226566      12.66394514      12.80634563
Cd      14.02909923       9.43808927      15.88079096
Cd      16.01783914      12.63540295       9.91119655
Cd      16.80389677      11.14913686      15.62569083
Cd      14.94937656       7.82212300      11.40168779
Cd      12.96731122       7.69362372       9.21236447
Cd      11.94688492       6.86006604      11.96779247
Cd      10.60759464      15.88230464       6.60311292
Cd      13.35168577      14.83279463       5.74226447
Cd      13.15952890      17.25308172       7.54406637
Cd      14.02174403      14.94249740      17.69562218
Cd      16.77061926      13.86623124      16.84310422
54
Properties=species:S:1:pos:R:3 config_type=qcd gap_pre_relax_energy=-33.70472592048152 gap_pred_energy=-34.288414864921904 gap_fmax_final=0.0008374329681136227 gap_converged=1 pbc="F F F"
Cd      13.30054241      13.33054450       8.44469260
Cd      10.43414656       9.35755636      10.53963006
Cd      17.30675367      15.94998044      14.89059737
Cd      12.31172918      17.89361097      17.18022646
Cd      16.83265601       8.77702357      15.84550484
Cd      13.15588974      19.11652397      14.46151666
Cd      10.67138168      11.85336127       8.90486764
Cd      18.54860569      13.33448949      13.93290762
Cd      17.55968162      12.59394780      11.16566941
Cd      18.25997906      13.75559429      17.09049915
Cd      12.15491236      16.15277719      13.53768576
Cd      17.28352411      10.49175362      13.25775257
Cd      10.22486554      18.88260875      15.37880511
Cd      14.07744904      10.53825539      14.30209603
Cd      12.92402308       7.59404853      14.76057396
Cd      15.72592390      18.00381262      13.36044795
Cd      13.36917508      16.16681171       9.40958810
Cd      14.09512758       9.17052679      17.04104982
Cd      17.11540066      16.31241472      17.86503366
Cd      15.67021748      13.00900397      14.74665585
Cd      12.32534437      14.88245810      17.94167659
Cd      10.28324302      15.86637061      16.01233317
Cd      10.62525716      17.31678235      10.48344548
Cd       9.14206268      16.92759872      13.29303467
Cd       9.27329224      13.92868204      13.88564856
Cd      13.01079040       8.01377816      11.66019739
Cd      12.06664256      14.03038492      11.46290228
Cd      13.17710147      12.03537309      17.33859508
Cd      14.76779108      15.08951701      12.49788833
Cd       8.95605832      12.00517638      11.40598702
Cd       9.26239384      10.97672758      14.28283098
Cd      10.34917377      12.79754078      16.52889955
Cd      15.24273205      13.99162535      18.41180130
Cd      11.80754397      11.21811943      12.51563084
Cd      10.69288319      19.46856136      12.52372302
Cd      14.55124283      12.25278383      11.80069781
Cd      15.91105305      17.30501181      10.45536772
Cd      12.45757108      13.27378598      14.54320359
Cd      10.68626391      14.81624814       8.80855449
Cd      11.29197059       9.87079681      16.12262752
Cd      17.78333679      15.50453502      11.95566907
Cd      16.17685988      14.58264228       9.36884035
Cd      18.68111764      11.08343035      15.90538841
Cd      13.31908113      18.35257398      11.48463957
Cd      14.44125602      16.92344168      19.01958453
Cd      15.34562660      18.19626026      16.31043211
Cd      16.14400706      11.33330618      17.53304444
Cd      15.68596364      11.71128262       8.91134411
Cd      15.66930044       9.50356164      10.92314249
Cd      10.45621982       8.39119339      13.37877495
Cd      14.19747332      15.44572663      15.59571299
Cd      15.53897758       7.86598870      13.35413316
Cd      13.13816114      10.11987047       9.36428618
Cd       8.81379815      14.92779367      11.09773691
55
Properties=species:S:1:pos:R:3 config_type=qcd gap_pre_relax_energy=-33.5994930994186 gap_pred_energy=-34.58782506497116 gap_fmax_final=0.00094679226230758 gap_converged=1 pbc="F F F"
Cd      11.68692569      15.45553627      15.95306116
Cd      14.66253713      11.67343751      17.55151821
Cd      14.09212583      14.69942220      17.66683966
Cd       9.54663222      16.95498773      11.36693491
Cd      11.82478997      12.80363720      17.45293697
Cd      14.15269048      17.09786284      15.14425205
Cd      11.73374137      14.02992747      12.99039693
Cd      14.43093752       9.01941520      16.31074791
Cd      13.59691853       8.23451138      13.61165151
Cd       8.94004267       9.17102632      11.64461383
Cd      16.70527810      13.34575583      16.32398106
Cd      17.33510676      11.18795969      11.37606247
Cd       9.96901892      16.55258205       8.38080728
Cd      11.63328150      12.93465873      10.27659221
Cd       5.69402816      14.28845831      11.41622526
Cd       9.85238362      11.76168064      13.32161272
Cd       7.33117240      11.15583847      14.97632026
Cd      12.19438790      16.05362903      10.33632310
Cd       8.96665115      13.98297578      11.23059599
Cd      11.93211991      14.48553148       7.55001366
Cd      10.82515732       7.21254645      12.96043840
Cd      15.78083926      10.73488471      14.33172213
Cd      11.93277646      17.15467199      13.23946743
Cd      14.37508519      12.42636091      12.06258379
Cd      16.45130228      12.31319607       8.63586293
Cd       9.83980093      10.52624711      16.56115961
Cd      11.91230794      10.30309052      11.87720305
Cd       9.32527294      15.73921799      14.05743552
Cd      13.77435248      10.90448821       9.62010648
Cd      11.51088414       8.14926743      15.80705526
Cd       7.29322480      15.84597486       9.49504576
Cd      16.44709910      16.35795849      16.93610754
Cd      13.94333211      12.40311396       6.89170471
Cd      16.74153485      14.17555180      11.19420802
Cd      17.31631191       9.40391518       9.04962992
Cd      17.82304678      12.86119057      13.69349035
Cd      15.42775786       8.95184249      11.48207189
Cd      15.82972431       9.96492455       6.52627390
Cd       6.99896297      13.96719760      14.04905373
Cd      12.85254055       9.51168346       7.00178661
Cd      10.83856920       9.18824226       9.18950733
Cd      12.46220776      11.19301304      14.66519754
Cd      16.74960838      15.60310965      14.03145622
Cd      14.43438749      14.38676902       9.29130419
Cd       8.67948717       8.54569151      14.58845115
Cd       7.08283790      11.60429903      11.99328275
Cd       8.85932866      13.78244378       7.88787641
Cd       8.82612487      11.35015051       9.57868098
Cd      14.45746325      15.81659949      12.20408576
Cd       9.37173883      13.42106358      15.93372630
Cd      14.75149814       7.84572607       8.61422812
Cd      10.87844872      11.67028806       7.31911326
Cd      12.73889672       7.45307222      10.69508575
Cd      12.29626750       9.93339245      18.15072547
Cd      14.10871138      13.62764084      14.72104458
55
Properties=species:S:1:pos:R:3 config_type=qcd gap_pre_relax_energy=-33.66274970169864 gap_pred_energy=-34.88934623326006 gap_fmax_final=0.0009940258241672205 gap_converged=1 pbc="F F F"
Cd      13.79319245       7.22122341       8.79427565
Cd      10.94162453       7.08527473       9.80619157
Cd       8.91646370       8.72829785       8.25123687
Cd       8.11404393       7.61888034      10.91555625
Cd      10.40836282       7.17888627      12.81162767
Cd      18.00764512      12.14984543      13.24553748
Cd      16.54657597      13.43668545      15.47768311
Cd      15.80359718      12.80621498       8.32623921
Cd      14.12189414      17.44885871       9.78357778
Cd      17.57726201      13.83269724      10.79692278
Cd      13.63236613      15.00692715       7.88564828
Cd      15.90077042      16.08045007      11.79470693
Cd      11.54552140      17.19287591       8.22792299
Cd      16.67289153      11.00563458      10.63896264
Cd      12.81841842      12.13349561       7.67583826
Cd      11.49738171      18.61318689      10.86464482
Cd      12.81852750      14.77831597      11.10162268
Cd      14.95823723       9.93460663       8.27573413
Cd      13.59105582      17.67611206      12.81474893
Cd      10.83226073      14.30483930       8.87800343
Cd      15.11899482      13.21983702      12.79293791
Cd      11.87475560       9.30857111       7.84961654
Cd      15.42811736      16.07485244      14.70241481
Cd      17.15217685       9.30765586      13.22850252
Cd       9.24422178      16.54783715      10.18798913
Cd      13.57106642      11.99207680      10.56709113
Cd      10.78992123      16.42194181      12.84656828
Cd       9.98047276      11.49325044       8.89707160
Cd      14.17736346      10.05319056      12.76883941
Cd       8.10946175      13.60982860      10.08979210
Cd      12.42952921      13.90055635      13.91529970
Cd      13.22346162       7.20844475      11.79093314
Cd      11.46865332      10.01294294      11.07295025
Cd      12.56033034      16.53681064      15.42737495
Cd      10.34455489      12.86458683      11.97294659
Cd      14.04962846      11.79436199      15.62315615
Cd      14.35245951      14.52177417      17.20350031
Cd       8.09714408      15.18033325      12.68408945
Cd      15.21832510       9.04391263      15.45664786
Cd      11.56781951      10.92819952      13.91971219
Cd       7.32626513      10.57014097      10.17944426
Cd       9.51363613      15.86958584      15.55012922
Cd      12.83474614       7.45391823      14.69454313
Cd       8.83579987       9.86111225      12.80505856
Cd      11.39888283      15.07877212      17.78121812
Cd       7.15553418      12.30948171      12.67806974
Cd      10.34731589      12.90131412      15.80252262
Cd      12.79234708       9.33891071      17.19420908
Cd      12.37568671      12.28472521      18.07045009
Cd      10.17594279       8.66855293      15.40438448
Cd       7.99619785      10.90329386      15.52186591
Cd      10.01127125      10.50213485      17.76572679
Cd       7.41234083      13.79972850      15.28625878
Cd      16.38751364      15.71764575       8.79853478
Cd      15.84786588       8.15430644      10.77136594
