3
Properties=species:S:1:pos:R:3 config_type=qcd gap_pre_relax_energy=-5.684867546242973 gap_pred_energy=-5.790725073827669 gap_fmax_final=0.0006881672227578499 gap_converged=1 pbc="F F F"
Cs      15.36998886      11.54238944      12.64665004
Cs      11.88912641      14.84421209      10.78782319
Cs      10.51213552      11.38464927      14.33677755
4
Properties=species:S:1:pos:R:3 config_type=qcd gap_pre_relax_energy=-7.733683308211317 gap_pred_energy=-7.938728455570105 gap_fmax_final=0.0009554414563024086 gap_converged=1 pbc="F F F"
Cs      13.73127499      10.66661804      10.45868472
Cs      11.47213759       8.19048569      14.38754541
Cs      10.00807549      13.01259531      13.26060945
Cs      11.99787946      15.33966849       9.10252795
5
Properties=species:S:1:pos:R:3 config_type=qcd gap_pre_relax_energy=-10.007083914212316 gap_pred_energy=-10.056678629303448 gap_fmax_final=0.0007999317852367792 gap_converged=1 pbc="F F F"
Cs      14.86308576      16.61971072      11.24745717
Cs      14.30079237      11.97488173       9.04505425
Cs      11.53227403      13.20305800      13.34984666
Cs      10.97977193       8.51369561      11.02063301
Cs       8.26140682       9.62598484      15.27433980
6
Properties=species:S:1:pos:R:3 config_type=qcd gap_pre_relax_energy=-12.414891709561795 gap_pred_energy=-12.424874348024668 gap_fmax_final=0.0007938167977829874 gap_converged=1 pbc="F F F"
Cs      18.75906943      15.82390884      16.19174608
Cs      14.65490279      18.96105150      16.01564510
Cs      10.53428679      16.13262170      14.70081528
Cs      12.09399317      11.24424264      14.07439904
Cs      17.17745100      11.05381535      14.98829383
Cs      15.16548650      15.16954962      12.41429035
7
Properties=species:S:1:pos:R:3 config_type=qcd gap_pre_relax_energy=-15.194473868977685 gap_pred_energy=-15.204831232504095 gap_fmax_final=0.0008230785671456799 gap_converged=1 pbc="F F F"
Cs      10.58626896       9.09735541       9.40084972
Cs      15.18057615       8.92266640      11.87261380
Cs      13.43412548      13.54616441       9.94055412
Cs      10.92256481      10.80893508      14.41543490
Cs      15.62415255      13.24607221      14.76656999
Cs      11.30448192      16.09336452      14.08037131
Cs       8.19138637      13.52899822      10.76716240
8
Properties=species:S:1:pos:R:3 config_type=qcd gap_pre_relax_energy=-17.509935094085563 gap_pred_energy=-17.582392601947035 gap_fmax_final=0.000867789740194132 gap_converged=1 pbc="F F F"
Cs      12.69721204      14.58233314       8.00140860
Cs      15.52876264      11.45109295      11.16896428
Cs      13.17274054      15.70962010      13.09635841
Cs      15.15155867      12.02838537      16.35162493
Cs      10.54892603      10.27113185      10.06789563
Cs       8.41489911      14.96097748      11.03064979
Cs      13.09865350       7.77649453      13.98278560
Cs      10.09889513      11.93161225      15.01196041
9
Properties=species:S:1:pos:R:3 config_type=qcd gap_pre_relax_energy=-19.775418426709408 gap_pred_energy=-19.815036523957183 gap_fmax_final=0.000800790872155434 gap_converged=1 pbc="F F F"
Cs      12.65593179      12.61426077       8.12130862
Cs      15.31663648      15.19204661      11.93086316
Cs      15.13106414       9.96476221      11.87535874
Cs       7.43635878      12.46298326       8.34985062
Cs      10.18375542      14.28966274      12.49954143
Cs      17.02917800      12.48586092      16.09109970
Cs      10.00429955       9.10195410      11.41860962
Cs      13.11983727      15.94748675      16.62913794
Cs      12.03906177      10.85710585      16.00035337
10
Properties=species:S:1:pos:R:3 config_type=qcd gap_pre_relax_energy=-22.07878401803113 gap_pred_energy=-22.225808805822574 gap_fmax_final=0.000961065237426456 gap_converged=1 pbc="F F F"
Cs      19.23048057      14.09025742      15.20102963
Cs      15.52545664      12.73468000      11.67264204
Cs      15.40293381      10.83377545      16.66504225
Cs      15.59650862      17.60826481      13.85074335
Cs      15.64464271      15.64968055      18.70486476
Cs      11.56604057       9.54398459      13.29829024
Cs      11.63057719      14.42138614      15.48300077
Cs      11.74704704      16.32418492      10.49584236
Cs      11.50962583      11.51234340       8.44717922
Cs       7.92452119      13.05927686      11.95919953
10
Properties=species:S:1:pos:R:3 config_type=qcd gap_pre_relax_energy=-21.960556113942786 gap_pred_energy=-22.07900378505333 gap_fmax_final=0.0009298955904546162 gap_converged=1 pbc="F F F"
Cs      15.13583792      13.03844457      11.36235970
Cs      14.98785259      18.54792459      11.96787234
Cs      11.57378932      15.26625021      14.34958399
Cs      18.93441289      15.78568403      13.81172549
Cs      11.98752268      10.18341368      15.07222646
Cs      18.77340954      20.58301494      15.67617698
Cs      16.75338821      11.78810275      16.18816432
Cs      14.23290825      18.65215960      17.15289032
Cs      13.11580138      13.89405506      19.16960836
Cs      18.26000784      16.01588120      19.00432266
11
Properties=species:S:1:pos:R:3 config_type=qcd gap_pre_relax_energy=-24.54645405349647 gap_pred_energy=-24.637711065332304 gap_fmax_final=0.0009294780553292962 gap_converged=1 pbc="F F F"
Cs      13.34378275      12.98254049      10.86241505
Cs      20.90218670      14.00629793      16.09386629
Cs      13.02121721      16.32073613      18.69304288
Cs      10.61123886      16.36648532      13.97974795
Cs      16.81433992      12.63763170      18.97360009
Cs      13.75365840      18.30162288      10.34188094
Cs      18.03675232      17.82900282      18.52523973
Cs      16.40070225      15.73059156      14.05412916
Cs      12.56434372      11.84333195      15.91749772
Cs      17.30045654      10.60497884      14.04615741
Cs      14.08039330      20.20585237      15.34149477
11
Properties=species:S:1:pos:R:3 config_type=qcd gap_pre_relax_energy=-24.170033860032653 gap_pred_energy=-24.302749515802343 gap_fmax_final=0.000963693220016389 gap_converged=1 pbc="F F F"
Cs      17.47820499      10.87997380      13.39891316
Cs      12.96489164      12.96227362      12.96448590
Cs      12.52141747       8.25619126      11.36693188
Cs      12.49685524      17.66999271      11.37347959
Cs       8.99966286      13.05859395       9.93505013
Cs       8.42178453      10.01849217      14.26067952
Cs      17.50736038      15.90866962      11.66776931
Cs      14.73226195      12.86810112       8.29763357
Cs       9.35705363      15.04758726      15.71349134
Cs      15.23879646      15.68447525      16.47458983
Cs      12.88242185      10.24636023      17.14768676
12
Properties=species:S:1:pos:R:3 config_type=qcd gap_pre_relax_energy=-26.98605093959761 gap_pred_energy=-27.055635890548615 gap_fmax_final=0.0009958989647029582 gap_converged=1 pbc="F F F"
Cs      16.78918455      19.53690721      13.34767996
Cs      11.98885475      12.20012914      11.24829149
Cs      19.12285568      14.88273356      14.51833813
Cs      13.01108770      14.94022173      20.12209729
Cs      12.12516369      17.97309103      11.32847965
Cs      17.20176074      12.03332117      18.60321288
Cs      16.32517721      15.00575977       9.97109294
Cs      17.32883730      17.69716026      18.68532722
Cs      13.85713374      14.99251099      15.09039188
Cs      12.54369272      10.32450409      16.68234906
Cs      16.57940246      10.37323245      13.21601424
Cs      12.75406983      19.66764896      16.81394566
13
Properties=species:S:1:pos:R:3 config_type=qcd gap_pre_relax_energy=-29.572544310444247 gap_pred_energy=-29.812850141186065 gap_fmax_final=0.0009504050185609642 gap_converged=1 pbc="F F F"
Cs      15.26525440      15.26525440      15.26525440
Cs      15.26521086      15.26525443      20.86327663
Cs      16.81180247      10.50676942      17.76743142
Cs      11.21538991      12.32345610      17.76877097
Cs      11.21538985      18.20705265      17.76877095
Cs      16.81180239      20.02373943      17.76743139
Cs      20.27175329      15.26525445      17.76817777
Cs      13.71870641      10.50676937      12.76307741
Cs      10.25875551      15.26525435      12.76233103
Cs      13.71870633      20.02373938      12.76307738
Cs      19.31511889      18.20705270      12.76173783
Cs      19.31511895      12.32345615      12.76173785
Cs      15.26529794      15.26525437       9.66723217
14
Properties=species:S:1:pos:R:3 config_type=qcd gap_pre_relax_energy=-31.546084550320202 gap_pred_energy=-31.889095495747377 gap_fmax_final=0.0009760669332168189 gap_converged=1 pbc="F F F"
Cs      13.08927492      14.21156581      13.23469457
Cs      11.51529273      15.40437872      17.98474686
Cs      15.43213198      13.91544109      21.95307601
Cs      18.72162548      14.20794563      13.16450640
Cs      16.64399631      16.56217733      17.02665827
Cs      20.38488377      12.93877602      18.85870190
Cs      15.52278263      17.18710417       9.93938157
Cs      13.51942192      19.53039770      14.51073802
Cs      13.84481529      19.33702802      20.55220001
Cs      18.77840341      19.80838495      12.80012267
Cs      17.99052200      21.93470988      17.44312417
Cs      19.52630405      18.11509308      21.65089985
Cs      21.99517247      17.89850903      16.32609968
Cs      15.26184509      11.17496065      16.78152209
15
Properties=species:S:1:pos:R:3 config_type=qcd gap_pre_relax_energy=-34.23327026224703 gap_pred_energy=-34.31730444480367 gap_fmax_final=0.0009557823180125551 gap_converged=1 pbc="F F F"
Cs      16.04977306      14.58089278      10.60118014
Cs      17.74009855      19.27513132      11.76014768
Cs      20.75665078      15.05025776      13.13100419
Cs      12.45168626      17.97487077      13.43831764
Cs      12.60542217      12.27943821      13.61568239
Cs      17.79447841      11.01178008      14.20258732
Cs      16.00031018      21.66466680      15.94559377
Cs      16.03618948      16.03396905      16.03768063
Cs      20.72558466      19.14024978      16.21522057
Cs      10.86481664      14.66894795      17.80079657
Cs      14.79639117      11.06734571      18.35623507
Cs      19.62402751      14.09636698      18.63481953
Cs      12.56992461      19.35683378      18.96975843
Cs      17.74251131      19.18825935      20.37753463
Cs      14.77973076      15.14858520      21.45103697
15
Properties=species:S:1:pos:R:3 config_type=qcd gap_pre_relax_energy=-34.18804417416119 gap_pred_energy=-34.28885516543134 gap_fmax_final=0.0009610175139213996 gap_converged=1 pbc="F F F"
Cs      14.71107667      17.21332621      10.08216581
Cs      13.82447668      13.82996412      13.70343157
Cs      14.60772183       8.55946033      12.06589776
Cs      19.02897977      15.54097904      13.41636797
Cs      18.33802405      10.52581877      14.97618478
Cs      10.79111778      18.08293266      13.73840623
Cs       9.75457333       9.86548221      12.95515079
Cs      15.65289926      18.94014108      15.43305788
Cs      12.48856717      16.11730191      18.60812479
Cs       8.68901806      13.66335648      16.23935163
Cs      17.27361588      14.32246009      18.26089524
Cs      13.24829394      10.54374792      17.31378849
Cs      17.52689406      12.27250158       9.66519680
Cs      12.37099787      12.46649116       8.87453294
Cs       8.12171112      14.48400393      11.09541483
16
Properties=species:S:1:pos:R:3 config_type=qcd gap_pre_relax_energy=-36.45328570822456 gap_pred_energy=-36.561407105446214 gap_fmax_final=0.000991330039833921 gap_converged=1 pbc="F F F"
Cs      17.56049950      17.18667821      17.18672106
Cs      17.86256969      17.18664008      22.61676765
Cs      19.47199512      12.88158039      19.83565748
Cs      14.14427482      14.39289984      20.04948023
Cs      14.14490959      19.98123073      20.04948397
Cs      19.47296123      21.49134425      19.83565883
Cs      22.45998810      17.18612654      19.79656800
Cs      15.75146994      10.33023829      17.18672108
Cs      10.80915748      17.18744720      17.18672109
Cs      15.75301313      24.04352972      17.18672106
Cs      22.45998809      17.18612653      14.57687409
Cs      19.47296121      21.49134424      14.53778327
Cs      14.14490957      19.98123072      14.32395817
Cs      14.14427480      14.39289984      14.32396193
Cs      19.47199510      12.88158038      14.53778465
Cs      17.86256965      17.18664006      11.75667447
17
Properties=species:S:1:pos:R:3 config_type=qcd gap_pre_relax_energy=-38.97993295199663 gap_pred_energy=-39.00650331954656 gap_fmax_final=0.0009841449223832116 gap_converged=1 pbc="F F F"
Cs      14.05236658      18.71059677      19.51988288
Cs      17.10550939      16.19919404      16.19201511
Cs      21.56129689      14.14209605      13.47477422
Cs      16.48542592      13.06869206      12.02986827
Cs      18.78627363      18.13321397      11.40759584
Cs      18.76595628      11.05902501      16.72961557
Cs      21.86880250      19.11512118      15.58223343
Cs      13.69018203      17.88068898      12.69498649
Cs      16.99076175      21.40355265      15.56290498
Cs      11.70655391      21.52935538      15.82950253
Cs      11.68614209      14.39376434      21.19924862
Cs      16.97029391      14.15228204      21.01703726
Cs      13.67451104      12.38609331      16.82973632
Cs      21.85643324      14.79051385      18.83203945
Cs      11.20736674      13.32138554      12.34520444
Cs      19.25135664      19.18512026      20.16838356
Cs      10.27696888      16.46550600      16.52117250
18
Properties=species:S:1:pos:R:3 config_type=qcd gap_pre_relax_energy=-41.271108102708844 gap_pred_energy=-41.388923311287044 gap_fmax_final=0.0009198391475345538 gap_converged=1 pbc="F F F"
Cs      14.33917834      13.63380408      21.01674808
Cs      17.29509106      16.76294369      17.42724870
Cs      13.96017846      20.90771521      16.55630598
Cs      19.93703533      19.26336128      21.93306498
Cs      12.91853519      12.59705884      15.91299619
Cs      20.38563407      21.01458990      16.59879696
Cs      14.72989516      18.84181389      21.57351475
Cs      17.13229948      24.60477955      14.69410457
Cs      17.10409855      23.29130177      19.97885213
Cs      21.64134478      17.02145301      13.30661810
Cs      17.26310359      10.73365773      17.78994138
Cs      21.64902745      12.59903040      16.02195236
Cs      17.26396787      19.69388325      12.51331869
Cs      12.91988442      16.97774428      13.21457199
Cs      19.63097721      13.97043917      21.18607975
Cs      11.13754227      16.83726982      18.29486494
Cs      23.00778601      16.91994768      18.45227554
Cs      17.30569063      13.95047630      13.15001473
19
Properties=species:S:1:pos:R:3 config_type=qcd gap_pre_relax_energy=-43.63703473091809 gap_pred_energy=-43.7060344831941 gap_fmax_final=0.0008359191178664166 gap_converged=1 pbc="F F F"
Cs      17.32300639      17.08879342      17.18487018
Cs      17.62072915      16.87412327      22.62370509
Cs      19.02831555      12.55774711      19.85817118
Cs      13.87760970      14.15707286      19.97499168
Cs      13.73306491      19.67357348      20.30489533
Cs      19.01387457      21.28106491      19.97915850
Cs      22.15822236      16.89402798      19.85868888
Cs      23.55058363      12.59142309      17.18487017
Cs      15.33517719       9.96963846      17.18487020
Cs      10.44629735      16.94795924      17.18487021
Cs      10.26799581      22.17338458      17.18487020
Cs      15.28342767      23.65131771      17.18487018
Cs      23.44241315      21.21479787      17.18487015
Cs      22.15822234      16.89402797      14.51105145
Cs      19.01387455      21.28106490      14.39058184
Cs      13.73306488      19.67357347      14.06484505
Cs      13.87760968      14.15707285      14.39474873
Cs      19.02831553      12.55774710      14.51156919
Cs      17.62072910      16.87412325      11.74603527
20
Properties=species:S:1:pos:R:3 config_type=qcd gap_pre_relax_energy=-45.941978313947224 gap_pred_energy=-46.0853308648188 gap_fmax_final=0.0009822831556284563 gap_converged=1 pbc="F F F"
Cs      18.49006211      18.16655698       9.08208398
Cs      21.82540829      15.67702523      12.33511426
Cs      14.56685379      18.89131256      12.52472762
Cs      16.89573482      14.04641816      11.93802378
Cs      11.97549495      14.39229708      13.68950309
Cs      19.62028894      20.25284277      13.77987253
Cs      15.33493509      10.96222430      15.93332789
Cs      20.40718409      12.14170232      16.00629177
Cs      11.41511156      18.45502218      16.95592748
Cs      17.00098567      16.46394599      16.69303887
Cs      15.56189046      21.57142847      17.26403771
Cs      22.21047510      17.02610343      17.33418487
Cs      12.01253370      13.61121625      18.92463989
Cs      20.54656001      21.76499865      18.78936922
Cs      11.65476954      22.16266188      20.75228577
Cs      16.99568991      12.88991831      20.57394795
Cs      14.23185322      17.63188332      21.44675315
Cs      22.19566156      13.16926921      20.84231170
Cs      19.44863905      17.62169661      21.84345392
Cs      16.70532420      22.19693236      22.38656061
20
Properties=species:S:1:pos:R:3 config_type=qcd gap_pre_relax_energy=-46.274514041627484 gap_pred_energy=-46.37140249625352 gap_fmax_final=0.0008923802122950749 gap_converged=1 pbc="F F F"
Cs      17.92227615      17.52460867      19.68657535
Cs      17.84902221      17.51115148      24.99059820
Cs      19.41629779      13.09899529      22.03169624
Cs      14.33323678      14.66688925      22.12119391
Cs      14.19044909      20.23078780      21.97929168
Cs      19.53727299      21.76659567      22.21393301
Cs      22.56589180      17.39491792      22.08634506
Cs      16.47825714      12.48532680      17.64935428
Cs      12.79572967      17.01926452      17.68567708
Cs      16.88645826      22.60011251      17.75866692
Cs      22.31776265      20.45499943      17.75129436
Cs      22.18383831      14.42794741      17.68627384
Cs      17.93357919      17.56816840      15.72728597
Cs      17.88885554      17.66896337      10.42394268
Cs      11.69182913      22.11671080      17.73722756
Cs      14.36088678      14.76146302      13.21109293
Cs      19.44160960      13.19178066      13.29802281
Cs      14.21608554      20.32264945      13.47027451
Cs      19.56444244      21.86359384      13.30286889
Cs      22.58993938      17.48879412      13.35210514
21
Properties=species:S:1:pos:R:3 config_type=qcd gap_pre_relax_energy=-48.5897433954988 gap_pred_energy=-48.70397728599691 gap_fmax_final=0.0008510324284973386 gap_converged=1 pbc="F F F"
Cs      18.17643086      17.67425081      19.66631282
Cs      18.08450371      17.64553504      24.93227364
Cs      19.75795179      13.35647571      22.11371746
Cs      14.46392671      14.82542881      21.91159861
Cs      14.52270226      20.57560549      21.94100984
Cs      19.84212322      21.92922165      22.16472727
Cs      22.87435181      17.61361176      22.05518429
Cs      17.07036285      12.59098200      17.66338765
Cs      13.12405040      17.73874801      17.71133692
Cs      17.17225628      22.80349598      17.72412475
Cs      22.60103168      20.61951914      17.68798846
Cs      22.54289633      14.66553322      17.65241313
Cs      18.15962302      17.69759972      15.71402780
Cs      18.01216672      17.72943646      10.45146632
Cs      11.87712540      12.69492537      17.68997848
Cs      11.97743333      22.80651423      17.74359490
Cs      14.42509302      14.87282557      13.46825377
Cs      19.72033763      13.40899669      13.20063177
Cs      14.48420270      20.62293374      13.50036752
Cs      19.80114247      21.98386199      13.25047710
Cs      22.83407041      17.66828120      13.28091009
21
Properties=species:S:1:pos:R:3 config_type=qcd gap_pre_relax_energy=-48.582645203999526 gap_pred_energy=-48.68930836316508 gap_fmax_final=0.000972947251248627 gap_converged=1 pbc="F F F"
Cs      18.33639289      17.45246844      19.91359685
Cs      18.36290191      17.56620219      25.23412423
Cs      19.98928361      13.07501616      22.24507384
Cs      14.91797093      14.52235382      22.57149078
Cs      14.59262501      20.19464944      22.16244265
Cs      19.92018444      21.76940941      22.36741778
Cs      23.03415934      17.43071215      22.20325684
Cs      17.00058158      12.42191547      17.91710560
Cs      13.31999622      16.84714314      18.15588755
Cs      10.18446447      18.05951477      14.21266890
Cs      17.17797116      22.54233100      17.95086745
Cs      22.64227056      20.46670798      17.88211848
Cs      22.56436986      14.45604392      17.80129936
Cs      18.15120746      17.60169190      15.87465217
Cs      18.22689177      17.59989110      10.61478469
Cs      11.96288880      21.84327669      17.72377219
Cs      14.45806561      14.87403415      13.37523824
Cs      19.67206899      13.24291443      13.43332201
Cs      14.66655072      20.57525007      13.35063193
Cs      19.90969137      21.91316106      13.49084062
Cs      22.86259634      17.49844577      13.47254091
22
Properties=species:S:1:pos:R:3 config_type=qcd gap_pre_relax_energy=-50.935063457181016 gap_pred_energy=-51.09739136071201 gap_fmax_final=0.0009286852983528874 gap_converged=1 pbc="F F F"
Cs      19.01428604      17.66586846      20.13300974
Cs      18.52147000      17.60510024      25.68689520
Cs      20.18085814      12.82203450      22.64198597
Cs      14.60752767      14.71667172      22.36104546
Cs      14.66367136      20.64218358      22.42803918
Cs      20.27142392      22.42274057      22.74745103
Cs      23.61080579      17.58990069      22.69468147
Cs      17.23465947      12.83779186      17.65091460
Cs      14.39538425      17.72935294      18.16728701
Cs      10.50173614      17.80317024      14.83538461
Cs      17.32839338      22.57466708      17.75664631
Cs      22.75184654      20.59940057      17.75918247
Cs      22.69705179      14.70392482      17.69443737
Cs      18.45917291      17.71874668      15.30526274
Cs      18.50090782      17.77516398      10.03148612
Cs      12.02460400      13.28560243      17.56399677
Cs      12.11223987      22.23064943      17.65980970
Cs      14.52586973      14.85117851      13.13507305
Cs      20.04994569      13.24348400      13.26817265
Cs      14.58256393      20.70889163      13.19620312
Cs      20.13372288      22.20734325      13.36512172
Cs      23.25566789      17.68994201      13.34172291
22
Properties=species:S:1:pos:R:3 config_type=qcd gap_pre_relax_energy=-50.789061259391296 gap_pred_energy=-50.84505667001517 gap_fmax_final=0.0009765317999474917 gap_converged=1 pbc="F F F"
Cs      19.17454739      17.52742396      16.70839927
Cs      19.62583431      17.73072848      22.30463739
Cs      20.96284962      13.26783254      19.34281205
Cs      15.77725781      14.88233467      19.68713109
Cs      15.88016687      20.48019728      19.69365937
Cs      21.28812495      21.82205292      18.73364021
Cs      24.18708222      17.50827228      19.66651722
Cs      17.15717518      10.75057405      16.70867527
Cs      12.06412762      12.30368315      17.00722689
Cs      12.06233398      17.67339562      16.91327617
Cs      12.15052210      23.05933156      17.02537121
Cs      17.22570448      24.61444034      16.75442241
Cs      23.81367590      18.11887397      14.42548466
Cs      20.53963968      22.15665511      13.51135276
Cs      15.55765196      20.37288226      13.94083096
Cs      15.51273287      14.89214632      13.87656744
Cs      20.80600315      13.28490258      13.88133607
Cs      19.37208626      17.57107283      11.22982712
Cs      14.54280234      17.69334141      24.00815313
Cs      10.81923612      20.32734273      21.36803245
Cs      10.76754312      15.05834169      21.38292291
Cs      25.34016992      13.53144209      16.45699179
23
Properties=species:S:1:pos:R:3 config_type=qcd gap_pre_relax_energy=-53.45424597788005 gap_pred_energy=-53.54590611190171 gap_fmax_final=0.0009205811337005445 gap_converged=1 pbc="F F F"
Cs      21.47335385      13.59905063      11.28296549
Cs      18.79115567      17.80082158      10.16155261
Cs      22.41590198      18.25294900      14.26225224
Cs      18.05661850      15.62002616      15.40667529
Cs      19.31954043      10.10926844      14.39624022
Cs      23.10894049      13.34284090      16.27062814
Cs      15.76717274      13.38513468      11.52485752
Cs      21.46445496      17.19960953      19.55898108
Cs      21.43064137      22.09186803      17.96909448
Cs      17.75917494      20.94636491      14.29602713
Cs      18.96383453      12.40186249      19.46813794
Cs      18.43641919      15.80090206      23.51242510
Cs      14.69861455      11.05527639      16.44624311
Cs      18.60477825      21.26257007      22.54467758
Cs      14.11833664      14.12913894      20.73674180
Cs      13.88031714      18.48871820      11.61513034
Cs      16.75771352      24.27015753      18.29719850
Cs      16.24713327      18.60658361      18.98157453
Cs      14.08096765      18.42117570      24.29660355
Cs      13.15777000      22.68049135      21.55562143
Cs      12.63861156      15.75533433      15.79075447
Cs      12.72147800      21.22286401      16.15712680
Cs      10.77147128      18.22139197      20.13289116
23
Properties=species:S:1:pos:R:3 config_type=qcd gap_pre_relax_energy=-53.32459229540632 gap_pred_energy=-53.44943034426181 gap_fmax_final=0.000910230777155878 gap_converged=1 pbc="F F F"
Cs      12.01368687      18.32794216      17.50635912
Cs      10.89083731      16.12827789      22.52082919
Cs      13.14937878      20.88429300      22.43294756
Cs      12.58928551      12.83744717      18.77758617
Cs      16.31690923      21.53221194      18.29038490
Cs      14.96205661      20.05718850      13.25103403
Cs      15.87298486      15.15911314      15.39224984
Cs      14.98063071      17.30651106      25.83657342
Cs      16.00540160      16.74284756      20.37676731
Cs      18.75255162      20.26961082      22.96511216
Cs      14.64547561      12.38887636      23.60325126
Cs      19.58380820      18.84534196      15.21082731
Cs      18.15191189      16.10165052      10.75118095
Cs      18.70922326      24.14523534      14.40744111
Cs      19.46652009      21.16244556      10.13321661
Cs      19.30017055      14.77086516      24.21101515
Cs      21.70222922      22.00150647      18.71146419
Cs      23.22711095      17.42592209      11.21813700
Cs      18.19077438      12.19078044      19.29132171
Cs      21.14002308      13.92295597      15.03951479
Cs      21.19243288      16.69232711      19.70018550
Cs      23.56362699      22.34125614      13.45330440
Cs      24.86100184      18.03342572      16.18732842
24
Properties=species:S:1:pos:R:3 config_type=qcd gap_pre_relax_energy=-55.799922207558865 gap_pred_energy=-55.967846550374425 gap_fmax_final=0.0009825823941107335 gap_converged=1 pbc="F F F"
Cs      19.11210907      17.21836087      20.48360423
Cs      18.95810007      17.23737648      25.65477277
Cs      20.44378959      12.60256358      22.39130791
Cs      14.99582496      14.44717038      22.41150530
Cs      15.21255819      20.37357426      22.48039216
Cs      20.76042244      22.04288392      22.79942854
Cs      24.08162997      17.18383938      22.69482482
Cs      17.70557428      12.44642386      17.82241593
Cs      14.92535883      17.45274402      17.86220369
Cs      10.83112099      17.46858165      14.67912396
Cs      18.02228766      22.17992417      18.23352819
Cs      15.95938043      25.04453864      14.43138100
Cs      23.21934491      20.27649986      17.79855766
Cs      23.14447124      14.41638050      17.62246475
Cs      19.07109358      17.57089522      15.60361368
Cs      18.67954268      17.30881150      10.45894482
Cs      10.52313913      17.59689352      20.49790413
Cs      12.49308693      12.92628720      17.66469011
Cs      12.76459309      22.10550375      17.52457318
Cs      15.00998350      14.38766742      13.08035491
Cs      20.28836327      13.09043808      13.30310896
Cs      14.99095802      20.18299104      12.90850791
Cs      20.22849094      22.03951202      13.35405084
Cs      23.65913418      17.48049664      13.31909848
24
Properties=species:S:1:pos:R:3 config_type=qcd gap_pre_relax_energy=-55.5743544853957 gap_pred_energy=-55.762258381897524 gap_fmax_final=0.000899327430330225 gap_converged=1 pbc="F F F"
Cs      15.29793197      17.94126654      22.69081425
Cs      13.43183099      13.72516295      20.14905748
Cs      14.39372834      14.32961550      14.44803559
Cs      22.72976292      22.79136286      22.67498013
Cs      12.81743978      22.24470339      20.94540779
Cs      20.28228491      18.21597252      23.56175080
Cs      16.64701146      10.83141729      17.42156434
Cs      20.47680397      26.29076586      19.70341908
Cs      18.39640590      20.83610453      18.77303997
Cs      13.77584461      22.84480605      15.24225000
Cs      18.21230425      13.14129864      22.30378230
Cs      19.63058785      14.02936026      13.88951910
Cs      16.83723578      18.90649976      13.56078167
Cs      24.30735598      14.87981003      16.17679882
Cs      18.90868879      23.98049328      14.81825790
Cs      13.69425133      18.29117091      17.71272893
Cs      21.82198536      19.17893659      14.42963356
Cs      15.55250263      26.01739425      18.83838125
Cs      21.57248628      11.10608798      18.28170121
Cs      23.42672634      18.83083495      19.40913094
Cs      18.72557609      16.28586843      18.34817710
Cs      17.49361016      23.09278656      23.23346813
Cs      23.34551477      14.27882210      21.87993566
Cs      23.68726219      23.39459143      16.97251663
25
Properties=species:S:1:pos:R:3 config_type=qcd gap_pre_relax_energy=-58.19270969611564 gap_pred_energy=-58.35570453579254 gap_fmax_final=0.0009207063000306882 gap_converged=1 pbc="F F F"
Cs      20.23472471      17.47650713      10.65892654
Cs      23.20885916      21.55859356      12.42072764
Cs      17.87751705      21.74900880      12.87390392
Cs      25.37098644      16.20781900      13.05193494
Cs      20.70807149      12.86902267      14.12455133
Cs      16.08531027      16.32473624      13.86863254
Cs      13.15181692      20.53747339      15.21544237
Cs      21.21508771      18.08326415      15.70436541
Cs      26.02900299      20.17489902      17.28043197
Cs      16.23701605      24.80198457      17.05299645
Cs      21.42268748      23.65998313      17.04880836
Cs      17.46077015      19.91443174      17.89697929
Cs      23.91905936      14.86055255      18.62450657
Cs      18.58073642      14.46924870      18.69199633
Cs      13.18399285      16.41764824      18.55445942
Cs      13.18250305      21.89542093      20.46004545
Cs      22.18452822      19.41963454      20.82973404
Cs      18.53182266      23.75134376      21.72552435
Cs      17.14300144      18.21133349      22.28306768
Cs      15.40984448      13.03100758      22.67123436
Cs      12.17859802      17.72458321      23.66909448
Cs      20.90441732      14.94950668      23.48656618
Cs      20.73416872      20.33062764      25.83090976
Cs      15.15382919      21.80472568      25.43865166
Cs      16.58779771      16.47279347      27.23265882
25
Properties=species:S:1:pos:R:3 config_type=qcd gap_pre_relax_energy=-58.05337475433422 gap_pred_energy=-58.121718104775084 gap_fmax_final=0.0009461770230303478 gap_converged=1 pbc="F F F"
Cs      19.70580436      17.37664336      15.65697250
Cs      20.50219027      17.40669460      21.35600915
Cs      21.61579442      12.91891074      18.57262696
Cs      16.31436781      14.84986417      18.35069542
Cs      16.26831092      19.86415903      18.33012202
Cs      21.55724960      21.87525817      18.52091132
Cs      24.42480484      17.40958283      17.75115701
Cs      17.63397624      10.38313263      16.10566877
Cs      12.38323569      12.03362786      15.93070535
Cs      11.95012076      17.30810356      15.92420135
Cs      12.29335505      22.59261353      15.88556920
Cs      17.51460652      24.33757382      16.07066424
Cs      24.26205482      17.41272015      12.51542925
Cs      21.14894272      21.69909239      13.21404058
Cs      15.89026408      20.24206548      12.79465789
Cs      15.94142820      14.41814639      12.81847460
Cs      21.24243820      13.06767800      13.25822303
Cs      19.52701326      17.35122389      10.25423237
Cs      15.49251346      17.38414122      23.34379444
Cs      11.67191182      19.98234541      20.69376676
Cs      11.73238549      14.66127420      20.72655579
Cs      18.19257270      12.79789600      22.69853008
Cs      14.40399063      10.04891475      20.34750501
Cs      14.25991871      24.63852298      20.29953887
Cs      18.13225303      22.00131844      22.64145161
26
Properties=species:S:1:pos:R:3 config_type=qcd gap_pre_relax_energy=-60.70119735417902 gap_pred_energy=-60.87070723947853 gap_fmax_final=0.000903171209120257 gap_converged=1 pbc="F F F"
Cs      18.79239508      16.41876315      19.77920006
Cs      18.34861572      16.65453689      24.80889854
Cs      19.88507123      11.94115472      21.91416689
Cs      14.74226298      13.58796619      22.20283407
Cs      14.65682412      19.41058036      22.26574604
Cs      20.24000314      21.06820677      22.18026522
Cs      23.35180797      16.48869909      21.95899156
Cs      17.27281832      11.46247430      17.39077997
Cs      14.56999902      16.51935081      17.40210254
Cs      10.43553650      16.92277986      14.50414033
Cs      17.50064939      20.50185551      17.40933121
Cs      15.80381776      24.31124304      14.48451002
Cs      23.07626586      19.10162511      17.42544169
Cs      22.78499119      13.34510314      17.56369555
Cs      18.77802547      16.42885266      14.96975750
Cs      18.34669059      16.71244441       9.94804758
Cs      10.42624971      16.90438185      20.28744257
Cs      11.96256550      12.08873623      17.38282506
Cs      15.79720075      24.30348470      20.34930015
Cs      11.92674457      21.18844038      17.40759836
Cs      20.87399041      24.43673874      17.42340525
Cs      14.75734295      13.61999771      12.57835560
Cs      19.84651803      11.94133330      12.80790619
Cs      14.66060268      19.44222431      12.53869075
Cs      20.25236835      21.07618554      12.65401103
Cs      23.35978177      16.57198028      12.81169528
26
Properties=species:S:1:pos:R:3 config_type=qcd gap_pre_relax_energy=-60.455625794582446 gap_pred_energy=-60.53045510560519 gap_fmax_final=0.0008645089553393081 gap_converged=1 pbc="F F F"
Cs      19.90149938      19.46059446      16.83629591
Cs      20.34796338      19.75511895      22.49749031
Cs      21.64926708      15.28847233      19.90672648
Cs      16.44995329      16.89258406      19.50662876
Cs      16.46185465      22.34582671      19.94121462
Cs      21.73424915      23.82059253      18.99912397
Cs      24.83553508      19.58016020      19.58248530
Cs      17.60563788      12.40175189      16.96230949
Cs      12.49316016      14.07537766      17.04238186
Cs      12.45487695      19.37805723      17.00858129
Cs      12.64026757      24.69295936      17.25329417
Cs      17.68440228      26.39918680      16.79451224
Cs      24.43859200      19.72617825      14.30943735
Cs      21.22485513      23.93591398      13.73609245
Cs      16.13647087      22.05832946      14.18236218
Cs      16.01449730      16.60890444      13.86941970
Cs      21.28990292      15.08056905      14.13731372
Cs      19.88605697      19.39396793      11.39090404
Cs      15.33350426      19.54794538      24.36431115
Cs      11.43896722      21.81313999      21.58757361
Cs      11.80241011      16.54550818      21.81434698
Cs      25.89843392      15.25613544      16.71987064
Cs      22.75267529      10.96515291      17.17921131
Cs      18.00502666      14.99385323      24.09128854
Cs      14.54449203      11.99353461      21.44511440
Cs      19.66533195      10.68006847      21.53159302
27
Properties=species:S:1:pos:R:3 config_type=qcd gap_pre_relax_energy=-63.03630947303537 gap_pred_energy=-63.20566925309602 gap_fmax_final=0.0008965273473306597 gap_converged=1 pbc="F F F"
Cs      19.86802333      17.80703060      21.84109619
Cs      20.55308693      12.64899350      22.63973914
Cs      15.41242889      14.79052618      23.17811246
Cs      15.46890774      20.61504405      23.17637541
Cs      20.81345419      22.86619972      22.92751295
Cs      18.15255695      14.10281805      18.37105360
Cs      16.45459623      10.25706877      15.46624462
Cs      15.22191591      17.86785020      18.44535051
Cs      11.19072223      17.79733615      15.36590299
Cs      18.22760219      21.66858856      18.49244790
Cs      16.51490602      25.41607157      15.44212380
Cs      23.51145245      20.75571591      18.44674957
Cs      23.47625894      14.84696239      18.42571015
Cs      19.44357408      17.87615179      15.57265376
Cs      19.21468727      17.83152061      10.44508208
Cs      16.26659529      10.04822459      20.85250316
Cs      21.20997919      10.05696171      17.96529600
Cs      10.82055982      17.76444620      21.17706522
Cs      12.67695297      13.04631928      18.28532494
Cs      16.28427434      25.81877641      20.79616352
Cs      12.72587378      22.48884854      18.32054157
Cs      21.30746926      25.65144316      17.88587541
Cs      15.23683650      14.95825527      13.51350173
Cs      20.75932980      13.07743467      13.53474016
Cs      15.25339851      20.69681294      13.55606620
Cs      20.79861743      22.56174890      13.55638177
Cs      24.26149256      17.80840310      13.44593802
27
Properties=species:S:1:pos:R:3 config_type=qcd gap_pre_relax_energy=-63.00117056627213 gap_pred_energy=-63.19382714260198 gap_fmax_final=0.0009690955266464571 gap_converged=1 pbc="F F F"
Cs      19.17127435      17.05589742      20.30369662
Cs      18.61710415      17.33292536      25.38931080
Cs      20.38081909      12.52834039      22.57535243
Cs      14.82425040      14.12551064      22.42764454
Cs      14.79377504      19.90851708      22.46763965
Cs      20.33314039      21.95202434      22.36191823
Cs      23.81233948      17.25981047      22.62201218
Cs      17.80494599      12.03742617      18.00020417
Cs      15.63423222       9.30877941      14.22311226
Cs      14.94022094      16.86984858      17.71191923
Cs      10.81832279      17.16888456      14.74076388
Cs      17.63053296      20.97037387      17.57262599
Cs      16.04456275      25.12019002      14.87621009
Cs      23.20112798      19.93718408      17.53048888
Cs      23.13367705      14.10882492      17.71723061
Cs      19.08861716      16.85861157      15.31961039
Cs      18.55892548      17.06685908      10.25804230
Cs      10.77522639      17.01440927      20.50887504
Cs      12.54653346      12.38811963      17.48014472
Cs      16.05630599      24.69242656      20.68998150
Cs      12.19472484      21.67945828      17.64075077
Cs      21.05847207      24.72706534      17.83259505
Cs      14.82427948      14.20691885      12.77053799
Cs      20.03508113      12.32720050      13.20923435
Cs      14.88544165      19.86945916      12.80666220
Cs      20.40129829      21.71465081      12.97813655
Cs      23.59447837      16.92999354      13.14500946
28
Properties=species:S:1:pos:R:3 config_type=qcd gap_pre_relax_energy=-65.26528698477921 gap_pred_energy=-65.57896741546124 gap_fmax_final=0.000997657890967879 gap_converged=1 pbc="F F F"
Cs      19.04492348      17.74331346      21.08843048
Cs      20.57758357      13.05555771      22.75202341
Cs      14.96117558      14.96917263      22.86522092
Cs      14.97802903      20.53280717      22.88526648
Cs      20.60747249      22.40921438      22.78462479
Cs      23.86904999      17.72155379      22.58726391
Cs      17.76271750      13.79199864      18.03942525
Cs      16.20493978      10.08434379      14.94986254
Cs      14.82370120      17.76693769      17.93065339
Cs      10.47128156      17.79161412      15.15896802
Cs      17.78554766      21.72477626      18.06916668
Cs      16.25599237      25.45985266      15.00211928
Cs      23.30023752      20.62932613      18.22636887
Cs      23.28252915      14.84706735      18.20664665
Cs      19.29025076      17.76310293      15.56689664
Cs      18.66715042      17.77857834      10.59086186
Cs      16.17112106       9.67048037      20.78999433
Cs      21.20740571      10.03526717      17.82746478
Cs      10.83622779      17.77054949      20.98135669
Cs      12.33123952      13.07879537      17.98587595
Cs      16.22432203      25.83739477      20.84488339
Cs      12.36243390      22.47295009      18.01786259
Cs      21.25759499      25.45801782      17.87997305
Cs      15.03674686      14.87613681      13.13005961
Cs      20.47850989      13.02691979      13.33698231
Cs      15.05755684      20.68969079      13.15008865
Cs      20.50902823      22.50016940      13.36817398
Cs      23.88344617      17.75262615      13.22170061
28
Properties=species:S:1:pos:R:3 config_type=qcd gap_pre_relax_energy=-65.16851991043575 gap_pred_energy=-65.38456096449224 gap_fmax_final=0.0009925453793844434 gap_converged=1 pbc="F F F"
Cs      20.28169053      18.88617990      16.61609891
Cs      20.82303261      19.09744510      22.33765649
Cs      21.90610660      14.74127837      19.62654329
Cs      16.77816688      16.32212660      19.33695220
Cs      16.65114106      21.44532290      19.17853273
Cs      21.82691494      23.62115016      19.51662445
Cs      24.94102459      19.35621406      18.83414946
Cs      17.78209331      11.90266591      16.68334419
Cs      12.73258151      13.73649160      16.87622493
Cs      12.34540977      19.01291377      16.83173365
Cs      12.64517278      24.28671355      16.69465408
Cs      17.84861766      26.01309064      16.95715171
Cs      24.76132137      19.05709336      13.53010867
Cs      21.55811363      23.32706989      14.24251336
Cs      16.33404411      21.93203577      13.73475755
Cs      16.26921562      16.14202302      13.68719121
Cs      21.44284884      14.58286236      13.83968823
Cs      20.00234501      19.05717015      11.23132920
Cs      15.74220979      19.17309838      24.23852505
Cs      11.98533520      21.72318306      21.50406488
Cs      12.09820057      16.40159503      21.58885797
Cs      26.06367385      14.80077850      16.39179138
Cs      22.91282547      10.45149597      16.88110391
Cs      18.36572166      14.54801005      23.93753997
Cs      14.71022980      11.70000278      21.33456930
Cs      19.78639430      10.20828113      21.26877585
Cs      18.38995276      23.70982998      23.54742456
Cs      14.57931498      26.32757721      21.11579201
29
Properties=species:S:1:pos:R:3 config_type=qcd gap_pre_relax_energy=-67.70419016259953 gap_pred_energy=-67.7690575757525 gap_fmax_final=0.0009658198165688548 gap_converged=1 pbc="F F F"
Cs      20.36314019      18.78742562      16.38686331
Cs      20.90873232      18.88478505      22.12595576
Cs      22.07510319      14.54937563      19.35012090
Cs      16.93464643      16.12134241      19.04053546
Cs      16.68182811      21.30015683      19.19239555
Cs      22.04660765      23.39380367      19.18464902
Cs      25.07460614      19.09335843      18.62042443
Cs      17.97625481      11.71781187      16.35625217
Cs      12.91556549      13.49438106      16.53220790
Cs      12.47077125      18.76117841      16.51933498
Cs      12.76826126      24.05063296      16.57993669
Cs      17.98604339      25.74853228      16.78293891
Cs      24.88402035      18.91723192      13.32342556
Cs      21.68643044      23.19470819      13.91651436
Cs      16.45139363      21.76544579      13.53580138
Cs      16.44193829      15.97278952      13.38147496
Cs      21.61299728      14.48932263      13.58113622
Cs      20.13022577      18.96415162      10.97525137
Cs      15.83692825      18.83514040      23.96925862
Cs      11.83059498      21.41947625      21.14362702
Cs      12.22548207      16.12050218      21.23589027
Cs      26.25142324      14.60553608      16.09839216
Cs      23.10458540      10.28538516      16.54663922
Cs      18.56782275      14.26516354      23.62657720
Cs      14.91023196      11.45298489      20.98878464
Cs      19.99174066       9.96180500      20.91295024
Cs      18.76741952      23.69738611      23.31022263
Cs      14.70992895      26.21651787      20.96790723
Cs      13.99041133      23.52880375      25.40966699
29
Properties=species:S:1:pos:R:3 config_type=qcd gap_pre_relax_energy=-67.68927120893858 gap_pred_energy=-68.09049637099535 gap_fmax_final=0.000996552471357366 gap_converged=1 pbc="F F F"
Cs      19.13665086      17.71093652      20.12121629
Cs      18.58892436      17.62469795      25.08305715
Cs      20.34682088      12.86324377      22.34169415
Cs      14.84852910      14.79431260      22.53581816
Cs      14.89731289      20.57025572      22.56736738
Cs      20.43609876      22.25585938      22.45197137
Cs      23.65927240      17.58320848      22.20242728
Cs      17.65800175      13.71682246      17.63178646
Cs      16.02033685       9.67803122      14.85169241
Cs      14.90640473      17.76138271      17.65809978
Cs      10.84963221      17.81208593      14.77663778
Cs      17.78058679      21.76892994      17.68412425
Cs      15.97027621      25.58886546      14.83601997
Cs      23.37258959      20.44041757      17.72412728
Cs      23.32728026      14.72544657      17.67683415
Cs      19.14938618      17.71710874      15.20765092
Cs      18.64738569      17.72333141      10.26413755
Cs      16.04513026      10.00886123      20.68639877
Cs      21.05414825       9.96223652      17.81577510
Cs      10.84755355      17.76337390      20.55611940
Cs      12.22202606      13.11836961      17.66606169
Cs      15.95687335      25.46319816      20.69072694
Cs      12.18403521      22.26504979      17.70017836
Cs      21.04394932      25.73191176      17.78644625
Cs      14.87864176      14.95514664      12.77598049
Cs      20.41580942      13.03493714      12.96447701
Cs      14.91474212      20.63230896      12.80801083
Cs      20.44571704      22.38286030      13.03373994
Cs      23.69019156      17.64111696      13.19573026
30
Properties=species:S:1:pos:R:3 config_type=qcd gap_pre_relax_energy=-70.07112682257667 gap_pred_energy=-70.37773589790527 gap_fmax_final=0.0009552222273498115 gap_converged=1 pbc="F F F"
Cs      19.90320114      18.93736056      16.18577012
Cs      20.06507959      19.54916909      21.84825002
Cs      20.47110114      14.82478101      19.09209082
Cs      15.90988984      17.08610668      18.82754523
Cs      16.59215807      22.09042676      18.45727632
Cs      20.64777739      24.82968766      19.82936425
Cs      24.16259180      20.60451948      18.61704543
Cs      17.11980060      11.97245100      16.40224131
Cs      12.26166217      14.06227916      16.66849025
Cs      12.03911257      19.47091958      16.23349585
Cs      12.42576531      24.76149093      16.64431639
Cs      17.40897398      26.68226464      15.78297027
Cs      24.53836302      19.03912653      13.52785004
Cs      21.41165129      23.54831554      14.55886770
Cs      15.99257734      22.08088695      13.33085581
Cs      15.80316112      16.68901284      13.36668211
Cs      21.23155200      14.71638832      13.41086451
Cs      19.92799957      19.39599283      10.99504776
Cs      15.34222983      18.08954572      23.87597021
Cs      12.39876324      21.93909035      21.39954851
Cs      11.03469446      16.84985963      20.97549348
Cs      25.23566414      15.40944701      17.29136015
Cs      22.43099962      10.64230655      16.59915456
Cs      19.61577559      14.30321533      24.07605757
Cs      14.91666861      12.85037818      21.51756715
Cs      19.18705109       9.89784786      20.88917371
Cs      16.97102592      23.17210010      23.92961828
Cs      15.33428851      26.80516877      20.60951343
Cs      24.47700925      16.85507529      22.40948354
Cs      24.05371503      11.75508884      21.55833845
30
Properties=species:S:1:pos:R:3 config_type=qcd gap_pre_relax_energy=-70.23995011657345 gap_pred_energy=-70.43421524867139 gap_fmax_final=0.0008154754579455413 gap_converged=1 pbc="F F F"
Cs      18.48071080      18.36660588      20.76411475
Cs      18.37319505      18.26579604      25.84561688
Cs      19.87996234      13.55049578      22.83669095
Cs      14.35308342      15.34780151      22.93073663
Cs      14.33798178      21.15869073      22.85946993
Cs      19.69608611      22.96006615      22.74831600
Cs      23.23194739      18.08716605      22.72574969
Cs      17.19949117      14.39605097      18.05820595
Cs      15.30889831      10.62534010      15.17336623
Cs      14.30635496      18.36630328      18.06961251
Cs      10.12954776      17.73577603      15.19280388
Cs      16.73489205      23.17579494      18.06842646
Cs      21.84924719      20.82543865      18.06414532
Cs      25.26920973      23.31607429      15.09471477
Cs      22.51660711      15.23199841      18.05380235
Cs      18.47549556      18.37142465      15.36086693
Cs      18.35197743      18.29792551      10.27793682
Cs      15.31619445      10.61180921      20.92834280
Cs      20.36504009      10.37949526      18.04279830
Cs      10.13547022      17.72243103      20.94871626
Cs      11.68952274      13.42016642      18.06133601
Cs      11.45581077      22.61056978      18.07979502
Cs      25.28100020      23.30200787      21.02868462
Cs      21.06367859      26.08578135      18.07623086
Cs      26.62237891      18.44682456      18.04784643
Cs      14.34309221      15.36768399      13.19317140
Cs      19.86899613      13.57140806      13.26374105
Cs      14.32900887      21.17949135      13.28867733
Cs      19.67621733      22.97522066      13.39825664
Cs      23.21962057      18.10908071      13.37854645
31
Properties=species:S:1:pos:R:3 config_type=qcd gap_pre_relax_energy=-72.52969453024527 gap_pred_energy=-72.82570455698857 gap_fmax_final=0.0009374829631133616 gap_converged=1 pbc="F F F"
Cs      18.66038608      17.69859397      21.72831755
Cs      20.06285103      12.84939970      23.06614580
Cs      14.54210844      14.87371811      23.24118616
Cs      14.62462915      20.63405268      23.30639040
Cs      20.08220778      22.48584383      23.24360063
Cs      23.70521785      17.85321966      23.06813280
Cs      17.30806547      13.70160632      18.48712964
Cs      15.63002543      10.07146033      15.20651221
Cs      14.37927394      17.75226880      18.50396955
Cs      10.45818370      17.85923710      15.33866260
Cs      17.28863883      21.75414340      18.50483008
Cs      15.98502973      25.45410523      15.33954137
Cs      22.04486138      20.21537182      18.49003553
Cs      24.98267294      22.92477007      15.20933478
Cs      22.82598106      14.66837779      18.35512983
Cs      18.70433246      17.66614066      16.01381133
Cs      18.34864442      17.92389760      11.03160637
Cs      15.57189593       9.59951381      21.04496127
Cs      20.67909945       9.82677841      18.12366804
Cs      10.02191528      17.83955791      21.15184350
Cs      11.85958780      13.14637838      18.23965211
Cs      15.87046987      25.87283362      21.15273292
Cs      12.01824205      22.53239190      18.31891137
Cs      25.41784213      23.12651226      21.04649538
Cs      20.90314625      25.56918054      18.24260674
Cs      26.76935788      18.19603266      18.12587018
Cs      14.58142825      15.01120029      13.50663347
Cs      20.10651586      13.31634190      13.53864307
Cs      14.53096943      20.70297327      13.52297038
Cs      19.96395790      22.40569902      13.50897215
Cs      23.27275843      17.66869517      13.54199899
31
Properties=species:S:1:pos:R:3 config_type=qcd gap_pre_relax_energy=-72.62843531459859 gap_pred_energy=-72.69936794548758 gap_fmax_final=0.0009609770601287966 gap_converged=1 pbc="F F F"
Cs      16.24896951      13.43948261      12.90912073
Cs      15.84807673      13.18840857      18.20791136
Cs      21.40103107      14.93402979      12.47647016
Cs      21.08252388      15.05195154      18.20914901
Cs      17.65249268      17.80110343      15.50812320
Cs      17.62372889      17.77999980      10.03243860
Cs      13.07103509      17.75734820      12.91185670
Cs      21.26627777      20.45833545      12.86454512
Cs      16.03144645      22.23273628      12.47623989
Cs      12.71275680      17.45268166      18.21091302
Cs      21.45321693      20.59415125      18.20967808
Cs      16.05275029      21.89376591      18.20977636
Cs      16.24747202      13.43954647      23.50713555
Cs      21.40063373      14.93211766      23.94171065
Cs      17.65237402      17.80086436      20.91083971
Cs      17.62440771      17.77830415      26.38655062
Cs      13.07082733      17.75830897      23.50964212
Cs      21.26712759      20.45660470      23.55474493
Cs      16.03275651      22.23209297      23.94344611
Cs      24.96096532      17.61673581      20.87395102
Cs      24.96088587      17.61847530      15.54415547
Cs      19.65728757      24.82918660      20.87548034
Cs      19.65603603      24.82998101      15.54513497
Cs      19.86310231      10.61818648      15.56727685
Cs      19.86168469      10.61760995      20.85005410
Cs      11.45688647      22.05011947      20.85199768
Cs      11.45631214      22.04938809      15.56849044
Cs      24.85595855      12.33809219      15.59181148
Cs      24.85494605      12.33617245      20.82584055
Cs      14.58429974      26.30425540      15.59233327
Cs      14.58597065      26.30420389      20.82742233
32
Properties=species:S:1:pos:R:3 config_type=qcd gap_pre_relax_energy=-74.90811055224097 gap_pred_energy=-75.28861768733128 gap_fmax_final=0.0009178734480185356 gap_converged=1 pbc="F F F"
Cs      18.71695277      17.58267385      20.57320668
Cs      18.24656508      17.92182154      25.46849475
Cs      20.01362039      13.11768104      22.81677744
Cs      14.46893574      15.01269523      22.95847407
Cs      14.42981536      20.67957642      22.97454296
Cs      19.81875451      22.42602293      22.95891173
Cs      23.36197715      17.75863450      22.81567991
Cs      17.20635470      13.59393067      18.05525474
Cs      15.59795418       9.69793655      15.11023296
Cs      14.42859337      17.68699675      18.06301818
Cs      10.37953414      17.79887363      15.15311544
Cs      17.26802009      21.61886980      18.06235688
Cs      15.88886199      25.42760803      15.15575781
Cs      22.02864681      20.27301778      18.05557667
Cs      25.21965322      23.02570048      15.11130565
Cs      22.81964857      14.62227564      18.04929995
Cs      18.71110561      17.58708135      15.54264713
Cs      18.22816036      17.93565054      10.64940220
Cs      15.60594133       9.69275514      20.99763766
Cs      20.66769236       9.85591960      18.04727401
Cs      10.38694113      17.79327785      20.98203186
Cs      11.83610700      13.11544637      18.06217901
Cs      15.89548846      25.42237941      20.98061492
Cs      11.93748824      22.48723890      18.07069815
Cs      25.22616761      23.02083660      20.99802388
Cs      20.79002024      25.52064398      18.06164808
Cs      26.66524388      18.16436572      18.04803007
Cs      14.45568722      15.02138000      13.16214120
Cs      20.00114229      13.12635656      13.28755711
Cs      14.41808513      20.68862534      13.15758265
Cs      19.80732233      22.43408446      13.16162643
Cs      23.35122327      17.76734790      13.28660439
32
Properties=species:S:1:pos:R:3 config_type=qcd gap_pre_relax_energy=-74.09120288969021 gap_pred_energy=-74.46860607162556 gap_fmax_final=0.0009635628365525271 gap_converged=1 pbc="F F F"
Cs      16.60639597      16.78755972      25.28684685
Cs      10.99530519      21.97000196      18.61434185
Cs      10.53456668      22.99608294      23.73665971
Cs      12.65666448      18.38321523      22.07341896
Cs      18.08282083      20.10758157      28.99242738
Cs      15.69748404      22.03321793      24.27158242
Cs      21.61783349      16.25119752      27.23146655
Cs      16.09211774      22.08225870      17.38355830
Cs      19.34142029      24.14662481      20.95440520
Cs      17.71686141      27.21315289      16.99889951
Cs      13.49235384      17.53339212      16.92896375
Cs      19.60884416      12.92858985      23.55984070
Cs      15.35099686      13.99207292      20.57031562
Cs      18.18033620      18.46588217      20.46193035
Cs      14.08337806      25.65796375      20.76557783
Cs      16.03470461      13.29013533      15.33961523
Cs      22.95544157      26.29722674      17.76197749
Cs      22.67243487      20.88355693      18.13530776
Cs      20.19415411      13.58555982      18.40663608
Cs      20.86266301      20.70428012      24.63845750
Cs      24.66383676      23.47031211      22.35600027
Cs      26.03580742      19.27658875      25.43226794
Cs      27.86725811      24.11549727      18.31289852
Cs      20.09373199      23.35610578      14.23779213
Cs      29.73941040      22.51867732      23.07045200
Cs      18.94281641      17.71880618      15.22480009
Cs      25.24934575      24.23594005      13.51447060
Cs      24.34352942      16.11208175      16.52340075
Cs      22.90637400      16.68758421      21.92948591
Cs      27.44221430      18.74258828      20.33584154
Cs      23.16963216      19.40712430      12.59092428
Cs      27.64580432      19.92567943      15.23597540
33
Properties=species:S:1:pos:R:3 config_type=qcd gap_pre_relax_energy=-77.48948163482454 gap_pred_energy=-77.56284248010392 gap_fmax_final=0.0009532998826941309 gap_converged=1 pbc="F F F"
Cs      16.60052404      13.55522087      12.81385232
Cs      16.50785482      13.42887468      18.21460215
Cs      21.77786780      15.22925264      12.53193302
Cs      21.55700381      15.43576886      18.21433752
Cs      17.81979931      17.92733395      15.50641125
Cs      17.87548471      17.96813936      10.12397840
Cs      13.28470842      18.08138997      12.81478475
Cs      21.54970176      20.65898306      12.94611871
Cs      16.44182715      22.51450443      12.53052700
Cs      13.13531106      18.02929725      18.21573555
Cs      21.81163690      20.84898909      18.21384185
Cs      16.57193538      22.24020744      18.21476197
Cs      16.60325351      13.55479442      23.61518703
Cs      21.78036370      15.22870166      23.89664379
Cs      17.82078238      17.92736291      20.92289965
Cs      17.87879020      17.96762052      26.30537323
Cs      13.28691208      18.08077961      23.61669643
Cs      21.55219356      20.65817443      23.48168931
Cs      16.44431295      22.51400689      23.89912375
Cs      25.42987939      17.96542718      20.87459365
Cs      25.42852063      17.96600552      15.55118664
Cs      20.15297817      25.16878998      20.87636932
Cs      20.15161515      25.16927622      15.55257113
Cs      20.39283379      10.93308669      15.55504106
Cs      20.39442125      10.93287276      20.87223414
Cs      11.93004440      22.48623614      20.87543834
Cs      11.92893503      22.48670442      15.55696577
Cs      12.02606017      13.67951483      20.94678528
Cs      12.02476709      13.67991874      15.48464567
Cs      25.35315417      12.69848628      15.59847629
Cs      25.35486239      12.69791962      20.83028928
Cs      15.10647579      26.68478966      15.59962178
Cs      15.10777215      26.68415306      20.82986709
33
Properties=species:S:1:pos:R:3 config_type=qcd gap_pre_relax_energy=-77.32339564060871 gap_pred_energy=-77.43873495039135 gap_fmax_final=0.0008720282475443068 gap_converged=1 pbc="F F F"
Cs      20.76468477      19.00610173      21.84902437
Cs      20.05257140      19.00462162      27.42262723
Cs      21.42461348      14.41617832      24.21260641
Cs      16.45386736      16.33638626      24.23451109
Cs      16.46500949      21.69409874      24.23465151
Cs      21.44582669      23.58945553      24.21647947
Cs      25.12206565      18.99395923      24.50994031
Cs      18.87350667      14.91423549      19.20535312
Cs      15.82056038      19.01987624      19.37172423
Cs      18.89430936      23.11101378      19.20840140
Cs      24.46892950      21.99885825      19.53110179
Cs      24.45437010      15.99733430      19.52750942
Cs      20.64918238      19.00976605      16.56944961
Cs      20.21597025      10.24508212      21.23898293
Cs      15.15543654      12.03159347      21.46015639
Cs      11.90761278      16.29531082      21.50319603
Cs      11.92115152      21.76841379      21.50134768
Cs      15.19476879      26.01221542      21.46748520
Cs      20.26424524      27.77217340      21.24698673
Cs      22.48470504      11.97539422      16.73897236
Cs      17.25425838      10.34533632      16.76157503
Cs      13.87524632      14.45639814      16.75249461
Cs      11.10551571      19.03355946      16.94464991
Cs      13.90964315      23.59289890      16.75030467
Cs      17.30163984      27.69377777      16.77095781
Cs      22.52208603      26.03404123      16.74502666
Cs      27.52709902      18.99158096      16.59877240
Cs      18.75806438      14.52660952      13.76806638
Cs      15.76793903      19.03114179      14.13058248
Cs      18.78163654      23.50782289      13.77121463
Cs      24.08827815      21.85115045      13.92853757
Cs      24.07355671      16.15258562      13.92676946
Cs      20.42265375      19.01203258      11.32154551
34
Properties=species:S:1:pos:R:3 config_type=qcd gap_pre_relax_energy=-79.8885380102817 gap_pred_energy=-79.94740483496537 gap_fmax_final=0.0009381466721426091 gap_converged=1 pbc="F F F"
Cs      16.79277069      14.14561578      13.27080787
Cs      16.75278758      14.07922233      18.74085594
Cs      22.01052268      15.84342554      13.07279929
Cs      22.03456099      16.05327050      18.74076810
Cs      18.12486192      18.46363640      16.04188670
Cs      18.09678661      18.56132015      10.63355473
Cs      13.53371472      18.67929635      13.37625205
Cs      21.67601346      21.36771893      13.44109179
Cs      16.60613850      23.10242246      13.08948394
Cs      13.38467772      18.63305121      18.74270155
Cs      22.07561589      21.51987050      18.74044892
Cs      16.79329385      22.80770150      18.74145915
Cs      16.79626939      14.14447617      24.21068096
Cs      22.01368976      15.84280910      24.40849741
Cs      18.12580916      18.46328994      21.44043049
Cs      18.10061873      18.55996752      26.84887819
Cs      13.53602043      18.67723176      24.10930631
Cs      21.67804829      21.36715354      24.03980431
Cs      16.60812970      23.10111824      24.39350619
Cs      25.63736115      18.70965132      21.59601838
Cs      25.63581323      18.70964988      15.88310062
Cs      20.31182141      25.83224154      21.39351013
Cs      20.31165957      25.83243194      16.08867844
Cs      20.54838411      11.58239568      16.07168714
Cs      20.55086994      11.58246929      21.40724050
Cs      12.10086146      23.08014181      21.39452121
Cs      12.10078131      23.08217899      16.09282667
Cs      12.26580640      14.27225505      21.46403953
Cs      12.26417311      14.27330233      16.02036123
Cs      25.56866271      13.14392420      16.07425926
Cs      25.57126443      13.14443269      21.40673717
Cs      15.25827952      27.28473134      16.12987255
Cs      15.25774892      27.28287157      21.35261877
Cs      29.07344963      15.97199144      18.73858147
34
Properties=species:S:1:pos:R:3 config_type=qcd gap_pre_relax_energy=-79.26626109025025 gap_pred_energy=-79.46517581526236 gap_fmax_final=0.0009943553756552657 gap_converged=1 pbc="F F F"
Cs      27.38012371      18.49686914      17.51008122
Cs      27.53933420      16.52479525      22.37496780
Cs      26.30874322      20.57093734      12.80607855
Cs      24.70987100      23.30899403      17.09140284
Cs      25.64840229      21.44219484      21.87988610
Cs      24.60307340      13.74002977      18.98942207
Cs      23.99119114      15.99261650      14.28330234
Cs      23.39388556      25.04475356      12.37164858
Cs      25.49689373      19.13477385      26.54859536
Cs      19.41379770      13.53849652      20.38237173
Cs      22.37153177      18.37233762      19.04090407
Cs      22.68792511      15.46726007      24.00049541
Cs      21.12545417      20.38055221      13.56813564
Cs      21.93176747      25.26038721      21.67862068
Cs      21.07045584      27.32516961      16.61247366
Cs      20.71259603      20.42544495      23.63250909
Cs      20.82618086      17.96872437      28.50204043
Cs      19.35427308      22.53678254      18.07121860
Cs      18.18538553      24.87029189      12.95085553
Cs      17.41520219      15.93144228      25.11843156
Cs      16.77616836      20.96995994      27.05930934
Cs      16.95234601      18.32148075      20.10442018
Cs      18.84688530      16.08034770      15.75693885
Cs      15.79406926      11.85968555      16.93324155
Cs      16.42210832      23.46162347      22.36030716
Cs      14.07710057      14.06657414      21.47221940
Cs      13.15115441      18.99758635      23.85533787
Cs      17.78855225      28.22486393      20.61926648
Cs      15.06310539      25.52566972      17.13888622
Cs      12.69634418      21.24130043      19.03652367
Cs      15.83617554      20.54721656      14.76745077
Cs       9.80861087      16.94552598      20.29277476
Cs      13.14384266      16.35855586      16.25639398
Cs      10.58593139      12.17523858      18.04197104
35
Properties=species:S:1:pos:R:3 config_type=qcd gap_pre_relax_energy=-82.06778372520469 gap_pred_energy=-82.36455483226837 gap_fmax_final=0.0009691499589369486 gap_converged=1 pbc="F F F"
Cs      18.10563094      17.99736326      20.62249713
Cs      18.03288873      17.99520902      25.57406156
Cs      19.76285599      13.25975977      22.61810902
Cs      14.22896302      14.82912737      22.58846649
Cs      14.22185095      21.15556864      22.59201171
Cs      19.75293134      22.73716432      22.62298333
Cs      23.06694942      18.00191285      22.64616952
Cs      16.88453480      13.93361712      17.64869302
Cs      15.56374328       9.93752943      14.86221724
Cs      14.00146020      17.99431231      17.78056498
Cs       9.94435607      17.99161340      15.01615407
Cs      16.87549530      22.06221263      17.65265942
Cs      15.54643156      26.05763335      14.87003116
Cs      21.50137851      20.44466789      17.73053148
Cs      24.74992223      22.77723382      14.81542223
Cs      21.50624658      15.56037497      17.72828286
Cs      24.76027738      13.23750261      14.81093633
Cs      18.12625847      17.99996682      14.84665263
Cs      18.14359914      18.00253709       9.88294790
Cs      12.31306365      17.98899312      26.17070321
Cs      15.71902700      10.12598498      20.70210800
Cs      24.74502651      13.22725894      20.67118931
Cs      20.69001033      10.34856825      17.73071449
Cs      10.14429188      17.98906336      20.94195187
Cs      11.69989187      13.23724017      17.83956465
Cs      15.70217200      25.86396137      20.70909359
Cs      11.68965233      22.74698616      17.84407961
Cs      24.73458766      22.78194863      20.67546064
Cs      20.67343524      25.65474581      17.73785504
Cs      26.17576713      18.00744906      17.75780431
Cs      14.06478225      15.19673927      12.88000629
Cs      19.80835960      13.32128162      12.82950005
Cs      14.05855829      20.79693637      12.88239422
Cs      19.79827288      22.68487132      12.83351852
Cs      23.16114541      18.00648283      12.83848208
35
Properties=species:S:1:pos:R:3 config_type=qcd gap_pre_relax_energy=-81.80580048180298 gap_pred_energy=-82.27615831075332 gap_fmax_final=0.0008746373388269769 gap_converged=1 pbc="F F F"
Cs      12.12434060      21.66275033      13.09863053
Cs      17.38200258      22.69873491      11.74571242
Cs      15.71645438      17.74375976      12.41825893
Cs      18.02274996      13.01169259      11.36810232
Cs      20.65007788      17.42215844      10.49282569
Cs      14.58586165      25.78897320      15.13829583
Cs      11.71791637      22.71777882      18.49810876
Cs      15.07745314      13.51938953      15.59817607
Cs      12.07483750      17.75546871      16.76214581
Cs      19.77828856      25.47725602      16.08686608
Cs      23.07304365      12.44447770      12.17383996
Cs      16.38143600      20.80404795      16.66332128
Cs      21.53995793      20.83241470      14.37454011
Cs      19.88459554      16.05228551      16.08346736
Cs      19.69563027      10.76569772      15.91744763
Cs      25.03959333      17.04863647      13.38854729
Cs      11.41656930      13.02555779      19.23446633
Cs      24.33437099      13.36667545      17.24045394
Cs      24.51235457      23.70821357      17.75492030
Cs      16.41925480      25.48956964      20.08810184
Cs      16.19104447      10.77705402      20.09555026
Cs      11.03981771      17.45343273      21.95268032
Cs      16.40727159      16.06196047      20.23201146
Cs      20.05515529      21.16485424      19.73954854
Cs      21.39339484      10.79475427      20.89846897
Cs      21.68285445      26.37346279      21.08858495
Cs      25.09845255      18.62004945      18.34909823
Cs      13.10192255      12.47903543      24.06520324
Cs      15.02598519      20.85379071      22.13817261
Cs      21.59459083      16.02479932      21.04893589
Cs      18.88202784      23.72880546      24.46316586
Cs      14.65526665      17.08604509      25.77106727
Cs      23.85365610      21.49539294      22.92615234
Cs      18.31364587      13.38682563      24.42263501
Cs      19.55401327      18.64008690      24.95838479
36
Properties=species:S:1:pos:R:3 config_type=qcd gap_pre_relax_energy=-84.62988408740983 gap_pred_energy=-84.70096182110068 gap_fmax_final=0.0009413345315543929 gap_converged=1 pbc="F F F"
Cs      19.61213367      18.41525276      22.05947389
Cs      19.68258533      18.60565595      27.31725958
Cs      20.81679624      13.81007450      24.19247026
Cs      15.45349687      16.03689909      24.17271498
Cs      15.91965048      21.79631199      24.19121578
Cs      21.55498007      22.97564724      24.01453987
Cs      24.39503664      18.34678746      23.91925027
Cs      18.17560477      14.41974243      19.14719739
Cs      15.10014542      18.55032339      19.32685716
Cs      18.02515542      22.75084608      19.31399795
Cs      23.04706262      21.26906775      19.19206838
Cs      23.69950362      15.51075568      19.50189413
Cs      19.80052992      18.46545404      16.42393709
Cs      19.59002307       9.73681022      21.09926426
Cs      14.52420044      11.59790581      21.43816986
Cs      11.07011600      15.69185426      21.25293212
Cs      11.35290361      21.21904190      21.57006836
Cs      14.12532685      25.79259249      21.25072268
Cs      19.50052311      27.15571159      21.49335764
Cs      24.75147542      26.06983479      21.16106566
Cs      27.69942821      21.60979577      21.41746368
Cs      21.81459657      11.51788951      16.59360301
Cs      16.57689011       9.92266954      16.67581265
Cs      13.26875320      14.08560466      16.54375825
Cs      10.40661628      18.62200532      16.86532328
Cs      13.27605855      23.11596655      16.58881943
Cs      16.70765352      27.24468523      16.82977788
Cs      21.87500304      25.83924833      16.66206899
Cs      26.97502642      24.08669156      16.66652827
Cs      26.99529695      18.70836270      16.90332645
Cs      18.15028558      14.02220031      13.60051789
Cs      15.01241813      18.56983237      13.99864757
Cs      18.15515666      22.92273725      13.95003980
Cs      23.65523203      21.33106582      13.55666553
Cs      23.52299114      15.83719048      14.03307737
Cs      19.83466380      18.47080489      11.19943234
36
Properties=species:S:1:pos:R:3 config_type=qcd gap_pre_relax_energy=-84.69548283644707 gap_pred_energy=-84.76130116103266 gap_fmax_final=0.0009952467262166118 gap_converged=1 pbc="F F F"
Cs      18.26857485      16.00449465      14.95789951
Cs      18.26655004      15.86431912      20.31926615
Cs      23.52865444      17.67318856      14.70988467
Cs      23.56609849      17.79154324      20.31845635
Cs      19.73695236      20.33652838      17.53844945
Cs      19.64501929      20.36680117      12.19581018
Cs      14.92965441      20.36603689      14.61761016
Cs      23.45978357      23.18431817      14.65735496
Cs      18.24715675      24.71579019      15.01970988
Cs      15.28003998      20.39744806      20.31943442
Cs      23.34716828      23.05885609      20.31921576
Cs      18.20003787      24.96055221      20.31942997
Cs      18.27020875      16.00411208      25.68078542
Cs      23.53025123      17.67415367      25.92689377
Cs      19.73728627      20.33633231      23.09979086
Cs      19.64645991      20.36657870      28.44245100
Cs      14.93059213      20.36544384      26.02135388
Cs      23.46108065      23.18434553      25.98073440
Cs      18.24741279      24.71514981      25.61918998
Cs      27.22682336      20.49586659      23.18820776
Cs      27.22602843      20.49446269      17.44688513
Cs      22.03890130      27.50776231      22.98580425
Cs      22.03962285      27.50761891      17.65339092
Cs      22.07469778      13.35231162      17.64948639
Cs      22.07588271      13.35265209      22.98781836
Cs      13.56769322      24.69717908      22.97797451
Cs      13.56770502      24.69775927      17.66123157
Cs      13.64115675      16.04981144      22.97638154
Cs      13.64010308      16.05041593      17.66334479
Cs      27.10945186      14.92202479      17.65730768
Cs      27.11048510      14.92290975      22.97989291
Cs      27.02997311      25.81426473      17.70263949
Cs      27.02957598      25.81607491      22.93544122
Cs      10.58883603      20.34791330      17.70466414
Cs      10.58937385      20.34685475      22.93467511
Cs      30.63117863      17.74459628      20.31760459
37
Properties=species:S:1:pos:R:3 config_type=qcd gap_pre_relax_energy=-86.98892286180232 gap_pred_energy=-87.20909781949837 gap_fmax_final=0.0009474317534608417 gap_converged=1 pbc="F F F"
Cs      18.63734701      17.61540903      20.24131055
Cs      18.53274555      17.69158972      25.24097880
Cs      20.08506829      12.99841484      22.28971175
Cs      14.58776009      14.63761971      22.36042783
Cs      14.89064273      20.32688806      21.70602427
Cs      10.98882449      23.15022088      23.12787437
Cs      20.20406825      22.39096366      22.35657730
Cs      23.47562726      17.67774032      22.28780420
Cs      17.17819637      13.78201296      17.39430875
Cs      15.93838403      10.02463830      14.47018295
Cs      14.14680279      17.72354505      17.46581438
Cs       9.94317521      17.76611599      14.80804203
Cs      17.13517162      21.84493228      17.46523170
Cs      15.78482275      25.82455411      14.80557606
Cs      21.82467057      20.19197100      17.38981691
Cs      25.00966212      22.53643509      14.46390450
Cs      21.88460724      15.25946735      17.27404761
Cs      25.28350869      12.79342604      14.47008707
Cs      18.35008972      17.81999040      14.50804480
Cs      18.34337257      17.82187114       9.57434786
Cs      12.78508892      18.23174524      25.83010271
Cs      16.22404296      22.98302795      25.82846520
Cs      16.00881627       9.92662145      20.32962409
Cs      25.07549234      12.94757087      20.32085307
Cs      20.96708567      10.11138946      17.36247361
Cs      10.15403275      17.86181715      20.67358945
Cs      11.97674205      12.97449310      17.51383278
Cs      15.75129752      25.59476109      20.67032406
Cs      11.87206624      22.51573998      17.43395113
Cs      25.12452809      22.50302758      20.32428313
Cs      20.97328841      25.38590666      17.50741016
Cs      26.49232025      17.73235178      17.35861756
Cs      14.42064932      14.82623494      12.58957473
Cs      19.84074151      13.05014555      12.47477481
Cs      14.38010493      20.69627471      12.61210369
Cs      19.97134966      22.48369593      12.58611237
Cs      23.34595250      17.88553733      12.47194044
37
Properties=species:S:1:pos:R:3 config_type=qcd gap_pre_relax_energy=-87.17906054323512 gap_pred_energy=-87.26591521417187 gap_fmax_final=0.0009960778114582256 gap_converged=1 pbc="F F F"
Cs      17.95368658      15.96450014      14.97586524
Cs      17.99511752      15.83439758      20.31321110
Cs      23.16630038      17.49906888      14.65389217
Cs      23.39520640      17.69192040      20.31323487
Cs      19.57644098      20.31244331      17.54616804
Cs      19.36451595      20.31178923      12.17548432
Cs      14.67637763      20.30131102      14.65041973
Cs      23.15520107      23.13936414      14.65274666
Cs      17.93545652      24.65281924      14.97595579
Cs      15.04883393      20.30221483      20.31445677
Cs      23.38427472      22.94724001      20.31269195
Cs      17.97595249      24.78325228      20.31294523
Cs      17.95377410      15.96544604      25.65030514
Cs      23.16703896      17.49925957      25.97274889
Cs      19.57699627      20.31272871      23.08049969
Cs      19.36603859      20.31239353      28.45141860
Cs      14.67690144      20.30195048      25.97886732
Cs      23.15570022      23.14016228      25.97296849
Cs      17.93567191      24.65308545      25.65018623
Cs      26.90653701      20.32724046      23.42896013
Cs      26.90654398      20.32687913      17.19677895
Cs      21.70943913      27.38757184      22.97750819
Cs      21.70952314      27.38712566      17.64835095
Cs      21.73913595      13.24495096      17.64849806
Cs      21.73901917      13.24527648      22.97830557
Cs      13.30539063      24.62200827      22.96076602
Cs      13.30555409      24.62212661      17.66563273
Cs      13.32380119      15.97581358      22.96089454
Cs      13.32441301      15.97450430      17.66572547
Cs      26.78911272      14.74074688      17.63526176
Cs      26.78920592      14.74091046      22.99114457
Cs      26.76659105      25.91183087      17.63478335
Cs      26.76638772      25.91241659      22.98979642
Cs      30.21046404      22.99198055      20.31275770
Cs      30.22212690      17.67490742      20.31303470
Cs      10.31117010      20.29281042      22.92835567
Cs      10.31262201      20.29207585      17.70590240
38
Properties=species:S:1:pos:R:3 config_type=qcd gap_pre_relax_energy=-89.7340454293305 gap_pred_energy=-89.80902489480138 gap_fmax_final=0.0008645306615340754 gap_converged=1 pbc="F F F"
Cs      20.74285259      20.74285259      18.09929489
Cs      26.05915658      20.75852369      18.09929489
Cs      20.75852369      26.05915658      18.09929489
Cs      15.45573718      20.74285259      18.09929489
Cs      10.13943319      20.75852369      18.09929489
Cs      15.44006608      26.05915658      18.09929489
Cs      15.45573718      15.45573718      18.09929489
Cs      10.13943319      15.44006608      18.09929489
Cs      15.44006608      10.13943319      18.09929489
Cs      20.74285259      15.45573718      18.09929489
Cs      26.05915658      15.44006608      18.09929489
Cs      20.75852369      10.13943319      18.09929489
Cs      18.09929489      18.09929489      21.81495250
Cs      23.82438467      18.09929489      22.13750424
Cs      12.37420510      18.09929489      22.13750424
Cs      18.09929489      23.82438467      22.13750424
Cs      18.09929489      12.37420510      22.13750424
Cs      23.40791942      23.40791942      21.83244869
Cs      12.79067036      23.40791942      21.83244869
Cs      12.79067036      12.79067036      21.83244869
Cs      23.40791942      12.79067036      21.83244869
Cs      18.09929489      18.09929489      14.38363728
Cs      23.82438467      18.09929489      14.06108554
Cs      12.37420510      18.09929489      14.06108554
Cs      18.09929489      23.82438467      14.06108554
Cs      18.09929489      12.37420510      14.06108554
Cs      23.40791942      23.40791942      14.36614108
Cs      12.79067036      23.40791942      14.36614108
Cs      12.79067036      12.79067036      14.36614108
Cs      23.40791942      12.79067036      14.36614108
Cs      20.74454208      20.74454208      25.58695659
Cs      15.45404769      20.74454208      25.58695659
Cs      15.45404769      15.45404769      25.58695659
Cs      20.74454208      15.45404769      25.58695659
Cs      20.74454208      20.74454208      10.61163319
Cs      15.45404769      20.74454208      10.61163319
Cs      15.45404769      15.45404769      10.61163319
Cs      20.74454208      15.45404769      10.61163319
38
Properties=species:S:1:pos:R:3 config_type=qcd gap_pre_relax_energy=-89.26900123031012 gap_pred_energy=-89.48918576756981 gap_fmax_final=0.0009638868601156314 gap_converged=1 pbc="F F F"
Cs      22.88513449      22.62510568      15.29815655
Cs      15.51071991      16.86079598      21.89120422
Cs      20.05185907      18.70178257      21.89120890
Cs      17.76341782      20.23076156      13.67116098
Cs      16.94872430      21.09847677      18.57240766
Cs      12.79439694      22.30447582      15.08517992
Cs      14.95908070      22.73873301      10.30090486
Cs      21.17355315      18.28710507      16.99010528
Cs      24.58068370      20.64422245      20.76761222
Cs      22.65834041      17.95514989      11.91374649
Cs      16.07502649      22.35345018      23.65125668
Cs      15.25834345      11.22189170      20.25965832
Cs      14.38903393      17.27548720      16.99011497
Cs      12.67744224      12.93746701      15.29815490
Cs      17.78128962      17.78128939      26.60010503
Cs      10.98189563      14.91835632      20.76761237
Cs      22.76818324      13.25810203      15.08517959
Cs      19.48755103      13.20912879      23.65125557
Cs      23.44106072      17.07018282      25.26042300
Cs      12.90423785      17.60743022      11.91374536
Cs      17.78128954      17.78128926       8.96360469
Cs      20.60349742      12.82384586      10.30090487
Cs      17.74033570      10.40473004      14.79692742
Cs       9.48316151      17.76386315      15.96493481
Cs      26.07941525      17.79871683      15.96493518
Cs      23.87201079      14.90302880      20.47550733
Cs      17.79916131      15.33181727      13.67115629
Cs      17.82224346      25.15784843      14.79692728
Cs      14.62098932      25.44100176      19.59912005
Cs      14.38600370      13.15715847      25.12769483
Cs      11.69056954      20.65954923      20.47550700
Cs      18.61384526      14.46408938      18.57241735
Cs      20.94158767      10.12157867      19.59911966
Cs      20.30424029      24.34069151      20.25965995
Cs      21.17657557      22.40541984      25.12769466
Cs      12.12151784      18.49239672      25.26042301
Cs      14.80861563      12.87211854      10.43663568
Cs      20.75396391      22.69046017      10.43663546
39
Properties=species:S:1:pos:R:3 config_type=qcd gap_pre_relax_energy=-92.11679891208992 gap_pred_energy=-92.19326818077553 gap_fmax_final=0.0009170411927316255 gap_converged=1 pbc="F F F"
Cs      22.15484320      22.15484320      19.44771893
Cs      27.54314954      22.19594495      19.23749996
Cs      22.19594495      27.54314954      19.23749996
Cs      16.94821837      22.15484320      19.44771892
Cs      11.55991203      22.19594495      19.23749996
Cs      16.90711663      27.54314954      19.23749996
Cs      16.94821837      16.94821837      19.44771892
Cs      11.55991203      16.90711663      19.23749996
Cs      16.90711663      11.55991203      19.23749996
Cs      22.15484320      16.94821837      19.44771892
Cs      27.54314954      16.90711663      19.23749996
Cs      22.19594495      11.55991203      19.23749996
Cs      19.55153079      19.55153079      23.34358511
Cs      25.33530782      19.55153079      23.30460465
Cs      13.76775375      19.55153079      23.30460465
Cs      19.55153079      25.33530782      23.30460465
Cs      19.55153079      13.76775375      23.30460465
Cs      24.98814585      24.98814585      22.87260035
Cs      14.11491573      24.98814585      22.87260035
Cs      14.11491573      14.11491573      22.87260035
Cs      24.98814585      14.11491573      22.87260035
Cs      19.55153079      19.55153079      15.57519547
Cs      25.14484976      19.55153079      15.28871676
Cs      13.95821181      19.55153079      15.28871676
Cs      19.55153079      25.14484976      15.28871676
Cs      19.55153079      13.95821181      15.28871676
Cs      24.82179124      24.82179124      15.57423197
Cs      14.28127033      24.82179124      15.57423197
Cs      14.28127033      14.28127033      15.57423197
Cs      24.82179124      14.28127033      15.57423197
Cs      22.39588103      22.39588103      26.68921818
Cs      16.70718054      22.39588103      26.68921818
Cs      16.70718054      16.70718054      26.68921818
Cs      22.39588103      16.70718054      26.68921818
Cs      22.19066157      22.19066157      11.73708538
Cs      16.91240000      22.19066157      11.73708538
Cs      16.91240000      16.91240000      11.73708538
Cs      22.19066157      16.91240000      11.73708538
Cs      19.55153079      19.55153079      30.03421556
39
Properties=species:S:1:pos:R:3 config_type=qcd gap_pre_relax_energy=-91.641551349199 gap_pred_energy=-91.89943401853866 gap_fmax_final=0.0009328334449313781 gap_converged=1 pbc="F F F"
Cs      23.42855218      14.17615187      16.61552061
Cs      19.02255746      22.44113836      14.54841763
Cs      10.25188317      21.05723285      17.79211327
Cs      23.56522986      27.64089122      20.74290001
Cs      23.14846363      18.24015681      25.54038125
Cs      14.58943848      14.18092989      17.38898041
Cs      10.41231203      16.01492142      20.54548617
Cs      14.97734107      28.31799208      20.43322890
Cs      18.83969165      12.92886517      14.07887969
Cs      19.27594432      26.94681254      17.77634198
Cs      14.43538430      23.53457455      22.54011266
Cs      22.97920604      14.78042964      11.39505716
Cs      18.83227669      22.16681013      19.81358190
Cs      14.88562871      14.04389340      22.73323180
Cs      14.45707563      19.63781266      14.46039945
Cs      18.67510328      21.79150831      25.51040770
Cs      27.96774946      15.51483340      19.11766308
Cs      23.59111197      23.75694664      17.08881518
Cs      27.44049796      19.43021932      22.58231375
Cs      19.08685524      17.54828246      22.23558913
Cs      14.59637727      18.95950984      19.72661834
Cs      23.34645290      18.83622171      19.20953367
Cs      19.05187559      26.53555546      23.19241827
Cs      19.23204466      12.89977984      19.60808307
Cs      14.52482018      24.16932283      17.23853287
Cs      10.08942035      20.62948926      22.96000287
Cs      23.11170572      22.76585953      22.76271244
Cs      18.88213091      17.45978783      16.67313736
Cs      23.80457001      14.27597291      22.11061378
Cs      27.62956045      24.27437695      20.55541323
Cs      18.71730694      17.84860166      11.49387752
Cs      23.37519364      19.41546789      13.88367948
Cs      14.33190719      18.60604572      25.18367510
Cs      14.38768516      14.92189565      12.16764982
Cs      10.33759602      16.45386391      15.31591433
Cs      27.49460176      16.14398429      13.91398873
Cs      27.87557481      20.40618412      17.01967217
Cs      18.57067743      17.10084631      27.89626950
Cs      19.58447034      12.95310602      24.95506019
40
Properties=species:S:1:pos:R:3 config_type=qcd gap_pre_relax_energy=-94.49507577051145 gap_pred_energy=-94.57144162270623 gap_fmax_final=0.0008540131406147675 gap_converged=1 pbc="F F F"
Cs      24.06188624      24.06188624      21.46057165
Cs      29.61191341      24.09113978      21.46057165
Cs      24.09113978      29.61191341      21.46057165
Cs      18.85925707      24.06188624      21.46057165
Cs      13.30922990      24.09113978      21.46057165
Cs      18.83000353      29.61191341      21.46057165
Cs      18.85925707      18.85925707      21.46057165
Cs      13.30922990      18.83000353      21.46057165
Cs      18.83000353      13.30922990      21.46057165
Cs      24.06188624      18.85925707      21.46057165
Cs      29.61191341      18.83000353      21.46057165
Cs      24.09113978      13.30922990      21.46057165
Cs      21.46057165      21.46057165      25.37760276
Cs      27.21352331      21.46057165      25.38656610
Cs      15.70762000      21.46057165      25.38656609
Cs      21.46057165      27.21352331      25.38656610
Cs      21.46057165      15.70762000      25.38656609
Cs      26.87726909      26.87726909      24.93701194
Cs      16.04387422      26.87726909      24.93701194
Cs      16.04387422      16.04387422      24.93701193
Cs      26.87726909      16.04387422      24.93701194
Cs      21.46057165      21.46057165      17.54354055
Cs      27.21352330      21.46057165      17.53457720
Cs      15.70762000      21.46057165      17.53457721
Cs      21.46057165      27.21352330      17.53457720
Cs      21.46057165      15.70762000      17.53457721
Cs      26.87726909      26.87726909      17.98413136
Cs      16.04387422      26.87726909      17.98413136
Cs      16.04387422      16.04387422      17.98413137
Cs      26.87726909      16.04387422      17.98413136
Cs      24.29435459      24.29435459      28.78205786
Cs      18.62678871      24.29435459      28.78205785
Cs      18.62678871      18.62678871      28.78205785
Cs      24.29435459      18.62678871      28.78205785
Cs      24.29435460      24.29435460      14.13908545
Cs      18.62678871      24.29435460      14.13908545
Cs      18.62678871      18.62678871      14.13908546
Cs      24.29435460      18.62678871      14.13908545
Cs      21.46057165      21.46057165      32.14713310
Cs      21.46057165      21.46057165      10.77401020
40
Properties=species:S:1:pos:R:3 config_type=qcd gap_pre_relax_energy=-93.69391187110655 gap_pred_energy=-94.3385297875878 gap_fmax_final=0.0009884265708138956 gap_converged=1 pbc="F F F"
Cs      18.59312341      17.70183290      19.87227983
Cs      18.13254575      18.24507671      24.99915408
Cs      20.03338879      12.94253544      21.61442710
Cs      14.49924953      14.83862869      21.88465530
Cs      14.67112702      20.57367378      21.17275034
Cs      10.48290973      23.25478381      22.32114188
Cs      19.90650362      22.72255011      21.69650279
Cs      23.52258602      17.59081151      21.51005046
Cs      17.02543560      13.86743455      16.78452405
Cs      15.50478075       9.98352898      13.89200665
Cs      14.15376275      17.88843276      16.98879965
Cs      10.11670129      18.05842147      14.16560289
Cs      16.96214346      22.05284720      16.86735240
Cs      15.54278222      26.01445244      14.18890447
Cs      21.73943394      20.34051569      16.82174634
Cs      25.07415307      22.89571333      14.05893182
Cs      21.81789900      15.25627060      16.59104710
Cs      25.01846419      12.90483863      13.42928277
Cs      18.26373560      17.94559486      14.17572683
Cs      18.21338249      18.11423236       9.31876622
Cs      17.30162091      13.21615857      26.00866184
Cs      22.21691161      15.14739249      25.94114272
Cs      12.32623810      18.47351252      25.20348253
Cs      15.50184875      23.43520945      25.37922123
Cs      22.77944008      20.66598519      25.55515607
Cs      15.85569513      10.04643736      19.74417876
Cs      25.32865511      12.59876469      19.25988490
Cs      20.73590796      10.17071804      16.51135764
Cs      10.00221986      17.91842670      19.91680487
Cs      11.81671752      13.30976657      17.00757631
Cs      15.29621617      25.79739683      20.02378878
Cs      11.61985117      22.56104836      16.69182784
Cs      24.94025525      22.53906867      19.99402169
Cs      20.73591596      25.51118202      17.01665643
Cs      26.39710212      17.75142212      16.52856334
Cs      14.09763354      15.28524895      12.02205085
Cs      19.56233521      13.47563238      11.68512434
Cs      14.13244737      20.84671338      11.99775269
Cs      19.65779093      22.58312320      11.99073290
Cs      22.97530907      18.02883681      11.72258137
41
Properties=species:S:1:pos:R:3 config_type=qcd gap_pre_relax_energy=-96.8038936574835 gap_pred_energy=-96.91126519609902 gap_fmax_final=0.0009393019708512047 gap_converged=1 pbc="F F F"
Cs      19.03338352      18.89738136      21.76680322
Cs      19.37954101      18.71578029      26.99118750
Cs      21.00174317      14.33109607      23.63318247
Cs      15.39307084      15.73466223      23.89113688
Cs      15.26717431      21.67369958      24.04964150
Cs      20.96157942      23.35696051      23.85112616
Cs      23.93739792      18.79985635      23.73415209
Cs      17.78410387      14.59939407      18.79217185
Cs      14.68355466      18.79774330      19.01981362
Cs      17.78816522      23.11878582      19.02545360
Cs      22.81950435      21.43758749      18.77682925
Cs      22.79772322      16.13868543      18.75879089
Cs      19.20366868      18.90891137      15.98381820
Cs      11.24908675      18.61519282      25.22871563
Cs      16.95677092      26.43319967      25.21684060
Cs      24.44377456      11.51277077      20.76060691
Cs      19.26617328      10.12375281      20.94780460
Cs      14.00324601      11.62073041      20.88403326
Cs      10.80266144      15.85876773      20.84529266
Cs      10.78446564      21.62068804      20.96611736
Cs      13.92527533      25.98442039      20.97438156
Cs      19.41712841      27.73208486      20.82245629
Cs      24.44835251      25.96177675      20.85179949
Cs      27.56931592      21.44681348      20.94245818
Cs      27.50308510      16.07194794      20.94746336
Cs      21.58141693      11.44583731      16.15084098
Cs      16.39779300      10.06233044      16.38156799
Cs      13.01002216      14.25727221      16.10552185
Cs      10.06892019      18.80801564      16.48581497
Cs      13.02812109      23.29861044      16.21670015
Cs      16.35155718      27.50681912      16.48733275
Cs      21.60256266      26.02463656      16.15334458
Cs      26.68392606      24.10624070      16.33554370
Cs      27.06652764      18.78361811      16.25087143
Cs      26.63835776      13.45938748      16.29836350
Cs      17.78108978      14.32689272      13.42301598
Cs      14.53059146      18.78331233      13.50457332
Cs      17.79322536      23.34314282      13.42716022
Cs      23.07089984      21.70461826      13.24360621
Cs      22.95593145      15.94773220      13.34532549
Cs      19.26566071      18.89539345      10.77488912
42
Properties=species:S:1:pos:R:3 config_type=qcd gap_pre_relax_energy=-99.20420091231125 gap_pred_energy=-99.29194519984436 gap_fmax_final=0.0007731259286154019 gap_converged=1 pbc="F F F"
Cs      19.25275673      17.70185317      15.60410407
Cs      19.19568338      17.59521852      21.06460214
Cs      24.36253594      19.28087127      15.61108103
Cs      24.45871663      19.06922413      21.06372806
Cs      20.70975312      22.13231456      18.29867942
Cs      20.65342068      22.19908104      12.86343756
Cs      15.99152778      22.08407248      15.45645711
Cs      24.51801548      24.81844061      15.40145575
Cs      19.25363961      26.48686264      15.64036610
Cs      16.06789505      21.83204395      21.06468314
Cs      24.59414527      24.50719322      21.06515406
Cs      19.26049507      26.45511276      21.06505290
Cs      19.25287974      17.70015090      26.52467405
Cs      24.36241590      19.27937447      26.51658068
Cs      20.70984238      22.13160053      23.83054678
Cs      20.65416904      22.19721831      29.26588927
Cs      15.99220916      22.08263778      26.67298926
Cs      24.51873804      24.81731842      26.72893468
Cs      19.25435074      26.48557396      26.48971145
Cs      28.22809272      21.96687040      24.02542922
Cs      28.22795249      21.96766097      18.10346479
Cs      23.04574964      29.01643056      23.71870961
Cs      23.04506895      29.01730521      18.41156327
Cs      22.96985979      14.73155163      18.18498111
Cs      22.96949396      14.73068436      23.94153264
Cs      14.68117366      26.37666422      23.71906236
Cs      14.68088072      26.37742100      18.41158859
Cs      14.55977840      17.60546722      24.01043815
Cs      14.55974320      17.60623250      18.11833035
Cs      28.17498567      16.54781041      18.33350070
Cs      28.17479135      16.54716564      23.79367598
Cs      28.08176640      27.47468388      18.41481194
Cs      28.08250880      27.47382181      23.71648082
Cs      17.84345278      13.24645214      18.42736251
Cs      17.84294417      13.24566113      23.70106758
Cs      11.49492031      22.17855207      18.41877600
Cs      11.49518578      22.17781035      23.71130278
Cs      31.71422210      19.32728800      21.06404029
Cs      31.65757789      24.65527026      21.06469455
Cs      26.63952579      12.35913008      21.06307392
Cs      10.20168237      17.80463290      21.06445866
Cs      13.27572709      13.41954433      21.06380038
43
Properties=species:S:1:pos:R:3 config_type=qcd gap_pre_relax_energy=-101.69680826338708 gap_pred_energy=-101.80428577830438 gap_fmax_final=0.0009088808372284291 gap_converged=1 pbc="F F F"
Cs      19.21870188      17.98256047      15.64717980
Cs      19.32672744      17.64730790      21.06459072
Cs      24.35315433      19.61999229      15.64664215
Cs      24.46176614      19.28557639      21.06457310
Cs      20.65218897      22.36129254      18.34328807
Cs      20.62137509      22.45759421      12.81585233
Cs      15.96252929      22.32300214      15.43705449
Cs      24.49742415      25.04733709      15.43349258
Cs      19.26069292      26.72216752      15.64070493
Cs      16.07061313      21.98601723      21.06619257
Cs      24.60375594      24.71064552      21.06385391
Cs      19.26913922      26.69358736      21.06408076
Cs      19.21933266      17.98317474      26.48183799
Cs      24.35385672      19.62004449      26.48257333
Cs      20.65289525      22.36158839      23.78581607
Cs      20.62218132      22.45810687      29.31311800
Cs      15.96209374      22.32267613      26.69453171
Cs      24.49754825      25.04757717      26.69478726
Cs      19.25949731      26.72160823      26.48743649
Cs      28.29636701      22.23132361      24.03730398
Cs      28.29644716      22.23114750      18.09104865
Cs      23.05421801      29.25798246      23.71527048
Cs      23.05515787      29.25799020      18.41397639
Cs      22.99275548      15.01908008      18.06910915
Cs      22.99302037      15.01922851      24.06014742
Cs      14.69660373      26.59077999      23.71449910
Cs      14.69775703      26.59292260      18.41283005
Cs      14.49166089      17.82625678      24.03782574
Cs      14.49171066      17.82676903      18.09260412
Cs      28.18846710      16.80471449      18.34882420
Cs      28.18873012      16.80474469      23.78004025
Cs      28.08953995      27.71157297      18.41924156
Cs      28.08876359      27.71195201      23.70782930
Cs      17.72175450      13.46689681      18.35008950
Cs      17.72199172      13.46701728      23.77946780
Cs      11.49009892      22.41569399      18.42255349
Cs      11.48888777      22.41328374      23.71217104
Cs      31.75616286      19.57596459      21.06423769
Cs      31.69994430      24.92461918      21.06420619
Cs      26.57856019      12.59898890      21.06450612
Cs      21.47067528      10.96978500      21.06472965
Cs      10.15703437      18.05126618      21.06506351
Cs      13.20827532      13.65822071      21.06487636
44
Properties=species:S:1:pos:R:3 config_type=qcd gap_pre_relax_energy=-104.1098229008534 gap_pred_energy=-104.19406330479211 gap_fmax_final=0.0009014234852966367 gap_converged=1 pbc="F F F"
Cs      19.52206703      18.51876332      21.11749478
Cs      19.70469260      19.06352457      26.18770200
Cs      21.30652172      14.21123635      23.40720637
Cs      15.64494314      15.89329906      23.58725205
Cs      15.78934879      21.57162700      22.60528315
Cs      21.24861210      23.25875515      23.34057862
Cs      24.28597445      18.79913921      23.23881737
Cs      18.17648829      14.38872147      18.53361566
Cs      15.01313813      18.58396345      18.38299377
Cs      18.28431986      23.19384022      18.37107962
Cs      23.15851005      21.39077078      18.23853602
Cs      23.08715127      16.14208564      18.25119895
Cs      19.34277522      18.88046355      15.45100513
Cs      15.41966596      21.70277109      27.78671982
Cs      17.30910988      11.10271558      24.70053471
Cs      11.67260775      19.06956051      24.99210964
Cs      11.86439691      24.50531644      24.84484312
Cs      17.06733113      26.03955915      25.02135454
Cs      24.71498570      11.62400254      20.31959364
Cs      19.72853164       9.76812339      20.29635168
Cs      14.25224943      11.60445283      20.48679939
Cs      11.16643166      16.00942738      20.64212392
Cs      10.82626382      21.69669485      20.40195789
Cs      14.16942811      26.38107061      20.43896368
Cs      19.62612128      27.63949668      20.59767651
Cs      24.69637818      25.94841157      20.36894301
Cs      27.88361136      21.48002673      20.41171707
Cs      27.84304884      16.10901489      20.39259758
Cs      21.97188480      11.45555214      15.57624364
Cs      16.66940244      10.10324772      15.94931500
Cs      13.15337624      14.15272518      15.80354028
Cs      10.34280914      18.65343335      16.02970423
Cs      13.57501534      23.13180655      15.92939200
Cs      16.85068537      27.60961560      15.99107279
Cs      22.00756136      26.30538239      15.73070877
Cs      26.93202248      24.16477221      15.81789340
Cs      27.33701226      18.78579937      15.66320354
Cs      26.98912339      13.42862805      15.81423414
Cs      18.18531236      14.34091990      13.00275977
Cs      14.63594485      18.88312923      12.79789461
Cs      17.93656989      23.38076592      12.82468437
Cs      23.37049937      21.48211477      12.88548213
Cs      23.32309185      16.08549312      12.93787411
Cs      19.35193530      18.89673125      10.26789828
45
Properties=species:S:1:pos:R:3 config_type=qcd gap_pre_relax_energy=-106.4845116429408 gap_pred_energy=-106.62992160690277 gap_fmax_final=0.0008269437558808445 gap_converged=1 pbc="F F F"
Cs      19.57429641      16.59787066      15.95267880
Cs      19.35270772      16.67748441      21.39151183
Cs      24.67977611      18.05257077      15.23379018
Cs      24.57487232      18.18666313      20.84078764
Cs      21.07483020      21.12103800      18.27305165
Cs      20.88325649      20.94528865      12.88308914
Cs      16.17540692      20.85848353      15.36561438
Cs      24.66279755      23.71381957      15.33862138
Cs      19.20730360      25.29167883      15.62807763
Cs      16.35501542      20.87585360      20.74367325
Cs      24.82795426      23.74694921      21.06594014
Cs      19.48318751      25.32353466      21.29223907
Cs      19.27537625      16.50990989      26.77088660
Cs      24.45236123      17.93350666      26.50024568
Cs      21.11546585      21.06107828      23.86167333
Cs      20.89154379      20.93353903      29.25048320
Cs      16.35229036      21.11283469      26.18416907
Cs      24.74301029      23.60237842      26.79498140
Cs      19.39342530      25.46473156      26.90353271
Cs      28.16149380      20.71666243      23.92805742
Cs      28.24612992      20.82698761      18.07244362
Cs      23.17920149      27.92634773      24.05939446
Cs      23.04601263      27.88325540      18.20456376
Cs      23.30634800      13.65216947      18.49614512
Cs      22.86835344      13.51724949      23.73804138
Cs      14.78425782      25.59916988      23.64023522
Cs      14.51239920      25.22924324      18.39826367
Cs      14.62258515      16.59431082      23.98955446
Cs      14.73605022      16.43043583      18.14406127
Cs      28.31055723      15.35570385      18.03332115
Cs      27.93097713      15.12001488      23.32090703
Cs      28.38137692      26.29108580      18.24246265
Cs      28.39172976      26.27732178      23.88921002
Cs      17.67599626      29.49280905      18.81330229
Cs      18.02616359      29.77268510      24.10193088
Cs      18.20736834      12.20821305      18.95520716
Cs      17.73892525      12.14709095      24.19446815
Cs      11.54773927      20.82456201      17.93923138
Cs      11.75582917      21.25155424      23.17845565
Cs      31.66806297      18.06011566      21.04650293
Cs      31.72428652      23.37877480      21.07814411
Cs      26.72379286      30.38430353      21.05324218
Cs      21.67673132      32.06399740      21.08655379
Cs      10.30298506      16.68313898      20.97736918
Cs      13.41528467      12.31909897      21.15939956
46
Properties=species:S:1:pos:R:3 config_type=qcd gap_pre_relax_energy=-109.05834653977729 gap_pred_energy=-109.1472852774783 gap_fmax_final=0.000999881400255126 gap_converged=1 pbc="F F F"
Cs      20.04454009      19.00762114      20.68122018
Cs      19.96800706      19.00763214      25.82029249
Cs      21.53156137      14.60316504      23.08597823
Cs      16.06871112      16.38479660      22.45323688
Cs      16.06871106      21.63045314      22.45322569
Cs      21.53156126      23.41208758      23.08595936
Cs      24.67995603      19.00762595      22.90037760
Cs      18.46178758      14.64042468      18.13034484
Cs      15.19772473      19.00761504      17.78591309
Cs      18.46178757      23.37480665      18.13032607
Cs      23.40178824      21.63567717      17.91317058
Cs      23.40178831      16.37955332      17.91318184
Cs      19.63126929      19.00760894      15.04937349
Cs      15.79674855      16.31853547      27.66438249
Cs      15.79674848      21.69673662      27.66437099
Cs      17.32733860      11.87447104      24.79783020
Cs      12.21995921      13.58309426      24.72438645
Cs      11.86634981      19.00763020      24.96922234
Cs      12.21995908      24.43216510      24.72436319
Cs      17.32733841      26.14078881      24.79779966
Cs      24.94181614      11.87394992      20.08939518
Cs      19.85371090      10.22450044      20.37343483
Cs      14.40432194      11.51419404      20.28795293
Cs      11.17719388      16.29687887      20.24533388
Cs      11.17719360      21.71836132      20.24532231
Cs      14.40432178      26.50104631      20.28792081
Cs      19.85371067      27.79074052      20.37339720
Cs      24.94181594      26.14128994      20.08936461
Cs      28.19135055      21.69820371      19.99051483
Cs      28.19135062      16.31703581      19.99052636
Cs      22.20753533      11.51431351      15.45794102
Cs      17.01382218      10.24783662      15.78801571
Cs      13.64993348      14.53100017      15.42628005
Cs      10.56833789      19.00761008      15.52197970
Cs      13.64993320      23.48421962      15.42626064
Cs      17.01382194      27.76738464      15.78797817
Cs      22.20753514      26.50090647      15.45790889
Cs      27.14803531      24.43848030      15.47913155
Cs      27.51318495      19.00760965      15.27870095
Cs      27.14803544      13.57673988      15.47915480
Cs      18.18383366      14.53273265      12.62456198
Cs      14.84959150      19.00760316      12.29850918
Cs      18.18383363      23.48247494      12.62454300
Cs      23.61804558      21.72146333      12.54317616
Cs      23.61804573      16.29374415      12.54318768
Cs      19.63645998      19.00759794       9.89495878
47
Properties=species:S:1:pos:R:3 config_type=qcd gap_pre_relax_energy=-111.18524038206378 gap_pred_energy=-111.29422193680307 gap_fmax_final=0.0009903525928062619 gap_converged=1 pbc="F F F"
Cs      27.57888354      17.13830174      19.70125197
Cs      22.81463166      18.76656791      17.15655544
Cs      22.86216360      18.16250159      27.76545763
Cs      10.33473400      22.12576914      18.09833073
Cs      25.71633102      22.05740799      25.49346827
Cs      27.46522691      17.01707684      25.04821679
Cs      20.33258842      22.79147171      20.26760086
Cs      20.11063472      14.46350356      25.14058610
Cs      17.73516191      26.61071037      23.54883681
Cs      30.05176165      21.37634779      17.37713627
Cs      12.86497399      17.70125142      25.54143891
Cs      15.32604599      13.73267325      22.23866655
Cs      15.14633286      22.69558447      21.07878148
Cs      20.23879225      23.26007760      15.01718122
Cs      28.45669492      26.37835597      17.81036586
Cs      12.69031413      18.46822712      15.00237682
Cs      19.85759591      15.27279828      14.38422191
Cs      14.94281433      23.23277285      15.69217608
Cs      22.82218768      18.36206920      22.42514093
Cs      25.56542879      22.98510919      14.80437123
Cs      17.28231112      19.45936877      12.58307340
Cs      17.56729235      18.99927376      17.83094559
Cs      15.02562876      22.51711535      26.45179939
Cs      10.46133066      21.87794162      23.33704116
Cs      24.51209221      13.72316649      16.90560921
Cs      25.53458147      22.41790173      20.12555624
Cs      30.15329200      20.88121395      22.59570768
Cs      23.17821096      26.30019429      23.41590204
Cs      12.60282367      17.83607093      20.24565373
Cs      26.03294132      29.96764545      20.85402441
Cs      12.51917759      26.58964944      24.29762932
Cs      23.14082802      26.95457003      17.63100420
Cs      28.55556558      25.86929088      23.01981217
Cs      20.25423145      22.30220639      25.48987276
Cs      12.52629709      26.78452753      19.10701275
Cs      22.55658137      19.43925465      11.97627266
Cs      17.61683559      18.31437147      28.34534482
Cs      20.73368986      30.29915237      21.05459349
Cs      24.64437364      13.31444951      22.21888121
Cs      24.66617267      13.25119920      27.47692881
Cs      15.29558251      14.31878547      16.95277789
Cs      27.31772704      17.92751610      14.40827965
Cs      17.75965563      26.99192205      18.25642144
Cs      15.51919998      13.61550921      27.47720746
Cs      17.49458189      18.51335033      23.06810972
Cs      19.98797886      14.58121751      19.72713614
Cs      24.32790055      14.53473971      11.73542290
48
Properties=species:S:1:pos:R:3 config_type=qcd gap_pre_relax_energy=-113.8017506269835 gap_pred_energy=-113.95668227811265 gap_fmax_final=0.0009554536399746562 gap_converged=1 pbc="F F F"
Cs      19.72357976      18.53771043      20.24411486
Cs      19.76720844      18.47689234      25.44553174
Cs      21.19019087      14.12134218      22.61521193
Cs      15.74328827      16.02516504      22.02340953
Cs      15.82469211      21.24900619      22.19873649
Cs      20.83510853      23.13282234      22.05969136
Cs      24.35268608      18.48062133      22.61216379
Cs      18.13146746      14.31487505      17.68234100
Cs      14.85803725      18.75780599      17.42272124
Cs      17.99442874      23.01970722      17.40489332
Cs      23.21705594      21.24542251      17.63099470
Cs      23.09675678      16.02999061      17.48145981
Cs      19.34881549      18.71837784      14.63158061
Cs      15.46776836      16.00478147      27.25292837
Cs      15.72561136      21.39185698      27.37904856
Cs      20.76290560      23.33072741      27.20982887
Cs      16.94150767      11.49113215      24.33972678
Cs      11.85284653      13.33251566      24.26162596
Cs      11.59972577      18.71991774      24.72053781
Cs      12.08600642      24.04261722      24.51524658
Cs      17.05256762      26.02217184      24.42902808
Cs      25.47912954      23.33444205      24.29111864
Cs      24.63498803      11.49226534      19.58607660
Cs      19.50179246       9.84791351      19.87951640
Cs      14.06160780      11.18536088      19.81992235
Cs      10.84420430      15.95139924      19.72509077
Cs      10.99023285      21.59734412      19.76135216
Cs      14.19570020      25.91461526      19.76704473
Cs      19.40350337      27.62236500      19.72589955
Cs      24.64566629      26.01335035      19.72557615
Cs      27.89307363      21.39601715      19.86430307
Cs      27.89454129      16.00884852      19.57900361
Cs      21.87523621      11.20272635      14.98926634
Cs      16.69516099       9.90485375      15.33533263
Cs      13.34692868      14.27759780      15.01348788
Cs      10.23540808      18.72586487      15.16018813
Cs      13.10566420      23.33139023      15.02463904
Cs      16.57353023      27.44880095      15.12382184
Cs      21.78651197      25.94316964      15.06291193
Cs      26.96003781      24.04864460      15.32750887
Cs      27.37676615      18.72405711      14.98567050
Cs      26.83972077      13.34303220      15.00327772
Cs      17.87852102      14.25249088      12.16123980
Cs      14.59988914      18.65827558      11.96356516
Cs      18.01757878      23.32178104      11.99117920
Cs      23.18079046      21.57084853      12.25541203
Cs      23.24884229      15.97501575      12.07119447
Cs      19.40245091      18.70180224       9.48531149
49
Properties=species:S:1:pos:R:3 config_type=qcd gap_pre_relax_energy=-115.11471766983095 gap_pred_energy=-115.78410594629054 gap_fmax_final=0.0009758752506476925 gap_converged=1 pbc="F F F"
Cs      15.45870726      20.94682318      21.93715954
Cs      15.85490725      25.68411893      14.11714239
Cs      14.00008598      12.56601875      22.72024369
Cs      22.38468602      24.34284652      25.56575263
Cs      15.87232853      16.03145897      14.30197660
Cs      18.59072136      10.73460043      23.94623456
Cs      27.08577986      16.06246427      22.18538353
Cs      20.48687061      13.12955393      10.94094835
Cs      16.63670959      10.97504607      13.82922471
Cs      18.02821185      28.90145480      18.46908489
Cs      18.13339038      23.97341741      18.62224711
Cs      20.09026565      18.30692439      10.39442879
Cs       9.28483071      15.27371989      20.69682095
Cs      25.76129199      21.69562321      21.71875908
Cs      17.42220942       8.71312426      19.02818793
Cs      17.99369169      16.02580805      23.93537601
Cs      19.32273490      23.94247518      10.51176452
Cs      18.28061464      18.46477477      18.75444332
Cs      26.43158625      18.45281311      16.98059489
Cs      23.37758594      18.70939745      25.69828595
Cs      15.91158021      15.30515665       9.31274876
Cs      14.38801278      20.96008066      16.84681930
Cs      13.29485343      25.70874156      19.52179535
Cs      18.79966852      21.00870979      14.46612512
Cs      12.82813900      12.33144601      17.09080564
Cs      23.87377765      21.32914099      12.70775088
Cs      21.56951759      26.06237704      14.86457208
Cs      22.73308055      26.21529337      20.57351246
Cs      22.51275730      11.03258468      20.62597645
Cs      17.66752593      21.08919355      26.70691517
Cs      22.91747787      13.53452271      25.31668135
Cs      19.73062690      16.61302240      28.69678931
Cs      17.95041371      13.55360158      18.89813870
Cs      10.82506929      17.50556130      15.44006922
Cs      22.37148311      21.20391534      17.78681244
Cs      25.85519790      13.35448394      17.23581006
Cs      17.75467209      25.90858986      23.47326870
Cs      21.54843944      10.74749876      15.53390331
Cs      26.20760998      24.25108294      17.03733059
Cs      12.71040199      17.81379216      24.87026508
Cs      14.70274992      20.55610578      11.47872581
Cs      25.10315401      16.13633950      12.25065842
Cs      12.60568516      23.67434760      24.88727555
Cs      21.24047400      16.05740572      15.45520254
Cs      20.42697721      21.13255553      22.34326915
Cs      10.40228710      20.96363480      20.26143649
Cs      13.94343847      16.68504077      19.75322689
Cs      22.35746781      16.33354500      20.59714010
Cs      10.60747911      23.33699437      14.95014358
50
Properties=species:S:1:pos:R:3 config_type=qcd gap_pre_relax_energy=-118.82323664473617 gap_pred_energy=-118.91909767458402 gap_fmax_final=0.0009378598232086235 gap_converged=1 pbc="F F F"
Cs      19.68449106      18.51379446      20.18329825
Cs      19.64152350      18.54487663      25.30401593
Cs      20.96792488      13.99586168      22.70585162
Cs      15.60185460      16.04701701      21.87662773
Cs      15.76415205      21.36365454      22.10930885
Cs      20.76539833      23.15842797      21.87604320
Cs      24.37757986      18.68927532      22.70737190
Cs      18.14797729      14.37512592      17.53668018
Cs      14.75289306      18.81845985      17.39878582
Cs      17.87936162      23.10606144      17.38870218
Cs      23.14445888      21.25394828      17.53701067
Cs      23.13764255      16.00884949      17.64290801
Cs      19.26710144      18.80659425      14.63857621
Cs      15.37006687      16.02377732      27.08715990
Cs      15.63005426      21.45982532      27.27757016
Cs      20.71957427      23.38688645      27.08642729
Cs      26.08638630      13.86303863      23.78237720
Cs      16.65143375      11.38567821      24.21315432
Cs      11.67747948      13.40934020      24.16059894
Cs      11.52508116      18.75558048      24.54252384
Cs      11.98922010      24.10292975      24.37376698
Cs      16.93259327      26.20070125      24.54464126
Cs      22.06362930      27.70659563      24.15964659
Cs      25.52526853      23.60343199      24.21079184
Cs      24.57127922      11.35881341      19.46969940
Cs      19.36971952       9.88474389      19.76122731
Cs      13.92115760      11.37191734      19.58804301
Cs      10.68624297      15.90101476      19.56936594
Cs      10.81521347      21.65180174      19.59762890
Cs      13.96677113      25.96410815      19.59658709
Cs      19.38665567      27.87562552      19.56872231
Cs      24.69203873      26.19929070      19.58425847
Cs      27.79332247      21.47866001      19.75986765
Cs      28.00218646      16.07678167      19.47192257
Cs      21.80407635      11.29994115      14.80076199
Cs      16.64949993       9.95017986      15.18056135
Cs      13.31765863      14.30140993      15.04914382
Cs      10.13597589      18.83636210      15.06250045
Cs      12.96315346      23.39538269      14.89838505
Cs      16.42899775      27.49218900      15.05764681
Cs      21.72389431      25.87830458      15.04195038
Cs      26.88928874      24.04288700      15.17762979
Cs      27.20844149      18.72440206      14.80302643
Cs      26.82143177      13.33168506      15.04536853
Cs      17.86705978      14.26191798      12.11818136
Cs      14.53256314      18.68276253      11.94629021
Cs      17.92736750      23.36049568      11.94059584
Cs      23.15358155      21.55123456      12.12676767
Cs      23.10237588      16.02054745      12.28323404
Cs      19.25907265      18.81998157       9.44896720
51
Properties=species:S:1:pos:R:3 config_type=qcd gap_pre_relax_energy=-120.33749338753546 gap_pred_energy=-120.71297872487114 gap_fmax_final=0.0008772211851281122 gap_converged=1 pbc="F F F"
Cs      16.45371592      23.54894180      17.82264987
Cs      25.20859768      11.64730018      22.43902072
Cs      15.27032880      28.30882509      17.34971828
Cs      21.12979022      17.30604140      10.35407381
Cs      13.98365263      11.11097160      15.26788032
Cs      13.61638846      25.52056962      22.18406588
Cs      17.10784509      24.84547056      26.24042703
Cs      18.57549542      19.31909376      26.78397883
Cs      21.56277836      19.06598342      22.51514027
Cs      16.72612121      16.19576356      22.31206361
Cs      21.42295435      15.21365340      15.24628807
Cs      10.98407332      22.12786140      12.22906491
Cs      24.36989923      19.88589073      26.50280657
Cs      25.49211243      18.05656491      13.21710352
Cs      14.36880220      19.88176555      15.15342254
Cs      20.75826005      23.40666253      10.52509863
Cs      12.69626212      15.35365880      18.03209139
Cs      13.61837041      20.75551463      25.49920175
Cs      17.74910441      13.08570134      18.08727357
Cs      26.66176894      16.69835721      22.26032567
Cs      21.17654239      22.78026018      19.04203420
Cs      13.48494354      20.09118001      20.17956802
Cs      26.68970257      14.29230208      17.47032168
Cs      23.63667547      18.72657609      18.02431525
Cs      24.65598653      22.93753827      15.15997257
Cs      16.64679835      15.29680856      13.04194193
Cs      19.52317483      10.69359440      22.82124492
Cs      19.61729436      20.30437482      14.23763602
Cs      16.30176751      13.69329417      26.58507678
Cs       9.16660370      21.80184689      21.92569904
Cs      19.41429739      10.56121386      13.40973779
Cs      24.09322712      26.74350562      19.53795847
Cs      22.11217155      24.18936899      24.39886310
Cs      15.60465401      24.79247791      12.77795876
Cs      11.17982388      24.27021749      17.08295283
Cs      20.02791804      26.45165892      15.37157530
Cs      15.97920194      19.93114245      10.27344715
Cs      11.53453680      16.34395113      12.81209787
Cs      28.48234229      19.37927678      17.55105003
Cs      18.60443035      27.25683250      21.27905172
Cs       9.14730463      19.43789068      17.05072471
Cs      22.65838280      10.13712379      17.50555791
Cs      17.88284708      18.00737094      18.04801166
Cs      21.92801064      14.65545727      20.32315121
Cs      11.72334221      16.27837760      23.45956641
Cs      17.84764704       8.09405757      18.44194035
Cs      26.08517242      22.21763973      21.43241018
Cs      17.60756392      21.86938579      22.36434503
Cs      21.88632222      14.70293034      25.53903147
Cs      14.26078618      11.46907773      21.50121613
Cs      24.42562877      12.40009775      12.47126807
52
Properties=species:S:1:pos:R:3 config_type=qcd gap_pre_relax_energy=-123.73494879924762 gap_pred_energy=-123.77470567569503 gap_fmax_final=0.000948409016264828 gap_converged=1 pbc="F F F"
Cs      19.46801020      18.72345135      19.74180662
Cs      19.31222751      18.83957046      24.78133996
Cs      20.79277051      14.34314697      21.85486259
Cs      15.51430550      16.20147451      21.67340205
Cs      15.58035366      21.55201832      21.73921148
Cs      20.66602715      23.26773998      21.65806162
Cs      24.04050879      18.82840630      21.85611817
Cs      17.85285177      14.49714986      17.16591040
Cs      14.67250282      18.88669064      17.00913293
Cs      17.78221508      23.26247172      17.04709357
Cs      22.98785140      21.55941767      17.14137542
Cs      22.94199956      16.18285856      17.04561487
Cs      19.24839611      18.94594089      14.19751514
Cs      20.72778586      14.36662271      27.07518324
Cs      15.44954089      16.10408150      27.01029934
Cs      15.47650815      21.62689526      27.01974877
Cs      20.71939996      23.35868322      27.00004403
Cs      24.00502745      18.88102054      27.07582986
Cs      25.48645011      14.35826272      24.14908591
Cs      16.91280390      11.64820863      24.09871450
Cs      11.84151461      13.44607426      24.02540541
Cs      11.47479967      18.87957337      24.19142143
Cs      11.84905658      24.25530216      24.11290558
Cs      16.85923447      26.25832260      24.18829698
Cs      22.14160157      27.61015096      24.01888036
Cs      25.42324417      23.34952001      24.09818659
Cs      24.52522717      11.64320333      19.38890144
Cs      19.26566547       9.94453506      19.43859441
Cs      13.92941540      11.41480919      19.47591955
Cs      10.66713333      16.17814341      19.45818503
Cs      10.76943300      21.64398551      19.42712377
Cs      13.96132432      26.13694922      19.44504436
Cs      19.16274776      27.90514355      19.47613310
Cs      24.68997334      26.23579215      19.46209480
Cs      27.75503615      21.61847072      19.42978353
Cs      27.76368904      16.11459790      19.39276691
Cs      21.63259613      11.51333692      14.59808124
Cs      16.41693800      10.06378720      14.91638211
Cs      13.10630269      14.35131389      14.56772929
Cs      10.07904885      18.85845365      14.71007057
Cs      12.95633308      23.44565684      14.66424664
Cs      16.39280706      27.63587311      14.73953511
Cs      21.60530748      26.10193982      14.58537462
Cs      26.75410187      24.25411329      14.87447986
Cs      27.07254243      18.86208150      14.68147564
Cs      26.72554787      13.46684091      14.83365078
Cs      17.82236371      14.39396665      11.81668321
Cs      14.48327722      18.79400096      11.60159032
Cs      17.84409225      23.49273735      11.58775244
Cs      23.06478592      21.75458531      11.69718804
Cs      23.04675794      15.99369629      11.69534746
Cs      19.27687473      18.94524073       9.05672852
53
Properties=species:S:1:pos:R:3 config_type=qcd gap_pre_relax_energy=-126.28812775602006 gap_pred_energy=-126.33028512724518 gap_fmax_final=0.000887046224291317 gap_converged=1 pbc="F F F"
Cs      19.39918832      19.03693760      19.62430304
Cs      19.35819194      19.03694476      24.65964159
Cs      20.57040885      14.54153676      21.51904750
Cs      15.50063870      16.37570973      21.62092472
Cs      15.50063723      21.69817441      21.62091129
Cs      20.57040965      23.53234890      21.51902824
Cs      23.92011548      19.03694128      21.83920764
Cs      17.73152928      14.65576769      16.92738002
Cs      14.56342159      19.03693133      16.91537568
Cs      17.73152939      23.41809674      16.92736285
Cs      22.92970252      21.69743020      17.03048133
Cs      22.92970353      16.37643418      17.03049402
Cs      19.14043261      19.03692557      14.08727966
Cs      20.67365517      14.51914502      26.89556370
Cs      15.47515498      16.29687279      26.89396912
Cs      15.47515353      21.77703433      26.89395758
Cs      20.67365607      23.55476431      26.89554641
Cs      24.01205900      19.03695357      27.08780969
Cs      25.33351975      14.51906126      24.01647370
Cs      22.06045609      10.24883925      23.92818138
Cs      16.81899444      11.67390184      24.21977432
Cs      11.79460259      13.68630927      24.00763337
Cs      11.44701918      19.03694739      24.22221643
Cs      11.79460280      24.38758548      24.00760913
Cs      16.81899395      26.39999257      24.21974236
Cs      22.06045588      27.82505425      23.92814329
Cs      25.33352018      23.55483376      24.01645487
Cs      24.66602578      11.67228698      19.37322308
Cs      19.18750171       9.92243221      19.27932204
Cs      13.86902191      11.78352291      19.27651985
Cs      10.68689691      16.15633180      19.27978748
Cs      10.68689565      21.91754025      19.27977416
Cs      13.86901986      26.29035127      19.27648909
Cs      19.18750247      28.15144295      19.27928406
Cs      24.66602585      26.40158725      19.37319131
Cs      27.65549504      21.77655690      19.36828437
Cs      27.65549554      16.29731788      19.36829673
Cs      21.56324731      11.78646304      14.52502096
Cs      16.36806169      10.22193558      14.71828875
Cs      12.88328020      14.40993870      14.57333922
Cs       9.99987833      19.03692810      14.57419618
Cs      12.88328088      23.66390896      14.57331919
Cs      16.36806362      27.85192206      14.71825534
Cs      21.56324762      26.28739025      14.52498930
Cs      26.72352243      24.38823855      14.78601679
Cs      27.07216747      19.03692705      14.57016170
Cs      26.72352381      13.68561718      14.78603986
Cs      17.79938112      14.41052427      11.53795795
Cs      14.38581438      19.03692415      11.50943257
Cs      17.79938014      23.66331075      11.53793905
Cs      22.99275439      21.91767473      11.67774947
Cs      22.99275470      16.15616524      11.67776373
Cs      19.09163833      19.03691657       8.95847464
54
Properties=species:S:1:pos:R:3 config_type=qcd gap_pre_relax_energy=-128.83148168505718 gap_pred_energy=-128.8682753989082 gap_fmax_final=0.0008505269814800374 gap_converged=1 pbc="F F F"
Cs      19.39820087      19.35012077      19.86439646
Cs      19.37800428      19.35013187      24.88432141
Cs      20.76402605      14.96612049      21.90038758
Cs      15.61288645      16.62398596      21.81380349
Cs      15.61288667      22.07626490      21.81379174
Cs      20.76402581      23.73413056      21.90036851
Cs      24.03160905      19.35012550      21.76465585
Cs      17.92507992      14.97316660      17.17049227
Cs      14.70425365      19.35011576      17.22543218
Cs      17.92507969      23.72706477      17.17047318
Cs      23.04313366      22.12436318      17.22986216
Cs      23.04313378      16.57586861      17.22987426
Cs      19.38145977      19.35010964      14.33964659
Cs      20.81747041      14.87110949      27.21056735
Cs      15.55674526      16.58639615      27.13581099
Cs      15.55674533      22.11387726      27.13579895
Cs      20.81747019      23.82916423      27.21054774
Cs      24.08045498      19.35013686      27.12159804
Cs      25.59678469      14.83838559      24.38827454
Cs      22.18924016      10.62561308      24.26028660
Cs      16.94639973      12.00397091      24.41301004
Cs      11.92140078      13.94467439      24.19584292
Cs      11.65890220      19.35013089      24.38663829
Cs      11.92140071      24.75558649      24.19581967
Cs      16.94639952      26.69629116      24.41297858
Cs      22.18923986      28.07464824      24.26024901
Cs      25.59678457      23.86187666      24.38825522
Cs      28.57075572      19.35013068      24.17460490
Cs      24.61169945      11.96192494      19.48060291
Cs      19.43111551      10.35665587      19.47097619
Cs      13.96396736      12.09083484      19.47272514
Cs      10.71769035      16.47014558      19.47167093
Cs      10.71769028      22.23009519      19.47165866
Cs      13.96396709      26.60940594      19.47269407
Cs      19.43111531      28.34358503      19.47093766
Cs      24.61169923      26.73831634      19.48057131
Cs      28.02222729      22.09964880      19.44964269
Cs      28.02222748      16.60059237      19.44965452
Cs      21.76112960      11.88560861      14.77963376
Cs      16.52978381      10.56648820      14.90856442
Cs      13.09598500      14.83764874      14.78221361
Cs      10.06033339      19.35011084      14.97412707
Cs      13.09598469      23.86257225      14.78219415
Cs      16.52978351      28.13373342      14.90852656
Cs      21.76112937      26.81461263      14.77960162
Cs      26.78078838      24.85091451      14.94744347
Cs      26.94331152      19.35011080      14.85093550
Cs      26.78078853      13.84930757      14.94746709
Cs      17.78738971      14.84461537      11.81063313
Cs      14.60374451      19.35010430      11.88761908
Cs      17.78738958      23.85559312      11.81061365
Cs      23.27778344      22.09478492      11.81842163
Cs      23.27778346      16.60542372      11.81843350
Cs      19.39001169      19.35009870       9.21114246
55
Properties=species:S:1:pos:R:3 config_type=qcd gap_pre_relax_energy=-131.36293516660047 gap_pred_energy=-131.38520414754348 gap_fmax_final=0.000989585507001405 gap_converged=1 pbc="F F F"
Cs      20.25290894      20.31225399      20.27749008
Cs      20.61476931      20.46440052      25.61836848
Cs      21.76481426      16.05498899      22.80846526
Cs      16.66915415      17.74826817      22.71628554
Cs      16.71290231      23.13644802      22.72908627
Cs      21.81373030      24.89749172      22.83045508
Cs      25.13651514      20.47616594      22.75860255
Cs      19.12455659      15.98881220      18.05933813
Cs      15.74250802      20.43040928      18.16560544
Cs      19.14899944      24.85449561      18.10810678
Cs      24.21705668      23.13806680      18.19670693
Cs      24.20572060      17.78367560      18.18590880
Cs      20.26405014      20.44347457      15.26483764
Cs      20.61128833      20.45382754      30.78357732
Cs      21.84986040      15.87251822      28.23684187
Cs      16.72256581      17.70468360      28.04794236
Cs      16.72166565      23.20503540      28.06453167
Cs      21.86221877      25.05556424      28.24213984
Cs      25.32072937      20.45857837      28.24075423
Cs      26.67906439      15.95557822      25.09865692
Cs      23.17341971      11.63261300      25.03628779
Cs      18.01556713      13.12519305      25.34187239
Cs      12.93352566      15.03998214      25.00982077
Cs      12.77890027      20.44074163      25.28904741
Cs      12.95107670      25.83272409      25.01364539
Cs      18.04245801      27.78154334      25.35848540
Cs      23.19576123      29.31210729      25.06661819
Cs      26.70694599      24.98686466      25.12349955
Cs      29.69535299      20.45865476      25.12445409
Cs      25.81353961      13.24087881      20.49106481
Cs      20.45448231      11.33132979      20.44380822
Cs      15.03676645      13.21871101      20.40799291
Cs      11.72266613      17.54722896      20.40145988
Cs      11.75377653      23.33459382      20.40430868
Cs      15.07065607      27.66730321      20.42002063
Cs      20.47938159      29.56322410      20.46186242
Cs      25.84025440      27.68726548      20.50217549
Cs      29.15124270      23.35072542      20.51310815
Cs      29.14440304      17.57329921      20.51328913
Cs      22.88088179      13.10163732      15.53461213
Cs      17.72027427      11.58351137      15.82665750
Cs      14.20808728      15.93172766      15.78993206
Cs      11.21233376      20.43370224      15.74777071
Cs      14.23406480      24.95667905      15.81534996
Cs      17.72320889      29.24948228      15.84640876
Cs      22.89697372      27.77817574      15.55530492
Cs      27.94840816      25.84538803      15.87398930
Cs      28.14192877      20.46164778      15.61410829
Cs      27.93169036      15.06019024      15.87461833
Cs      19.03904280      15.84715912      12.64306693
Cs      15.58247255      20.44462331      12.64049632
Cs      19.05402136      25.03720483      12.66655631
Cs      24.19316968      23.19711743      12.87221095
Cs      24.18142933      17.69304253      12.86159746
Cs      20.27821252      20.44044551      10.10225276
