3
Properties=species:S:1:pos:R:3 config_type=qcd gap_pre_relax_energy=-4.810142764702069 gap_pred_energy=-4.8633185264137255 gap_fmax_final=0.000707489661985029 gap_converged=1 pbc="F F F"
Cu      11.11031472      11.68892282      12.29786147
Cu       9.93303674      10.60931833      10.59598193
Cu      12.22843179      10.97354208      10.37793983
4
Properties=species:S:1:pos:R:3 config_type=qcd gap_pre_relax_energy=-7.090733793159043 gap_pred_energy=-7.1682977101681296 gap_fmax_final=0.000411462941002677 gap_converged=1 pbc="F F F"
Cu      16.88183610      15.48767121      14.57557077
Cu      14.68950059      16.21380049      15.01795055
Cu      13.11670498      14.51196997      15.41752148
Cu      15.31195833      13.78655832      14.98895721
5
Properties=species:S:1:pos:R:3 config_type=qcd gap_pre_relax_energy=-9.621579886819664 gap_pred_energy=-9.628715569668419 gap_fmax_final=0.0006784986505429356 gap_converged=1 pbc="F F F"
Cu      15.72020629      14.52213702      14.99999062
Cu      16.97011582      16.49015740      15.00511067
Cu      14.61972435      16.68793168      15.00176900
Cu      13.29704764      14.69420802      14.99908497
Cu      14.39290590      12.60556589      14.99404474
6
Properties=species:S:1:pos:R:3 config_type=qcd gap_pre_relax_energy=-12.272117302023839 gap_pred_energy=-12.274078717142496 gap_fmax_final=0.0007105606341756892 gap_converged=1 pbc="F F F"
Cu       8.50365188       9.90745051       9.88252600
Cu       8.48823348       7.56528836       9.88252600
Cu      10.55036992       8.67595126       9.88252600
Cu      10.59347580      11.06408492       9.88252600
Cu       8.57289117      12.24869446       9.88252600
Cu      12.58653375       9.83368648       9.88252600
7
Properties=species:S:1:pos:R:3 config_type=qcd gap_pre_relax_energy=-15.660684587014247 gap_pred_energy=-15.678658681162107 gap_fmax_final=0.0008899561376306439 gap_converged=1 pbc="F F F"
Cu      14.23511200      13.55399289      13.79196086
Cu      16.31346370      13.44778256      14.96876844
Cu      15.61356672      15.54005828      13.96468946
Cu      14.38648093      14.45979891      16.03523033
Cu      16.57661822      15.48683970      16.18870589
Cu      14.66096684      16.85294718      15.76589608
Cu      13.21379159      15.65858047      14.28474893
8
Properties=species:S:1:pos:R:3 config_type=qcd gap_pre_relax_energy=-18.41817538799024 gap_pred_energy=-18.447323569492404 gap_fmax_final=0.0007408051014605691 gap_converged=1 pbc="F F F"
Cu      16.21253417      16.89909505      14.97741553
Cu      16.24820259      14.69072100      13.98629500
Cu      15.89713707      14.94323308      16.36902300
Cu      15.46243695      12.81509855      15.29975189
Cu      14.14304563      13.63545563      13.42476586
Cu      14.18195460      16.65036110      16.29791556
Cu      13.64768401      14.37221945      15.67703805
Cu      14.20700498      15.99381614      13.96779512
8
Properties=species:S:1:pos:R:3 config_type=qcd gap_pre_relax_energy=-17.86795530888771 gap_pred_energy=-17.882553978575594 gap_fmax_final=0.0008371034437096512 gap_converged=1 pbc="F F F"
Cu      15.88832084      15.88832076      15.88832056
Cu      14.11173753      14.11173752      15.88817910
Cu      15.88817900      14.11173770      14.11173770
Cu      14.11173773      15.88817902      14.11173763
Cu      16.40926737      13.59085833      16.40926776
Cu      16.40926788      16.40926792      13.59085831
Cu      13.59085838      16.40926741      16.40926776
Cu      13.59063129      13.59063132      13.59063116
9
Properties=species:S:1:pos:R:3 config_type=qcd gap_pre_relax_energy=-21.281431426873958 gap_pred_energy=-21.314919374072566 gap_fmax_final=0.0009788959587369406 gap_converged=1 pbc="F F F"
Cu      12.44665404      11.91244752      12.77892458
Cu      10.51030284      10.70089667      13.50849831
Cu      10.51030326      13.12399835      13.50849951
Cu      11.66954630       9.95413391      11.51836278
Cu      10.21549702      11.91244850      11.44148260
Cu      11.66954673      13.87076267      11.51836464
Cu      13.96820049      13.12397715      11.37655272
Cu      13.96820023      10.70091904      11.37655143
Cu      12.25378175      11.91244884      10.18479612
9
Properties=species:S:1:pos:R:3 config_type=qcd gap_pre_relax_energy=-21.083827878782913 gap_pred_energy=-21.10538680339836 gap_fmax_final=0.0008861989498144838 gap_converged=1 pbc="F F F"
Cu      15.91162013      16.13340930      16.39957099
Cu      15.20982238      16.49722662      14.11958040
Cu      15.65364346      14.79286913      12.46379112
Cu      16.72486442      14.67066653      14.63042221
Cu      15.46701642      13.71252145      16.48278187
Cu      14.65434022      13.47073535      14.22356647
Cu      14.27523529      15.23266524      17.89455961
Cu      13.73228696      15.25315847      15.59372505
Cu      13.37117070      15.23674790      13.19200229
10
Properties=species:S:1:pos:R:3 config_type=qcd gap_pre_relax_energy=-24.080936891956704 gap_pred_energy=-24.158047185767053 gap_fmax_final=0.0004573238578400219 gap_converged=1 pbc="F F F"
Cu       8.67243582       9.50054930      10.79777304
Cu       8.67247911       9.50039774       8.20529486
Cu       8.03589638      11.46553457       9.50143378
Cu      10.33229723       8.20637354       9.50166830
Cu      10.32895354      10.79888357       9.50145249
Cu       6.64966821       9.49784212       9.50150016
Cu       8.04098314       7.53374990       9.50161667
Cu      10.96463165       9.50365271      11.46747321
Cu      10.96469841       9.50328723       7.53566796
Cu      12.35343152       9.50520432       9.50159452
10
Properties=species:S:1:pos:R:3 config_type=qcd gap_pre_relax_energy=-23.79314897493412 gap_pred_energy=-23.855960481658336 gap_fmax_final=0.0007228085297120415 gap_converged=1 pbc="F F F"
Cu      11.26502780      10.13593303      11.73445917
Cu      10.36296776       8.11734931      10.76107156
Cu       9.54316098      10.51505109      13.35180773
Cu      12.20282345       9.31902419       9.65254354
Cu       8.89004324      10.02974399      11.10195256
Cu       8.87202312      11.83961669       9.44124604
Cu       9.88875658       9.68393529       8.92960261
Cu       9.93048441      12.18426424      11.63644805
Cu      11.69903833      10.51281984       7.60320274
Cu      11.25914308      11.57573107       9.70113474
11
Properties=species:S:1:pos:R:3 config_type=qcd gap_pre_relax_energy=-27.011651727578105 gap_pred_energy=-27.047791189954687 gap_fmax_final=0.0009364230434963752 gap_converged=1 pbc="F F F"
Cu       9.03431320       9.11258738       7.68831472
Cu      10.28704313       8.46805473       9.72806793
Cu       8.95110524       9.15732257      11.66848327
Cu       6.85399782       9.85712150       8.39551106
Cu      11.35845017       8.48598695       7.57013615
Cu       6.77143350       9.87705519      10.83842472
Cu      10.87998320      10.51303444      10.92599253
Cu       7.92268589       8.11657906       9.67064874
Cu      10.81711905      10.65896289       8.45479080
Cu      12.51865402       9.34977282       9.54060718
Cu       8.76597478      10.56428248       9.67978287
11
Properties=species:S:1:pos:R:3 config_type=qcd gap_pre_relax_energy=-26.83272436978882 gap_pred_energy=-26.856373891354153 gap_fmax_final=0.000863203774854781 gap_converged=1 pbc="F F F"
Cu      14.90655276      15.14845843      12.26595319
Cu      12.72692318      15.80935267      12.86197187
Cu      14.62683451      16.42356545      14.35583642
Cu      16.38337356      14.60775016      14.02208290
Cu      13.89552735      14.10281168      14.25434924
Cu      17.75495182      14.09108049      15.94625487
Cu      15.50351207      13.23036045      15.83406483
Cu      12.39121683      15.81418433      15.19219691
Cu      16.40374710      16.09031560      15.95998296
Cu      14.21653070      15.17876617      16.54207777
Cu      16.19083014      14.50335456      17.76522903
12
Properties=species:S:1:pos:R:3 config_type=qcd gap_pre_relax_energy=-29.962153312765846 gap_pred_energy=-30.03421008047493 gap_fmax_final=0.000574961760972897 gap_converged=1 pbc="F F F"
Cu       8.46037310      10.07678385       8.17006876
Cu       8.46757986      10.11230051      10.63987986
Cu      10.70364394      10.10654540       9.47329523
Cu       8.01936543       7.82696243       7.39402078
Cu      10.36463104       8.70129311       7.40651490
Cu       6.87316674       8.67950524       9.34772577
Cu       9.26530742      12.01044114       9.34191989
Cu      10.44546674      11.13268792       7.33058690
Cu       7.80813985       7.87585829      11.38342647
Cu       7.75745308       6.37463942       9.37324467
Cu       9.39845708       8.11282437       9.57749288
Cu       9.82323970       6.37698234       7.94864788
13
Properties=species:S:1:pos:R:3 config_type=qcd gap_pre_relax_energy=-33.04520914932057 gap_pred_energy=-33.126414046497345 gap_fmax_final=0.0009588913637729956 gap_converged=1 pbc="F F F"
Cu      16.93228477      15.05373307      16.59354092
Cu      15.11140232      18.25054841      14.50768007
Cu      13.13153701      16.80857615      14.20157919
Cu      17.06033876      16.76462661      14.79880706
Cu      16.35946797      14.44849768      14.30311257
Cu      15.29732488      16.29664346      13.13904178
Cu      14.78763563      13.80946671      16.30854998
Cu      12.87321578      12.76000101      15.30154084
Cu      12.68284255      15.10067024      15.94701149
Cu      16.89174100      12.71579610      15.91307957
Cu      14.90394136      16.15454237      15.71590354
Cu      13.89739052      14.47584473      13.92842690
Cu      15.07087745      12.36105346      14.34172608
13
Properties=species:S:1:pos:R:3 config_type=qcd gap_pre_relax_energy=-33.005812979442425 gap_pred_energy=-33.056781030899515 gap_fmax_final=0.0007639293099905408 gap_converged=1 pbc="F F F"
Cu       8.58468959       6.88261156       8.06093309
Cu       6.61857851       9.54354604      10.26627558
Cu       9.54381636       8.57414080       6.53424665
Cu      10.27654474      11.14942701      11.73410657
Cu      10.44363419       8.84356041      11.19490585
Cu       8.30331948       9.57147219      12.07535969
Cu      11.70201345       9.68308710       7.31681140
Cu       9.59661442      10.72835155       7.64896424
Cu      11.26523544      10.59572012       9.55492925
Cu      10.24536510       8.49431784       8.82494594
Cu       8.84874372      10.46227130       9.91786696
Cu       8.36041771       7.88390174      10.26387776
Cu       7.76621428       9.14277934       8.16196400
14
Properties=species:S:1:pos:R:3 config_type=qcd gap_pre_relax_energy=-36.04504169372668 gap_pred_energy=-36.11023194933917 gap_fmax_final=0.0008713595548263021 gap_converged=1 pbc="F F F"
Cu       9.66725050      10.75947304       8.77489389
Cu       9.69420138      10.64019378      11.19969360
Cu      11.78464985      10.67287961       9.93954463
Cu      10.54571659       8.59785517      10.01803398
Cu       9.19435468       8.58978780       7.73257596
Cu       8.90419710       6.82366982       9.62810654
Cu      10.87398294       6.92798547       8.18785914
Cu      11.53678700       9.32015945       7.92271373
Cu       6.96024128       7.81476069       8.37828852
Cu       8.13937164       9.06170965      10.12856940
Cu       7.43610211      10.23934541       7.91160358
Cu       5.86169381       9.64555705       9.59048561
Cu       7.61721350      11.40919325      10.04783758
Cu       8.57864663       6.29183883       7.33420285
15
Properties=species:S:1:pos:R:3 config_type=qcd gap_pre_relax_energy=-39.036021411375735 gap_pred_energy=-39.11371897069689 gap_fmax_final=0.000954882991258151 gap_converged=1 pbc="F F F"
Cu      11.13747646       9.51455807      13.01624783
Cu       8.91093621       8.54056211      12.90813778
Cu      10.35102063       8.50395498      10.95999904
Cu       7.87864053       9.00148832      10.75274805
Cu      12.82763832       8.90442228      11.26395655
Cu      11.78542638       9.15206251       9.08354822
Cu       9.21130783      10.70264178      11.85976863
Cu      11.48121163      10.87922092      11.00586276
Cu       9.51290457      10.06852532       9.28005111
Cu      13.43234284      10.84610716       9.61511835
Cu       7.69140934      11.42304671      10.06636286
Cu      11.31403810      11.48839060       8.46003947
Cu       9.86531377      12.52583888      10.25509793
Cu      12.25626320      12.99228512      10.06735480
Cu       8.99685290      12.10967797       8.05848931
15
Properties=species:S:1:pos:R:3 config_type=qcd gap_pre_relax_energy=-38.9579903884049 gap_pred_energy=-39.04068377685535 gap_fmax_final=0.0008737387067432135 gap_converged=1 pbc="F F F"
Cu      13.00225259       8.50335228      10.96572897
Cu      11.19733545       9.22038806       9.50512379
Cu       9.01111647       7.92070592       9.59290059
Cu      10.69458838       7.74191037      11.36344273
Cu       9.14551550      10.09385931       8.51683565
Cu      12.74062633      10.86511187      10.46628259
Cu      10.76076334      11.70361215       9.23974268
Cu       7.24114171       9.66030387       9.89793368
Cu      12.63395206      11.95290274      12.62473493
Cu       9.32928555       9.80682637      11.11057537
Cu      11.49328212       9.84266907      12.28744311
Cu      12.18226048      13.21931865      10.57714076
Cu       9.84088985      13.76204871      10.14732253
Cu       8.41588072      11.82379708      10.09725871
Cu      10.39122743      11.96331149      11.68765188
16
Properties=species:S:1:pos:R:3 config_type=qcd gap_pre_relax_energy=-42.205601721996445 gap_pred_energy=-42.2629218786973 gap_fmax_final=0.0009594007221968048 gap_converged=1 pbc="F F F"
Cu       8.71176769       9.36508016       8.06934775
Cu       8.75325859       9.46895723      10.59184591
Cu      10.97044868       9.36589522       7.10080405
Cu      10.65361645       8.09427907       9.21044009
Cu      10.51124264      10.60569636       9.25586065
Cu       8.09499098      11.39942411       9.15814635
Cu       6.67126004       9.25236080       9.29955164
Cu       7.11825596       7.69070867      11.16341027
Cu       7.16380615       7.80816066       7.12525350
Cu       5.94941033       6.98715560       9.07902649
Cu       8.36935000       7.14499342       9.19028811
Cu       8.85079622       9.19672925       5.71062629
Cu       9.63796343       7.29198690       7.06538659
Cu       9.59396380       7.33451907      11.32658215
Cu      11.08442675       9.30017615      11.24696248
Cu       9.53175427      11.36018934       7.07277969
16
Properties=species:S:1:pos:R:3 config_type=qcd gap_pre_relax_energy=-42.03584104463986 gap_pred_energy=-42.123879738397406 gap_fmax_final=0.0008043875333561905 gap_converged=1 pbc="F F F"
Cu      14.29759870      14.98036753      17.87660379
Cu      13.31317281      16.80433034      16.26172048
Cu      13.95445355      16.21556858      13.91047812
Cu      15.13215977      17.99226653      14.97256030
Cu      11.69946625      15.86910089      14.66979624
Cu      17.15481914      13.98473979      12.98301549
Cu      12.84302939      14.21296295      13.24139505
Cu      15.08700120      13.87240637      14.17922100
Cu      15.51007037      15.84576184      16.00945372
Cu      15.38776224      13.26820173      16.49080616
Cu      13.28146835      14.39743643      15.72959511
Cu      16.38060574      16.17019356      13.74740727
Cu      16.80287659      14.72186879      17.74125653
Cu      17.36082761      14.47365700      15.36734255
Cu      16.79014470      12.23622744      14.77403157
Cu      15.00454359      14.95491023      12.04531660
17
Properties=species:S:1:pos:R:3 config_type=qcd gap_pre_relax_energy=-45.439372229882444 gap_pred_energy=-45.51082608164422 gap_fmax_final=0.000879950805832414 gap_converged=1 pbc="F F F"
Cu      13.40407625      12.72669160      14.74582822
Cu      11.27490799      11.60107718      15.27287263
Cu      11.55807945      14.08892588      15.47957195
Cu      13.84767186      15.01727841      15.41850176
Cu      12.63665457      10.77416664      13.36644830
Cu      11.00339578      13.00603487      13.33532661
Cu      12.55445762      14.97989701      13.38535700
Cu      14.98848480      14.17197401      13.41414894
Cu      15.05264469      11.58687622      13.24322282
Cu      13.24529453      12.89473770      12.27328603
Cu      13.16982554      12.88514007       9.86947313
Cu      11.42079790      11.61519152      11.27058394
Cu      13.87792458      10.84596214      11.15419343
Cu      11.50314858      14.20450564      11.19323821
Cu      13.88917488      14.97806505      11.22691142
Cu      15.38425282      12.96019880      11.17549886
Cu      10.23229668      10.70636575      13.21862527
17
Properties=species:S:1:pos:R:3 config_type=qcd gap_pre_relax_energy=-45.12842456941255 gap_pred_energy=-45.25080798765341 gap_fmax_final=0.0007722333612397998 gap_converged=1 pbc="F F F"
Cu      10.26919236      10.21296169       8.08974514
Cu      10.56449192      10.91818065      10.56921403
Cu      12.22386082       8.64721750      11.85666201
Cu      10.87609529      10.20619437      13.04562825
Cu      12.78134910      11.04050610      11.57929906
Cu       8.68957335      10.95807357      12.11133257
Cu       9.74978347       8.70904162      11.52756082
Cu       7.37865712       9.24894093      10.99845650
Cu      12.43883516      11.00670302       9.02827098
Cu      10.81413779      12.50532963      12.49292660
Cu      11.86943313      13.03108844      10.39004583
Cu      11.42785045       8.73272081       9.60064332
Cu      13.78668470       9.32023765      10.13210519
Cu       8.95587017       8.61937733       9.27099964
Cu       9.21456281      13.00152965      10.75983445
Cu      10.28086954      12.51001716       8.65417231
Cu       8.34541856      10.99854565       9.55976905
18
Properties=species:S:1:pos:R:3 config_type=qcd gap_pre_relax_energy=-48.107813720972125 gap_pred_energy=-48.168295699393184 gap_fmax_final=0.0006509583006540461 gap_converged=1 pbc="F F F"
Cu      14.73454996      12.70784066       9.93477500
Cu      10.68113112      12.70784064       9.93477500
Cu      11.50198863      10.83603964      14.47033005
Cu      13.91369247      10.83603965      14.47033005
Cu      13.91369232      14.57964130      14.47032962
Cu      11.50198875      14.57964129      14.47032962
Cu      10.17627397      12.70784039      14.01531906
Cu      15.23940712      12.70784041      14.01531905
Cu      12.70784055      10.12354936      12.49785761
Cu      12.70784053      15.29213201      12.49785733
Cu      12.70784055      11.48044575      10.47974883
Cu      12.70784054      13.93523572      10.47974863
Cu      12.70784054      12.70784054      15.62031965
Cu      10.78146672      11.46907837      12.03213201
Cu      14.63421421      13.94660277      12.03213206
Cu      10.78146686      13.94660275      12.03213206
Cu      14.63421437      11.46907839      12.03213201
Cu      12.70784054      12.70784010      13.25556214
18
Properties=species:S:1:pos:R:3 config_type=qcd gap_pre_relax_energy=-48.544244086110965 gap_pred_energy=-48.57773485341011 gap_fmax_final=0.0008102302065056199 gap_converged=1 pbc="F F F"
Cu      12.88476079      12.87224539      14.40652527
Cu      13.56348782      10.73878031      15.13941172
Cu      11.07200356      11.55847623      15.13955757
Cu      11.08193698      14.18131267      15.17154700
Cu      13.57919657      14.98219515      15.19107080
Cu      15.11273545      12.85485352      15.17126928
Cu      12.19670103      10.78104743      13.06768521
Cu      10.67161353      12.89662048      13.08738907
Cu      12.21230686      15.00039203      13.11874841
Cu      14.68932240      14.18522478      13.11844893
Cu      14.67981309      11.57788481      13.08694044
Cu      12.89409914      12.90161331      11.98281716
Cu      12.90270192      12.93008798       9.59253369
Cu      11.13572821      11.64354436      10.92944947
Cu      13.56206116      10.84547880      10.92902279
Cu      11.14509660      14.19741530      10.96022239
Cu      13.57684550      14.97753333      10.97869021
Cu      15.07044062      12.90614534      10.95952178
19
Properties=species:S:1:pos:R:3 config_type=qcd gap_pre_relax_energy=-51.628184387895864 gap_pred_energy=-51.68922358625537 gap_fmax_final=0.0009139839571560875 gap_converged=1 pbc="F F F"
Cu      11.02284551       8.19968653      12.60738947
Cu      10.84237349      12.45981546       8.40367310
Cu      10.24307990      13.76452285      10.47303563
Cu       8.44626582      12.36227284       9.20802630
Cu      12.66840505       8.39571338      10.47303523
Cu       8.44626759      12.36227356      11.73804814
Cu      10.23299728      11.38909868      10.47303620
Cu       8.57418432       8.11496596      11.77374705
Cu       9.57950070      10.23830651      12.57408551
Cu      12.02554168      10.34234883       9.06900786
Cu      10.84237649      12.45981656      12.54239795
Cu       8.57418234       8.11496517       9.17232963
Cu      11.02284246       8.19968532       8.33868349
Cu       9.57949766      10.23830544       8.37198848
Cu      12.43586275      12.39707334      10.47303432
Cu       8.07380021      10.17550869      10.47303812
Cu      13.99119910      10.47994375      10.47303374
Cu      12.02554368      10.34234953      11.87706258
Cu      10.36092366       8.95103732      10.47303687
19
Properties=species:S:1:pos:R:3 config_type=qcd gap_pre_relax_energy=-51.62800088768537 gap_pred_energy=-51.71382553086197 gap_fmax_final=0.0009896291680916824 gap_converged=1 pbc="F F F"
Cu      11.13786713       9.93098539      14.61016897
Cu      10.19185029      13.08388044      11.02996390
Cu      11.77707411      11.18811221      11.02996426
Cu      10.57281049      11.76524107      13.12011269
Cu      13.25483576       9.29278514      11.02996461
Cu      12.45729332      13.15511760      12.26434618
Cu      12.91505028      10.76816158       8.92448494
Cu      12.91505046      10.76816251      13.13544367
Cu      14.11644814      11.65510501      11.02996405
Cu      12.45729321      13.15511705       9.79558138
Cu      11.09616017       9.18914197       9.74436857
Cu      10.57281029      11.76524014       8.93981569
Cu       9.37618191      10.43234933      11.02996455
Cu       8.98120252       9.99239071       8.64605159
Cu      11.09616030       9.18914256      12.31556091
Cu       8.26608212      12.15750673       9.77188757
Cu       8.26608225      12.15750729      12.28804086
Cu       8.98120275       9.99239176      13.41387774
Cu      11.13786681       9.93098377       7.44976018
20
Properties=species:S:1:pos:R:3 config_type=qcd gap_pre_relax_energy=-54.478475779473065 gap_pred_energy=-54.51798455573013 gap_fmax_final=0.0009825273330197083 gap_converged=1 pbc="F F F"
Cu      11.08102085       8.73288271      11.86469800
Cu      10.73295483      10.73323628      10.15023080
Cu      10.76525997      12.16972988       8.11025740
Cu      10.70232282      13.18215541      10.37010855
Cu      12.82026953      11.90689986       9.48772681
Cu      14.45851541      11.17392471      11.16963373
Cu       8.67261329      11.95424227       9.48936253
Cu       8.48887093      13.73880899      11.17204338
Cu      11.95955806       9.98647448       8.10961472
Cu      12.29215624      12.03410383      11.86436374
Cu      12.86918820       9.53529345      10.36906557
Cu      13.05932009       9.90435538      12.77769648
Cu       9.25258222       7.28655836      11.17148885
Cu       8.85359938       9.13364969      12.77932526
Cu       8.62772632       9.48221111      10.37076899
Cu       8.82750845      11.43236978      11.86576227
Cu       9.47180874      10.04387121       8.11062693
Cu      10.28898169      13.16121514      12.77891750
Cu      10.70539673       8.33865099       9.48841258
Cu      10.73405471      10.73307494      13.16360434
20
Properties=species:S:1:pos:R:3 config_type=qcd gap_pre_relax_energy=-54.67405723453138 gap_pred_energy=-54.7085617370393 gap_fmax_final=0.0008774273263641838 gap_converged=1 pbc="F F F"
Cu       9.50961512       8.95960043       9.66015191
Cu       9.50613818       9.05736512      12.04316238
Cu       9.57248212       9.10319601       7.15982943
Cu      11.34567962      10.13011087      10.63347680
Cu      10.25851229      11.02428993       8.53619040
Cu       8.92687536      11.10285091      10.68652386
Cu      11.65985891       8.82110827       8.50086730
Cu       7.31585850       9.05020639      10.78529255
Cu       7.63531133      10.31615703       8.69949448
Cu       8.46169720      12.60020757       8.76779081
Cu       6.25662593       6.93870216      10.35462940
Cu      10.09889516       6.83024375       8.56213583
Cu       7.75102909       7.56721806       8.54449454
Cu       7.17210478       9.03012851       6.66354816
Cu       8.70032670       6.93211829      10.76495792
Cu      11.13566768       7.58706909      10.73755455
Cu       5.72466126       8.80466143       8.81363017
Cu       8.52274985      11.25362393       6.68860022
Cu       8.76164465       6.98713333       6.40193130
Cu      11.19913625       7.41887891       6.51060797
21
Properties=species:S:1:pos:R:3 config_type=qcd gap_pre_relax_energy=-57.95625077127431 gap_pred_energy=-58.005168219375136 gap_fmax_final=0.0005003775408547581 gap_converged=1 pbc="F F F"
Cu      13.89644658      13.59502942      14.77945667
Cu      13.68352869      13.58919467      17.09522462
Cu      14.56124928      11.55006675      15.79819280
Cu      12.07248401      12.25441849      15.63146667
Cu      12.11058006      14.97950672      15.64185577
Cu      14.61800905      15.61279556      15.81371263
Cu      16.05830741      13.56106577      15.77606295
Cu      13.32624602      11.42932852      13.59573400
Cu      11.63473890      13.63104852      13.60700863
Cu      13.38706712      15.78469482      13.61235642
Cu      15.74711891      14.86492315      13.60476880
Cu      15.71108642      12.28299053      13.59495048
Cu      13.89247907      13.60407036      12.42669484
Cu      13.67157846      13.61594505      10.11170910
Cu      10.92769433      11.33132577      13.59940614
Cu      10.99214545      15.94955597      13.61704856
Cu      12.06569916      12.26988280      11.57065376
Cu      14.55382831      11.56695743      11.39009729
Cu      12.10373873      14.99515603      11.58105182
Cu      14.61051664      15.62973338      11.40553475
Cu      16.05092294      13.57777580      11.42247879
21
Properties=species:S:1:pos:R:3 config_type=qcd gap_pre_relax_energy=-57.49126274896297 gap_pred_energy=-57.56174723061446 gap_fmax_final=0.0009683803265840718 gap_converged=1 pbc="F F F"
Cu      14.12540613      10.43677387      12.63808467
Cu      13.08491466      10.46209322      10.46270385
Cu      12.39565296      10.50704299       8.07833019
Cu      13.19886922      12.56958048      11.75336643
Cu      12.01623145      12.41715935       9.58395822
Cu      11.90926049      14.51354364      10.73786895
Cu      11.83770843      10.97383386      13.13405378
Cu      12.33477791       8.77180513      12.04667582
Cu      11.58417763       8.73453130       9.52535522
Cu      10.44378179       9.16117323       7.42249818
Cu      10.54239448      10.25978127      11.15736862
Cu      10.20715370       9.13303860      13.37144565
Cu      10.15770356       7.80009745      11.29424086
Cu       9.09459983       9.16824786       9.45668754
Cu      10.78585229      12.78081744      11.88196625
Cu      10.12619349      11.22975054       8.68147687
Cu       9.18953679      11.35582896      12.95261298
Cu       9.81663670      13.48559039       9.78977557
Cu       8.52341803      11.51603255      10.51875012
Cu       8.28800478       9.36450907      11.77975240
Cu       8.49585033      13.51689350      11.89115249
22
Properties=species:S:1:pos:R:3 config_type=qcd gap_pre_relax_energy=-60.97525206155997 gap_pred_energy=-61.083463672763045 gap_fmax_final=0.0009651720243062533 gap_converged=1 pbc="F F F"
Cu      12.47076589       8.94951539      10.54204447
Cu      10.55960498      10.39577981      11.29322646
Cu      14.76522416      12.48442366      11.01040566
Cu      12.30093286       9.77409668      13.00164388
Cu      14.49225932       9.98977676      11.74169233
Cu      10.53697728       8.14345381      12.01469846
Cu      13.71462084      11.90458566      13.22316687
Cu       9.86214305      10.02587896      13.55051954
Cu       8.37007316       9.53623882      11.47376201
Cu       8.90869921      11.94665619      12.21939343
Cu       9.03022718      11.13716837       9.56372675
Cu       8.41646467      13.43364220      10.41493779
Cu      10.07747384       8.80394665       9.60669076
Cu       6.99282221      11.45740075      10.81436842
Cu      10.75476151      12.78227694      10.31179512
Cu      11.51385635      10.77620847       8.97490251
Cu      12.67900934      11.40995331      11.12058674
Cu      14.03128983      10.57623947       9.33625007
Cu      11.22558660      12.12007185      13.06227289
Cu      13.01490908      12.87716713       9.25258843
Cu      10.11997791      14.14912180      12.17804787
Cu      12.59253774      13.75661429      11.72349655
22
Properties=species:S:1:pos:R:3 config_type=qcd gap_pre_relax_energy=-61.07288942128008 gap_pred_energy=-61.13260870084937 gap_fmax_final=0.0004615731256801099 gap_converged=1 pbc="F F F"
Cu      14.10784208      13.59545892      14.86017904
Cu      13.88672425      13.58161537      17.17299789
Cu      14.74640834      11.53333658      15.84903321
Cu      12.28565957      12.19688951      15.75603237
Cu      12.30882972      15.01151142      15.77508972
Cu      14.78013146      15.63319018      15.87686022
Cu      16.24418348      13.57115819      15.84892671
Cu      13.44695214      11.43240380      13.65182401
Cu      11.94152678      13.62032639      13.81336604
Cu      10.23160883      13.64502591      12.23168357
Cu      13.48274666      15.78522947      13.68131933
Cu      15.89612982      14.89951954      13.67731419
Cu      15.87459308      12.27828781      13.65953677
Cu      14.08403801      13.61165295      12.49595790
Cu      13.94081902      13.62866830      10.16322809
Cu      10.97080206      11.48996229      13.58471157
Cu      11.00601850      15.76924963      13.61367275
Cu      12.22630705      12.32116889      11.58790669
Cu      14.70390885      11.56318928      11.47121521
Cu      12.24783737      14.94465122      11.60565727
Cu      14.73761060      15.66339606      11.49902441
Cu      16.22602724      13.60081318      11.50116795
23
Properties=species:S:1:pos:R:3 config_type=qcd gap_pre_relax_energy=-63.60945152732964 gap_pred_energy=-63.81034405581801 gap_fmax_final=0.0009991144974531286 gap_converged=1 pbc="F F F"
Cu      13.50337256       8.62479063      13.62048455
Cu      13.90216271      10.75168702      12.50121221
Cu      11.97357428      12.19126752      11.94926109
Cu      13.43235569      10.98154210      10.11431130
Cu      11.55313034       7.46065768      12.76038999
Cu      13.09370147       8.75930070      11.23050709
Cu      10.99003179      10.76122022      10.26735866
Cu      11.58606570       9.91054990      12.80801338
Cu      11.97002941      12.94438999       9.55987694
Cu      12.33423034       8.94154597       8.95833147
Cu      12.08307473      11.07724033       7.98126811
Cu       9.95031711       9.60886748       8.42743269
Cu       9.58512496      11.19203752      12.34030893
Cu       9.92944529      12.12829079       8.31299135
Cu      10.70898555       8.30597346      10.63402471
Cu      10.23355115      14.47835297       8.86045522
Cu       9.84609709      13.04646055      10.79477386
Cu       9.42895181       8.70242093      12.70592831
Cu       7.65567345      11.84928182      10.96460814
Cu       7.83451009      10.95008697       8.67615923
Cu       7.43340609      10.06257589      12.56422409
Cu       8.03887032      13.37175324       9.15164196
Cu       8.65221970       9.61858800      10.53531836
23
Properties=species:S:1:pos:R:3 config_type=qcd gap_pre_relax_energy=-63.404688057307595 gap_pred_energy=-63.54047161193934 gap_fmax_final=0.0009120545508988545 gap_converged=1 pbc="F F F"
Cu      13.29863626       7.79091309      12.45314479
Cu      13.63714241      10.16201694      12.04764313
Cu      11.71987655      11.75117097      11.81926520
Cu      13.05246922      11.01481292       9.90854423
Cu      11.06751944       7.05240063      11.83806094
Cu      12.47572738       8.60773680      10.31738749
Cu      10.01725029      10.45633008      10.61527975
Cu      11.41753652       9.34471120      12.53484707
Cu      11.09699662      12.38843021       9.48582851
Cu      11.62379346       7.66127831       8.12453532
Cu      11.38357002      10.00637689       8.54419203
Cu       9.38399911       8.80293027       7.71604619
Cu       9.72154549      11.00562389      13.03244104
Cu       9.39424986      11.28539369       8.09023849
Cu      10.10762883       8.05007719       9.90926903
Cu       9.02179390      13.60164473       8.97039379
Cu       9.29525772      12.69218637      11.24327677
Cu       9.08668031       8.65355387      12.04863591
Cu       7.53380925      11.74075608       9.63101117
Cu       7.29397702      10.16696252       7.60368594
Cu       7.71892515      10.69240121      11.77251788
Cu       7.47104473      12.59588121       7.36416185
Cu       8.00767247       9.30351293       9.75669549
24
Properties=species:S:1:pos:R:3 config_type=qcd gap_pre_relax_energy=-66.87493130743671 gap_pred_energy=-67.16904644327711 gap_fmax_final=0.0008225009699522227 gap_converged=1 pbc="F F F"
Cu      11.16694653      12.23656987       9.11102637
Cu       8.65953937      12.78658597       8.74473841
Cu      11.86999491      10.07916895       7.74717146
Cu       9.59064598      10.65762757       8.37085845
Cu      11.34425645       9.99887364      10.17146524
Cu      10.34394137       8.31132703       8.39965316
Cu       9.44303093      11.54501071      10.78999444
Cu       7.57725407      10.98973800       7.10338234
Cu      12.48396467       7.96027849       9.34499383
Cu      12.44837725       8.56722893      11.76145308
Cu       8.96570711       9.19507115      10.31372521
Cu       9.54240149       9.35432233       6.34017033
Cu       7.28164782      10.92122710       9.60487713
Cu      10.63847417       6.00841614       8.70990320
Cu      10.18847680       9.43664507      12.32591759
Cu       7.20264915       8.78442470       5.99220807
Cu      10.57990282       7.39626500      10.81881549
Cu       7.73319362      10.16941287      12.05621650
Cu       8.90083637       6.94571191       7.01633213
Cu       5.71865708       9.68409037       8.09506900
Cu       8.50368066       6.83937008       9.59618238
Cu       7.86885691       8.75203772       8.21277800
Cu       6.58451827       8.60567148      10.30599116
Cu       8.26643020       7.67830894      11.97046106
24
Properties=species:S:1:pos:R:3 config_type=qcd gap_pre_relax_energy=-66.95307685856515 gap_pred_energy=-67.09203398250789 gap_fmax_final=0.0008823679972447747 gap_converged=1 pbc="F F F"
Cu       6.05415462       9.44466303       7.87976505
Cu       8.23532941      10.70395831      11.24535712
Cu       7.81308972       8.22264863      11.49618285
Cu       8.93268242       6.97394963       9.36309331
Cu       7.97643324       9.27870181       9.24920046
Cu      10.83742630      10.96152828       7.11349765
Cu      11.47751626       7.38250309       9.38889178
Cu       7.01854846      11.47036050       9.06661137
Cu      11.92922633       9.90350136       9.24328886
Cu       9.73969059       8.93438408       5.78430093
Cu      13.06517616      11.14544292      11.00034993
Cu       9.97001890       8.87762633      10.56626837
Cu       9.75693331       9.49195627      12.82351942
Cu      10.11506645       8.90444127       8.08317443
Cu       9.51984399      11.22726511       9.14868791
Cu       5.97953933       9.67676478      10.48458398
Cu      11.72225849      12.25976227       9.14799979
Cu       6.48922172       7.44072635       9.40088754
Cu      10.16093243       6.71779241       7.23547001
Cu       7.94003130       7.88635230       7.20665054
Cu      10.70070021      11.17638184      11.25962801
Cu      11.98265198      10.48656249      13.17214461
Cu      12.15776214       8.86555078      11.43334385
Cu       8.30534626      10.44675616       7.08668225
25
Properties=species:S:1:pos:R:3 config_type=qcd gap_pre_relax_energy=-70.25662555633558 gap_pred_energy=-70.40076199720312 gap_fmax_final=0.0006732655515752653 gap_converged=1 pbc="F F F"
Cu      15.00049791      13.14270467      15.35067938
Cu      17.11913337      16.28803961      14.06103763
Cu      14.99956891      16.85745871      15.34976303
Cu      12.88013008      16.28700396      14.06115883
Cu      13.70633618      14.99892054      11.98994849
Cu      16.29345814      14.99955168      11.98988456
Cu      14.99939177      17.13080192      12.78749517
Cu      15.00098521      11.25432035      16.73098973
Cu      17.07445306      12.61685426      16.42151391
Cu      15.00043694      13.69862119      17.72400697
Cu      12.92681977      12.61582832      16.42165824
Cu      13.74756541      11.34740834      14.41063275
Cu      16.25419477      11.34804214      14.41054328
Cu      17.11977212      13.71254764      14.06166573
Cu      16.47392707      15.00064981      16.16776651
Cu      13.52616603      14.99995003      16.16787663
Cu      12.88077899      13.71150752      14.06178509
Cu      15.00045067      12.86811151      12.78856894
Cu      14.99996095      14.99972199      13.93212095
Cu      12.92563812      17.38386981      16.42049303
Cu      14.99979239      16.30273111      17.72337376
Cu      17.07325747      17.38487933      16.42035093
Cu      16.25239342      18.65223904      14.40872517
Cu      14.99913347      18.74656619      16.72914355
Cu      13.74575777      18.65167030      14.40881773
25
Properties=species:S:1:pos:R:3 config_type=qcd gap_pre_relax_energy=-70.14126441625446 gap_pred_energy=-70.26397956640228 gap_fmax_final=0.000852393634697249 gap_converged=1 pbc="F F F"
Cu      13.64510781      15.07948523      11.41909337
Cu      15.52609879      13.38323387      11.74882690
Cu      15.83219048      15.91481641      12.42999018
Cu      13.12729009      12.64655995      12.27535648
Cu      14.25851114      14.26800181      13.54077338
Cu      16.75931870      14.02626368      13.82590658
Cu      11.92045573      14.63986836      13.24831601
Cu      15.64124231      17.99941165      13.86587875
Cu      15.02588625      11.95100047      13.84635731
Cu      13.50398664      16.67774548      13.42711638
Cu      15.36939664      15.89534672      14.86659682
Cu      12.81448410      12.77281936      14.86219352
Cu      17.65009690      16.39334356      14.34036424
Cu      13.95486189      17.60133882      15.81382830
Cu      14.36869922      11.47363535      16.31395838
Cu      12.93088665      15.24101023      15.45410841
Cu      16.44105051      17.50595621      16.27634108
Cu      15.15391604      13.57690870      15.68530408
Cu      17.14909341      14.81044604      16.23219203
Cu      14.58592386      15.61530612      17.23096130
Cu      18.61605719      16.63163123      16.67723918
Cu      14.96598564      17.81042667      18.12194308
Cu      13.28922048      13.48015022      17.23145825
Cu      16.73653827      16.00798523      18.28353697
Cu      15.73370127      13.59730864      17.98235899
26
Properties=species:S:1:pos:R:3 config_type=qcd gap_pre_relax_energy=-73.47086719308928 gap_pred_energy=-73.65686852976697 gap_fmax_final=0.0009637256110846008 gap_converged=1 pbc="F F F"
Cu      12.78328750      10.67469858      10.66809758
Cu      14.54525412      11.05584795      12.20669775
Cu      13.36272630      10.37457245       8.38615047
Cu      14.59372096      11.96365712       9.86918749
Cu      10.91598082       9.38711165      11.51880904
Cu      14.59164284       9.26358692      10.35087420
Cu      12.16950761      11.16195310      13.11902712
Cu      12.23418264      12.61929441       9.11645194
Cu      13.05124413      13.05237419      11.57035384
Cu      10.91598926      12.01827690      11.11429256
Cu      10.91601136      13.40802885      12.99616642
Cu       9.59776691      12.61930613       9.11647406
Cu      10.91599465      14.27981242      10.57846427
Cu       8.78075090      13.05239339      11.57039005
Cu      10.91596424      10.44856151       8.96987950
Cu       9.66249673      11.16196449      13.11904827
Cu      12.25339506       8.45532765       9.70647939
Cu       9.57852785       8.45533956       9.70650172
Cu       9.04867063      10.67471487      10.66812880
Cu       8.46919116      10.37459426       8.38619222
Cu      10.91599921       9.13312566      13.86094410
Cu      13.11931813       8.94889698      12.39497596
Cu       7.23823567      11.96368960       9.86924962
Cu       8.71265425       8.94891654      12.39501337
Cu       7.28673366      11.05588035      12.20675909
Cu       7.24029838       9.26361947      10.35093617
26
Properties=species:S:1:pos:R:3 config_type=qcd gap_pre_relax_energy=-73.26214843225205 gap_pred_energy=-73.41858493112673 gap_fmax_final=0.0009511986099944082 gap_converged=1 pbc="F F F"
Cu       7.94031603      13.49242064      12.11609592
Cu       9.09832519      11.47346780      12.74854822
Cu       7.55770107      11.42529295      10.82067667
Cu      10.47746515       9.46029623      13.39774625
Cu      12.58316324       9.92225712      14.64130162
Cu       8.77325066       9.35778442      11.48320540
Cu      10.27928895      13.74030115      12.84756078
Cu       7.47466874       9.37102622       9.41212954
Cu      12.76813186      13.72455114      13.44552646
Cu       9.69990240      12.74641869      10.64307220
Cu      13.78694320      11.46984349      13.13913652
Cu      11.41621951      11.70593741      13.51197280
Cu       9.28324024      10.95630452       9.07132657
Cu       8.81876925       9.32478921       7.33760607
Cu       9.89483054       8.59559737       9.37465713
Cu      10.91473643       8.04061294      11.46739174
Cu      10.91202356      10.59041682      11.21589074
Cu      12.77901408       9.39134131      12.30574888
Cu      11.54516278      11.82387977       9.15941524
Cu      12.04504352      12.97317800      11.28035653
Cu      14.43204919      13.23981058      11.61960974
Cu      11.15707903       9.89777404       7.69089087
Cu      13.57697963      11.04870855      10.70460626
Cu      12.31202559       9.17298103       9.73862056
Cu      13.46432921      10.72722228       8.20865554
Cu      13.68051296      12.99895837       9.28942380
27
Properties=species:S:1:pos:R:3 config_type=qcd gap_pre_relax_energy=-76.83693337133951 gap_pred_energy=-76.93415129739913 gap_fmax_final=0.0007834308244081589 gap_converged=1 pbc="F F F"
Cu      14.65979724      13.65182040      15.39624622
Cu      14.94871263      11.22072273      15.90812513
Cu      12.55564108      12.33475412      16.02330822
Cu      12.56781272      14.98299955      16.03414953
Cu      14.97103022      16.07591605      15.92799776
Cu      13.80607446      11.75873709      13.91894539
Cu      12.99655200      10.04979671      12.51751719
Cu      12.41191482      13.66803130      13.95641638
Cu      10.48626500      13.68231793      12.63411706
Cu      13.82361996      15.56473956      13.93451824
Cu      13.02985364      17.29241126      12.54715138
Cu      16.26799116      14.97456521      13.90661410
Cu      16.25579540      12.32658485      13.89579224
Cu      14.54617730      13.66323087      12.72919599
Cu      14.37189433      13.67362620      10.39975576
Cu      12.90010292       9.95991341      15.07147041
Cu      15.25215540       9.95483962      13.71914021
Cu      10.48903069      13.67175472      15.21812372
Cu      11.29949376      11.52618287      13.83913079
Cu      12.93416864      17.36225637      15.10177076
Cu      11.31924516      15.82096632      13.85662470
Cu      15.28618062      17.35678826      13.74941508
Cu      12.55259375      12.41021676      11.73665955
Cu      14.99718776      11.51791066      11.71284430
Cu      12.56424374      14.94263554      11.74698994
Cu      15.01694680      15.81260997      11.73040187
Cu      16.60389680      13.65804972      11.70195606
27
Properties=species:S:1:pos:R:3 config_type=qcd gap_pre_relax_energy=-76.56298709999965 gap_pred_energy=-76.61436343248259 gap_fmax_final=0.0008834590508057988 gap_converged=1 pbc="F F F"
Cu       8.00236465      11.50326294      13.64290280
Cu      10.43043031      11.42519111      13.68463881
Cu      12.92769116      11.35576806      13.64471699
Cu      15.35385543      11.29885243      13.52525950
Cu       9.13601507      11.74859900      11.50886645
Cu      11.65227130      11.67502656      11.49586102
Cu      14.16781604      11.60865011      11.42839360
Cu      10.39703254      11.99394925       9.34518577
Cu      12.85398689      11.92562071       9.30596490
Cu       9.24747675      13.56681448      13.21468825
Cu       9.12731955       9.54967669      12.68902246
Cu      11.73133659      13.50470438      13.25732773
Cu      11.61015056       9.45267554      12.72717039
Cu      14.21216660      13.42878416      13.13535959
Cu      14.09206136       9.41157732      12.60978344
Cu      10.39705483      13.83671952      11.03523344
Cu      10.27584667       9.78197640      10.50471780
Cu      13.01029493      13.76402849      10.99352873
Cu      12.88911201       9.70927986      10.46305397
Cu      11.67860515      14.09175025       8.93707170
Cu      11.55627843       9.99999137       8.40176234
Cu      10.53557612      15.59085879      12.76487121
Cu      10.29776923       7.63718330      11.72420863
Cu      13.02476501      15.52166218      12.72515502
Cu      12.78698333       7.56790132      11.68459359
Cu      11.75471131      15.85345977      10.63056260
Cu      11.51582413       7.86083196       9.58489523
28
Properties=species:S:1:pos:R:3 config_type=qcd gap_pre_relax_energy=-79.93603826538273 gap_pred_energy=-80.08471003232562 gap_fmax_final=0.0007512466606128932 gap_converged=1 pbc="F F F"
Cu      14.30097856      13.61941566      15.25170085
Cu      14.96078572      11.36401380      15.80904000
Cu      12.30516170      12.27142191      15.87444180
Cu      12.31988085      14.97965470      15.89444039
Cu      14.98516630      15.85897245      15.84219375
Cu      16.53830058      13.60248065      15.87818516
Cu      13.66080977      11.73445418      13.79790447
Cu      12.87394068      10.00708969      12.43915261
Cu      12.23313858      13.64135981      13.79471671
Cu      10.32662369      13.66144443      12.47335867
Cu      13.68138085      15.53244656      13.82589235
Cu      12.91342572      17.28809879      12.49293838
Cu      16.15322141      14.90352851      13.78954914
Cu      16.13933310      12.33681522      13.77050368
Cu      14.37850896      13.63863290      12.58220081
Cu      14.20419502      13.65676042      10.26512455
Cu      12.90262940       9.95162639      15.04195797
Cu      15.13233952       9.94859206      13.65710598
Cu      10.29284974      13.64274858      15.04256367
Cu      11.16750457      11.46881532      13.70081146
Cu      12.94259879      17.30489278      15.09622070
Cu      11.19112442      15.82653418      13.73298275
Cu      15.17224556      17.30401854      13.71131786
Cu      12.40416160      12.37108643      11.59836739
Cu      14.86323209      11.48785961      11.61334577
Cu      12.41807100      14.94201356      11.61737681
Cu      14.88657287      15.79817417      11.64518903
Cu      16.43003877      13.63526853      11.53963712
28
Properties=species:S:1:pos:R:3 config_type=qcd gap_pre_relax_energy=-79.74226963560432 gap_pred_energy=-79.85837671924547 gap_fmax_final=0.0009731044414274964 gap_converged=1 pbc="F F F"
Cu      12.60664716      10.55071368       7.41733845
Cu      10.63021998      14.06565023       9.27301501
Cu      13.11478353      14.51115569       9.34920218
Cu      11.07954345      11.59147636       9.00462982
Cu      13.55995543      12.05140557       9.12342267
Cu      10.79524248       9.18744339       8.34094251
Cu      12.81813733       9.72421505       9.67942699
Cu       9.59343222      12.48027358      10.81292217
Cu      12.88152146      15.05549933      11.80835927
Cu      10.47878617      14.62587784      11.67837101
Cu       9.26941059      10.14948967      10.06280903
Cu       8.98975195       7.85650356       9.35033008
Cu      14.50791020      13.40418610      11.00156680
Cu      12.07026132      12.95527757      10.85731084
Cu      13.79271939      11.13896476      11.51494913
Cu      11.30521981      10.69661027      11.43525352
Cu      10.96539884       8.32669998      10.65885250
Cu      12.94502476       8.89849498      12.01383980
Cu      13.24027751      12.96376932      13.12446659
Cu      10.63752942      12.55775449      13.06584196
Cu       8.71572857       8.37494231      11.73918882
Cu       9.02841268      10.72871375      12.48140132
Cu      11.64684093      14.66641625      13.90272472
Cu      12.44873733      10.69032562      13.65378872
Cu      10.73480509       8.91647550      13.10804236
Cu      11.84585047      12.53984198      15.16248383
Cu      10.20464445      10.72894222      14.71518260
Cu       8.54188643       9.01155988      14.11301623
29
Properties=species:S:1:pos:R:3 config_type=qcd gap_pre_relax_energy=-82.71449054514093 gap_pred_energy=-82.88688783610289 gap_fmax_final=0.0009700710757477168 gap_converged=1 pbc="F F F"
Cu      11.64692824       7.86995744       9.60746878
Cu      13.92105808       8.54068664       9.75265282
Cu      14.77814098       9.97808326      11.59792260
Cu      12.25177016       9.88557820       8.32283056
Cu      12.64826193       8.52378469      11.82509599
Cu       9.87571332       9.14093321       8.50501308
Cu      14.55767694      10.66855136       8.89813783
Cu      10.47966012       9.57066715      10.85445519
Cu      12.71210532      10.66428600      10.57186659
Cu      10.49298790      11.43264090       9.11232960
Cu      14.66167256      12.32067659      10.60915095
Cu      12.78751313      12.42661145       8.89125179
Cu      13.68226547       9.67914760      13.80731409
Cu      11.39504860      10.22655402      13.05887210
Cu      13.44802098      11.84253547      12.66775085
Cu       9.00286296      10.89484877      12.27384231
Cu      12.43848139      11.55200651      14.84269674
Cu       8.34427689      10.44643833       9.91431114
Cu      12.78178257      13.76857007      11.13647670
Cu      10.90316305      13.81453543       9.56628308
Cu      11.03137786      12.12524427      11.53222690
Cu       8.87490469      12.78888934      10.47288763
Cu      10.16339740      12.15503203      14.01478686
Cu      12.01874008      13.68806861      13.49498085
Cu       6.91037214      11.76217718      11.42920506
Cu      10.30730900      14.41851753      11.86719283
Cu      11.25405625      13.42536565      15.79099031
Cu       8.30694572      13.25641171      12.80132022
Cu       9.78067688      14.59037120      14.23785721
29
Properties=species:S:1:pos:R:3 config_type=qcd gap_pre_relax_energy=-83.24720451269974 gap_pred_energy=-83.33833899676851 gap_fmax_final=0.000941511821941064 gap_converged=1 pbc="F F F"
Cu      14.32292080      13.60093678      14.84371663
Cu      14.16055191      13.59618616      17.13745155
Cu      14.83326216      11.42388388      15.73852533
Cu      12.35008378      12.31197899      15.77630472
Cu      12.36294121      14.90490218      15.78254548
Cu      14.85466076      15.76859162      15.74888260
Cu      16.39272419      13.58814567      15.84530897
Cu      13.59797564      11.68751887      13.60287041
Cu      12.83543874       9.95253030      12.29565849
Cu      12.17902198      13.61445499      13.60909948
Cu      10.27393299      13.62708746      12.32150220
Cu      13.61689213      15.52742057      13.61200268
Cu      12.87153774      17.27594333      12.31301578
Cu      16.12018499      14.89159147      13.60765791
Cu      16.10741958      12.29854142      13.60144826
Cu      14.32030319      13.60683976      12.36961640
Cu      14.15286062      13.61321101      10.07624634
Cu      12.83768742       9.94662374      14.90371798
Cu      15.09505992       9.93835368      13.59723484
Cu      10.27649197      13.62106960      14.90062875
Cu      11.12840267      11.44726404      13.60480224
Cu      12.87375257      17.26944660      14.92110822
Cu      11.14983381      15.79201350      13.61513798
Cu      15.13110199      17.26166805      13.61457066
Cu      12.34558569      12.32221455      11.43514928
Cu      14.82861185      11.43408573      11.46323565
Cu      12.35838878      14.91536395      11.44129227
Cu      14.85008865      15.77878168      11.47356697
Cu      16.38784034      13.59890845      11.36325997
30
Properties=species:S:1:pos:R:3 config_type=qcd gap_pre_relax_energy=-85.90673454003213 gap_pred_energy=-86.02899308454485 gap_fmax_final=0.0009177495448091607 gap_converged=1 pbc="F F F"
Cu      12.09325003       8.24585772      14.87582405
Cu       9.92661114       7.71190224      13.68957797
Cu       9.81844361       8.09938388      11.21908825
Cu      11.84681153       8.58487074      12.51644773
Cu      10.47500325       9.97609131      14.52810391
Cu      12.78508306      10.43683762      13.91799359
Cu       8.87182458       9.75746865      12.75390762
Cu      11.70587983       9.30852218      10.12615138
Cu      13.51247216      10.18326128      11.55736128
Cu       9.85531068       8.57041507       8.77372104
Cu      11.06218040      12.34530443      14.06613332
Cu      11.07416408      10.88718284      12.09776444
Cu       8.72929892      11.65345096      14.48048896
Cu      13.70317299      10.36397471       9.02275188
Cu      12.04837310       9.06949721       7.68322618
Cu      14.59430765      12.16396556      10.63920392
Cu      13.06219420      12.47087028      12.51176760
Cu       9.32776228      10.36204422      10.38793892
Cu      12.14537953      11.85125225      10.15604368
Cu      10.62756264      10.93569861       8.37814414
Cu      12.59952518      11.38205672       7.07913308
Cu       8.86870389      12.12228006      12.10443746
Cu      13.86995422      12.84079409       8.47918461
Cu       9.75249190      12.71666951       9.87701318
Cu      10.97764566      13.59201331      11.91512719
Cu       9.21931961      13.93978005      13.70076102
Cu      12.94284958      14.10492847      10.43378196
Cu      11.51079637      13.32331199       8.28535522
Cu       8.78719215      14.48111469      11.33478318
Cu      10.69815336      15.01091692       9.90050083
30
Properties=species:S:1:pos:R:3 config_type=qcd gap_pre_relax_energy=-85.77472458553864 gap_pred_energy=-86.05769699933467 gap_fmax_final=0.0008141996784448143 gap_converged=1 pbc="F F F"
Cu      15.31869864       9.69014703      10.25504998
Cu      12.34304933      12.91385851      11.46585065
Cu      11.76869048      12.63053739       8.95980337
Cu      11.96016621      10.43836749       8.01310770
Cu      12.47754128      15.27660878      12.24492897
Cu      13.16581851      11.41821822      13.33768376
Cu      12.16545928      13.54437865      14.01454190
Cu      11.26712667       8.31233510      11.17641209
Cu      10.83693864       8.45142467       8.76973865
Cu      11.61416109      10.69841604      10.59532256
Cu      10.85616348      15.52949290      14.16691944
Cu       9.73503135      10.63075275       9.05128796
Cu      13.10939189       8.90780852       9.51243989
Cu       9.87194997      12.62514794      10.49505595
Cu      13.77151912      11.34247542       9.42995949
Cu      11.45238478      14.70564468      10.10892402
Cu       8.97517264       8.38368616      10.26106647
Cu      10.70084748      11.87436768      12.79065334
Cu      13.93612099      13.81842532      10.07655923
Cu      14.80622993      11.71210475      11.52713538
Cu       9.31663956       8.37219334      12.75608812
Cu      13.46381516       9.57367522      11.81100107
Cu       9.21416337      10.41394033      11.48763563
Cu       8.39659266      12.53414667      12.56066211
Cu      14.27278663      13.70234887      12.69074460
Cu      10.19380103      14.29461971      12.24046757
Cu      11.32216192      11.37927901      15.04207895
Cu      11.41125538       9.60490680      13.22747678
Cu       9.16117522      10.55458451      14.02304491
Cu       9.73367731      13.28463754      14.52688946
31
Properties=species:S:1:pos:R:3 config_type=qcd gap_pre_relax_energy=-89.40263578142971 gap_pred_energy=-89.51002091159118 gap_fmax_final=0.0005775561164552006 gap_converged=1 pbc="F F F"
Cu      14.07133746      13.59425149      15.45192294
Cu      14.79574342      11.34653400      15.96809131
Cu      12.07910793      12.26656986      16.03251315
Cu      12.10434411      15.01500667      16.04725891
Cu      14.70635861      15.90061952      16.04016098
Cu      16.43180205      13.60955329      15.97284068
Cu      13.45498318      11.71855852      13.97114508
Cu      12.65262341      10.00375416      12.60215685
Cu      12.00558114      13.62839298      13.96174260
Cu      10.11090175      13.66823391      12.62929463
Cu      13.39425662      15.54924844      13.96576744
Cu      12.76511720      17.33956263      12.63701344
Cu      15.66217382      14.77163082      13.97755919
Cu      17.04174867      16.07489857      12.61493363
Cu      15.94290562      12.24448044      13.88302283
Cu      14.08339692      13.59136220      12.67938034
Cu      14.03505030      13.63110956      10.38186770
Cu      12.69234028       9.94795755      15.21776617
Cu      14.89522472       9.90378029      13.81304791
Cu      10.07381915      13.66466560      15.20178467
Cu      10.95319864      11.46210439      13.86095554
Cu      12.75172477      17.36880800      15.20958435
Cu      10.97084085      15.83904221      13.86637228
Cu      17.10196806      16.04742978      15.23062064
Cu      15.12162159      17.22796445      13.87308715
Cu      17.83729763      13.97333633      13.82158092
Cu      12.17053399      12.35700648      11.74925943
Cu      14.64511437      11.46613078      11.75478564
Cu      12.20154223      14.95376920      11.75822735
Cu      14.65770220      15.79729001      11.75650145
Cu      16.27942489      13.72673348      11.75954043
31
Properties=species:S:1:pos:R:3 config_type=qcd gap_pre_relax_energy=-89.56065405344484 gap_pred_energy=-89.67012767348453 gap_fmax_final=0.0008492992373206696 gap_converged=1 pbc="F F F"
Cu      10.93275609      11.80411492       9.84139652
Cu       9.98470236      14.13953516       9.89054709
Cu      12.91163039      12.01170368       8.13105841
Cu      10.49649851      12.67132088       7.69456395
Cu      12.26705148      13.85762658       9.45357284
Cu      13.31194653      11.95484833      10.61874375
Cu       9.18373559      12.70043109      11.71442264
Cu      11.50281574      10.20653864       7.49972859
Cu       8.88727762      10.53538493      10.53544111
Cu       8.38137657      12.52274502       9.19661125
Cu       9.98198487       8.17447334       7.73530795
Cu       9.18186995      10.47382166       8.07073373
Cu       6.92652508      11.82555059      11.17628503
Cu       6.92539141      10.44574684       9.09941699
Cu       8.37998383       8.38252112       9.48377926
Cu      11.50527207      13.32611449      11.76778961
Cu      10.49808908      11.92607323      13.80511679
Cu      12.91311713      11.87566281      13.01533709
Cu      10.93336998      10.50014403      11.98065826
Cu       9.98440742       9.29058769      13.97863072
Cu      13.31184368       9.74952270      11.72220605
Cu      10.93177822       9.29948652       9.78152091
Cu      12.26719442       9.80774138      13.95269774
Cu      11.50366508       8.07022250      12.33542143
Cu       8.38205245      10.70147443      12.92600878
Cu      13.31076967       9.89671709       9.26065904
Cu       9.18236925       8.43153283      11.82036739
Cu       6.92586127       9.33708294      11.33267052
Cu      12.26472368       7.93667917       8.19584552
Cu      12.91091921       7.71420108      10.45531822
Cu      10.49538786       7.00676086      10.10450929
32
Properties=species:S:1:pos:R:3 config_type=qcd gap_pre_relax_energy=-92.36948679037957 gap_pred_energy=-92.57268029606908 gap_fmax_final=0.0008292714807914364 gap_converged=1 pbc="F F F"
Cu       6.90625004       9.71645691      11.40373748
Cu       9.21635324       7.22213573       8.72445882
Cu       7.07205529       8.60777326       9.03138969
Cu       7.51460730       7.39649401      11.02432989
Cu       6.80546920      12.13173572      11.63052694
Cu       7.42686934      11.01701007       9.40203344
Cu       7.92877037      11.04942773      13.41988315
Cu      11.50081065       7.61842352       9.71364621
Cu       9.18587775       9.09643203      10.17195383
Cu       8.92754390       9.59952768       7.79673012
Cu       9.79609517       6.95173938      11.26607989
Cu      10.36081357      10.86244907      13.36978305
Cu       8.30300065      13.28695213      10.25780691
Cu       9.12778944      11.18302690      11.28688093
Cu       8.81212713       8.87265591      12.67839716
Cu       9.29743827      13.09441901      12.67512008
Cu      11.05596795       8.99017448      11.80276374
Cu      11.75154669      11.22995666      10.98659467
Cu      10.67840190      13.38636062      10.58692057
Cu       9.67754389      11.74320140       8.93093101
Cu      11.40163029       9.95787707       9.02187633
Cu      10.68931908      10.92457561       6.84792948
Cu      13.35395664       8.58791306       8.45777419
Cu      12.67884100      10.30350384      13.09604949
Cu      11.07056329       8.37030361       7.29599643
Cu      11.88376349      12.78009587      12.77223743
Cu      13.26053695       9.18651204      10.84542938
Cu      13.11223071      13.22283713      10.55734441
Cu      11.96727268      12.39131064       8.54110760
Cu      12.97329360      10.50764261       7.11449530
Cu      14.17327810      11.43122255      11.69728559
Cu      13.82721446      11.01708579       9.32973881
32
Properties=species:S:1:pos:R:3 config_type=qcd gap_pre_relax_energy=-92.34215981606911 gap_pred_energy=-92.5393334116429 gap_fmax_final=0.000837324527565168 gap_converged=1 pbc="F F F"
Cu      12.04433287      14.86113745      11.23104973
Cu      11.47727265      14.80380464      13.84929998
Cu       9.66379906      15.32839890      12.20500761
Cu      13.12405618      13.11674616      13.19782975
Cu       9.84802790      14.03470796      10.09164911
Cu      13.09229198      12.67462276      10.75161491
Cu      11.83197003      13.67077543       8.90292363
Cu      14.33072729      11.05501207      12.29736316
Cu      14.87398762      11.10213242       9.80715392
Cu      10.71052543      13.20020822      12.25292420
Cu      11.17807542      12.27966174      14.60024550
Cu       8.27493363      13.13881927      11.82033678
Cu       9.19937575      13.70827801      14.07786377
Cu      13.14750373      10.80223252      14.46555655
Cu      12.73137387      11.46864144       8.47994758
Cu      14.70929327       8.86903018      10.99216662
Cu      13.74293615       9.10555355       8.68994885
Cu      11.81026451      11.12604645      12.51901217
Cu      12.78024766      10.18869262      10.55629047
Cu      10.91417268       9.53699956      14.06489205
Cu       8.37635936      12.25225370       9.51164372
Cu       9.30929109      11.32516521      13.24818888
Cu      12.39819025       7.82453970      10.50339264
Cu      10.30676761      11.86255276       8.00623998
Cu      12.93359252       8.91425710      12.73172034
Cu       7.91631435      10.78023964      11.36318200
Cu       9.01467740       9.93562896       9.37595430
Cu      10.94066798       7.48857701      12.48118254
Cu      11.27678164       9.45699539       8.78656387
Cu      10.74921712      11.61876061      10.29279195
Cu      10.09006882       9.56514536      11.61059001
Cu      10.02905972       7.73053878      10.06162898
33
Properties=species:S:1:pos:R:3 config_type=qcd gap_pre_relax_energy=-96.00172175105564 gap_pred_energy=-96.1124839524227 gap_fmax_final=0.0009449117619975948 gap_converged=1 pbc="F F F"
Cu      12.49560422      13.18770223      13.13851002
Cu      13.32271653      14.00993613      10.72751437
Cu      13.30636621      11.55800517      11.32004435
Cu      14.87793699      13.01663577      12.41647577
Cu      12.49144886       8.29135538       9.87270169
Cu      14.16543570      10.07293413       9.64543511
Cu      11.27671471       8.18040233      12.04533393
Cu      13.71500187      11.12081528      13.67637788
Cu      11.27659681      10.61383632      12.50888376
Cu      12.44910118       9.14947339      14.12784126
Cu      10.10415700       9.14936496      14.12779699
Cu      11.27651042      11.45599556      14.71338216
Cu      15.03550971      12.40064653       9.90880087
Cu      13.51748944       9.19998368      11.93133765
Cu      12.47439833       9.86952354       7.95633869
Cu      15.47938507      10.71679770      11.75856476
Cu      11.27651385      10.37710496      10.02801493
Cu      10.06199875       8.29116292       9.87262205
Cu       8.83808175      11.12058727      13.67631753
Cu      10.05729827      13.18759718      13.13848477
Cu      11.27651047      12.71246916      10.97827273
Cu       9.24673753      11.55785144      11.32000897
Cu       9.91515361      12.15781381       8.93283168
Cu      11.27638805      14.96233048      11.77265991
Cu      12.63792868      12.15789017       8.93289260
Cu      11.27644770      14.32384051       9.25541782
Cu      10.07894414       9.86941981       7.95623958
Cu       9.23017446      14.00975388      10.72746773
Cu       7.51754241      12.40030189       9.90870834
Cu       7.67499059      13.01629707      12.41639122
Cu       8.38792406      10.07268861       9.64534658
Cu       7.07380921      10.71638544      11.75843905
Cu       9.03587792       9.19979178      11.93123977
33
Properties=species:S:1:pos:R:3 config_type=qcd gap_pre_relax_energy=-95.78495366774459 gap_pred_energy=-95.947037029303 gap_fmax_final=0.0009180554812161318 gap_converged=1 pbc="F F F"
Cu      11.25444608      13.95299022      11.39238147
Cu      11.78020855      12.16992939      13.17290014
Cu      11.85211223      13.09179861       9.00713762
Cu       9.53776948      12.47060083      12.18017513
Cu      13.42659837      13.21891082      10.94309253
Cu       9.50524247      13.36563821       9.81473471
Cu      11.55832974      11.49014633      10.85607462
Cu       7.74982706      12.38862494       8.38771681
Cu       7.53645869      12.05509356      10.79128222
Cu      10.13755907      12.28495361       7.44143983
Cu       9.90183302      10.53593179      13.77216948
Cu      13.61783232      11.32563855       9.40053081
Cu       7.61041530      11.37147582      13.19493548
Cu      11.87033316       9.71324423      12.63782838
Cu       9.54567696      10.96729821       9.35043056
Cu      13.75779563      11.17946321      12.05407885
Cu      12.47891915      11.49552957       7.26201111
Cu       7.89434749       8.94223930      13.36945961
Cu       6.43651077       9.88270263      11.65834842
Cu       9.01178639      10.10184735      11.51425530
Cu      13.47548086       9.23664805      10.71884216
Cu       8.36728132      10.37999284       7.24281141
Cu      11.09589809       9.08107170      10.17678449
Cu       7.21777693      10.01564607       9.40901936
Cu      12.92519708       9.27855379       8.24796297
Cu      12.15244686       7.40314164      11.83205878
Cu       9.97558301       8.09907064      12.51704429
Cu      10.73009240       9.84280295       7.35173321
Cu       7.96158816       7.97415925      10.95748035
Cu       9.02036680       8.51626519       8.79707517
Cu      12.79580989       7.19054801       9.58521833
Cu      11.08149939       7.55569353       8.06269565
Cu      10.16464429       6.85001614      10.32795776
34
Properties=species:S:1:pos:R:3 config_type=qcd gap_pre_relax_energy=-99.09533249615514 gap_pred_energy=-99.22594050442764 gap_fmax_final=0.0009129031988322271 gap_converged=1 pbc="F F F"
Cu       8.81740437      11.45544136       8.38501871
Cu       9.03981071       9.27807952       9.75445211
Cu      12.27934592       9.60175979      14.44790366
Cu      12.12282354      12.70592464      11.09929823
Cu      11.19642294       8.12149825       9.84119578
Cu       8.58017981       9.90454373      12.12597635
Cu      15.35853732      11.63390963      12.28369340
Cu       9.56372565       7.72640374      11.62085924
Cu       9.98974929       8.82730190      13.78648269
Cu      11.81570060       8.32267103      12.31340684
Cu      12.25330761      15.11663741      11.50216025
Cu      10.58112905      15.02626905       9.70839919
Cu      14.03604481      13.66418904      12.45444184
Cu      10.02580759      14.10789307      11.88563992
Cu      11.83421763      13.60320936      13.46351383
Cu      12.84278155      14.19506316       9.25962226
Cu      14.59431658      12.81529865      10.29477080
Cu      13.60589368       8.16089305      10.65711941
Cu      13.39253651      11.73263210      13.79867255
Cu      13.88389469       9.72179517      12.54749174
Cu       9.56185138      13.37641644      14.16512422
Cu       9.05017143      11.03954721      14.24381764
Cu       8.69886162      13.44491173       9.93426590
Cu       7.49750380      11.22533802      10.36077440
Cu      10.84390130      12.83457152       8.69130335
Cu      10.94239379      10.29288762       8.46822378
Cu       8.34162258      12.40713202      12.31187301
Cu      13.15954269       9.25537216       8.56799623
Cu      11.23949983      11.78790017      15.06006069
Cu      13.02181084      11.72324215       8.81296765
Cu      11.11696129      10.93382201      12.77000844
Cu       9.95361930      11.46226927      10.61186486
Cu      14.66995641      10.39949825      10.27484105
Cu      12.21043322      10.21743712      10.61851930
34
Properties=species:S:1:pos:R:3 config_type=qcd gap_pre_relax_energy=-98.89856768166256 gap_pred_energy=-99.20651243787637 gap_fmax_final=0.0009977379378371522 gap_converged=1 pbc="F F F"
Cu      14.94232092      10.28602502      10.00894988
Cu      13.85738131      14.09479912      11.55148412
Cu      14.12561007      11.60484523      11.88618569
Cu      14.24249450      12.54014196       9.57355234
Cu      14.07928824       9.09152542      11.93335664
Cu      11.32058979      11.97409154      15.06366458
Cu      12.71220727      14.55333171       9.49370931
Cu      13.03743459       8.89532751       9.47017902
Cu      12.84483451      10.61828862      13.71432870
Cu      13.77375928      10.67539624       7.99179024
Cu      12.07862025      12.60551770      10.88892431
Cu      11.32607718      14.74717679      11.68409467
Cu      11.91994692      10.03417209      11.44370527
Cu      12.18185564      12.42100460       8.24734174
Cu      12.19191389       7.52053675      11.25634818
Cu      12.48815875      13.06345557      13.27146858
Cu      12.35159329       8.25046442      13.51089582
Cu      10.11537210       8.26550396      12.37024588
Cu      10.61386477       9.65040080      14.37250597
Cu      10.43161972      13.82229612       9.25704651
Cu      10.33902115      11.46901021      12.72864056
Cu      11.39831557      10.05404009       8.07436729
Cu      10.32675448      11.32049225       9.95003304
Cu      10.10327772      13.69933339      13.66940756
Cu       9.32198173      13.30875221      11.32727709
Cu       8.23204980       8.70096857      10.89314624
Cu       9.03810237      11.42580804      14.94968445
Cu       9.90815902      11.90061049       7.54306208
Cu      10.47364077       8.68070899       9.89922361
Cu       8.40791849       9.85476839      13.09831528
Cu       8.29772927      12.58172345       9.15185741
Cu       7.99977205      12.38201038      13.09852498
Cu       8.70715815      10.02954385       8.80791801
Cu       8.02270066      11.08945277      11.03028920
35
Properties=species:S:1:pos:R:3 config_type=qcd gap_pre_relax_energy=-102.39783619457025 gap_pred_energy=-102.51101829098334 gap_fmax_final=0.000966106174720031 gap_converged=1 pbc="F F F"
Cu      17.69836305      14.39223543      12.89908740
Cu      17.69836305      13.59684424      15.08999228
Cu      12.48644076      10.58938009      12.89621395
Cu      11.79875048      17.00454651      12.90112635
Cu      11.79875048      10.98453317      15.08795332
Cu      12.48644076      17.39969959      15.09286572
Cu      14.31359827      12.60305134       9.93292356
Cu      15.04280891      13.01744325      18.05422574
Cu      14.31359827      15.38602834      18.05615612
Cu      12.62698143      14.41879059       9.93442623
Cu      12.62698143      13.57028909      18.05465345
Cu      15.04280891      14.97163643       9.93485394
Cu      14.46102371      17.32673908      13.51641586
Cu      10.87602700      12.73293137      13.51272350
Cu      16.64684557      11.92520200      13.51196338
Cu      16.64684557      16.06387768      14.47711630
Cu      10.87602700      15.25614831      14.47635618
Cu      14.46102371      10.66234060      14.47266381
Cu      12.23281251      15.58473555      16.60977121
Cu      13.49646979      11.67055236      16.60664443
Cu      13.49646979      16.31852732      11.38243525
Cu      12.23281251      12.40434413      11.37930847
Cu      16.25436180      14.72201866      16.60931855
Cu      16.25436180      13.26706102      11.37976113
Cu      15.80232174      12.23510591      15.82815168
Cu      14.61311127      11.55152257      12.15751665
Cu      14.61311127      16.43755711      15.83156303
Cu      11.56816409      13.30648468      15.82908048
Cu      11.56816409      14.68259500      12.15999920
Cu      15.80232174      15.75397377      12.16092799
Cu      13.99453779      13.99616857      11.94449337
Cu      13.99453779      13.99291111      16.04458631
Cu      13.25093374      15.28258110      13.99546217
Cu      13.25093374      12.70649858      13.99361750
Cu      15.48179056      13.99453984      13.99453984
35
Properties=species:S:1:pos:R:3 config_type=qcd gap_pre_relax_energy=-102.38229843600003 gap_pred_energy=-102.52681798534465 gap_fmax_final=0.0009276500700143234 gap_converged=1 pbc="F F F"
Cu       8.74567017      10.91458883      11.23830161
Cu       7.45956648      12.35410859      12.65189916
Cu       8.35735097      10.09419786      13.51280959
Cu       9.19421225       9.11737102       9.41280240
Cu       9.52695394      10.05377135       7.11946468
Cu       9.66500055      11.51415304       9.01917343
Cu       8.65918427      13.27099086      10.52195766
Cu       9.56687259       8.64190362      11.93770648
Cu      11.15458450       7.78860836      10.11472507
Cu       9.55385621      13.59383480      12.81134021
Cu       9.01840520      12.08472898      14.62601949
Cu      10.73424351      13.66738301       8.82740753
Cu      11.02453489      10.14294680      10.64706619
Cu      10.61017324      10.95007895      13.01610777
Cu      10.48669838      14.90726576      10.92366543
Cu      11.51691618       9.57656475       8.34874990
Cu      10.95390306      12.52731749      11.03830450
Cu      12.87215266      11.05242060      11.95841285
Cu      11.30591790      11.79369663       7.25767947
Cu      13.24552542       9.19663813      10.14944618
Cu      12.00224678       8.52802908      12.32029245
Cu      11.00727445      13.46613962      14.75058637
Cu      11.16520605      11.14023903      15.36381220
Cu      12.75513243      11.55410231       9.36259262
Cu      12.05698774      14.04225402      12.65407714
Cu      12.96439505      13.47393026       7.88374564
Cu      12.74428406      14.12905870      10.25315977
Cu      12.86243174       9.88466682      14.16666888
Cu      14.38573268       9.04079806      12.29670803
Cu      13.04354598      12.36946269      14.12905663
Cu      14.96402850      10.96057536      10.73833210
Cu      14.94022419      11.14175973      13.27525167
Cu      14.22256706      13.09766217      11.93496299
Cu      14.78586930      13.02679638       9.49641071
Cu      10.48494164       8.93854633      14.27789320
36
Properties=species:S:1:pos:R:3 config_type=qcd gap_pre_relax_energy=-105.63601285576573 gap_pred_energy=-105.81513618174887 gap_fmax_final=0.000857220237892931 gap_converged=1 pbc="F F F"
Cu      10.13705828      13.96810785      15.45910681
Cu      17.79915743      13.96810786      15.45910681
Cu      13.96810786      11.49924531      17.03039328
Cu      13.96810785      16.43697040      17.03039328
Cu      10.03515645      13.96810785      13.10583639
Cu      17.90105926      13.96810786      13.10583640
Cu      15.14131626      13.96810786      10.14573212
Cu      12.79489946      13.96810786      10.14573212
Cu      15.33332632      10.33333921      15.34971372
Cu      12.60288939      17.60287650      15.34971372
Cu      15.33332632      17.60287651      15.34971372
Cu      12.60288939      10.33333921      15.34971372
Cu      15.16643878      10.67935328      12.90805859
Cu      12.76977693      17.25686243      12.90805859
Cu      15.16643878      17.25686243      12.90805859
Cu      12.76977694      10.67935328      12.90805859
Cu      13.96810786      11.85324643      11.05573017
Cu      13.96810786      16.08296929      11.05573018
Cu      11.00897474      11.86578145      14.18240462
Cu      16.92724097      16.07043426      14.18240462
Cu      16.92724097      11.86578146      14.18240462
Cu      11.00897474      16.07043425      14.18240462
Cu      11.94586658      12.62670622      16.32985559
Cu      11.94586658      15.30950949      16.32985559
Cu      15.99034913      12.62670622      16.32985559
Cu      15.99034913      15.30950949      16.32985559
Cu      16.14639668      15.23249568      11.97411568
Cu      16.14639668      12.70372004      11.97411568
Cu      11.78981904      12.70372004      11.97411568
Cu      11.78981904      15.23249567      11.97411568
Cu      13.96810786      13.96810786      16.44791513
Cu      15.62560255      13.96810786      14.19878298
Cu      12.31061316      13.96810786      14.19878298
Cu      13.96810786      12.14310459      14.54565014
Cu      13.96810786      15.79311112      14.54565014
Cu      13.96810786      13.96810786      12.34491105
36
Properties=species:S:1:pos:R:3 config_type=qcd gap_pre_relax_energy=-105.67048423645893 gap_pred_energy=-105.80760775289632 gap_fmax_final=0.0009664824762463802 gap_converged=1 pbc="F F F"
Cu       9.10785595       8.56251173      13.95139876
Cu      10.04830562      10.83113432      13.91547603
Cu       7.93234932      10.30116432      12.64361667
Cu       8.88143866      12.59193100      12.47118953
Cu      11.75152490       8.81204971      13.83181604
Cu      10.89324868      13.10035386      13.76038540
Cu      10.32586571       6.98229856      12.61593137
Cu      12.55261347      11.11287571      13.57571859
Cu       8.26702087       8.10726256      11.49976735
Cu      13.95943071       9.35667511      12.69959849
Cu       6.94306569      12.01792350      11.14102730
Cu       9.04492519      10.69901099      10.39414294
Cu       6.76092902       9.73136819      10.39139284
Cu      11.09556868      11.70027862      11.68970488
Cu      12.40539896       7.89246817      11.61197761
Cu      10.66197664      14.10396119      11.44579769
Cu      10.32421321       9.32694589      11.97804776
Cu      12.87781815      13.37317276      12.47966226
Cu      12.69209184      13.46856859      10.06820749
Cu       7.39900720      11.60133407       8.77625946
Cu      13.65768608      11.38828835      11.30585374
Cu      10.85036645      12.06802839       9.30023198
Cu      13.29833879      11.40867378       8.86467932
Cu      11.60289978       9.73094837       9.82045729
Cu      13.98680729       9.24440675      10.21002942
Cu       8.42828378       8.56655504       9.06895368
Cu      10.60855966      14.53572400       9.02098805
Cu      10.29524259       7.50608359      10.19591144
Cu       9.21936554      10.42786447       7.81612982
Cu       8.76394807      13.25607119      10.04769552
Cu      12.51993855       7.42694192       9.22590158
Cu      11.47386231      10.87533878       7.21618563
Cu      12.05724107      13.22570510       7.57527822
Cu      13.10885017       9.22327803       7.81616784
Cu       9.41002904      12.85560352       7.56214666
Cu      10.66189633       8.45516388       7.88023537
37
Properties=species:S:1:pos:R:3 config_type=qcd gap_pre_relax_energy=-108.91516082787956 gap_pred_energy=-108.98508617840618 gap_fmax_final=0.0009007567680111777 gap_converged=1 pbc="F F F"
Cu      13.24845842      12.06030119      11.58128868
Cu      13.23946951      12.06009441      14.13823186
Cu      15.66223874      12.87637086      11.58394912
Cu      15.67295902      12.86990071      14.13773982
Cu      13.88530473      14.13701293      12.87607311
Cu      13.88077748      14.13721544      10.40125403
Cu      11.72507023      14.12574747      11.65889304
Cu      15.64887127      15.41651977      11.58419065
Cu      13.22666555      16.20714459      11.58166577
Cu      11.58189974      14.12475459      14.13881513
Cu      15.65953095      15.42261028      14.13798105
Cu      13.21770618      16.20678314      14.13862754
Cu      13.24964608      12.05982324      16.69517077
Cu      15.66342744      12.87588780      16.69153542
Cu      13.88589470      14.13677610      15.40047859
Cu      13.88252661      14.13651472      17.87530081
Cu      11.72623079      14.12528526      16.61867056
Cu      15.65006844      15.41603907      16.69177474
Cu      13.22786854      16.20666775      16.69558481
Cu      17.37715295      14.15512860      15.40450994
Cu      17.37656207      14.15537224      12.87041545
Cu      14.97157646      17.43910197      15.40337149
Cu      14.97098010      17.43933906      12.87328878
Cu      15.00564292      10.84629918      12.87266362
Cu      15.00622526      10.84605957      15.40274739
Cu      11.12013973      16.22502310      15.39961879
Cu      11.11954569      16.22525669      12.87862610
Cu      11.14219474      12.01951918      15.39921086
Cu      11.14161048      12.01975256      12.87822327
Cu      17.36166293      11.66182629      12.88440538
Cu      17.36224047      11.66158395      15.39006039
Cu      17.33542178      16.64862473      12.88488007
Cu      17.33601152      16.64838488      15.39052593
Cu      12.61640576      18.20356637      12.88303331
Cu      12.61699863      18.20333240      15.39487809
Cu      12.65924067      10.05732895      12.88227263
Cu      12.65981702      10.05709462      15.39408665
37
Properties=species:S:1:pos:R:3 config_type=qcd gap_pre_relax_energy=-108.82178107648994 gap_pred_energy=-108.96178825157823 gap_fmax_final=0.0008555626932600112 gap_converged=1 pbc="F F F"
Cu      12.53858537       8.05923517      11.02772858
Cu      11.09681827      11.26488078       9.93003587
Cu      12.45425750      15.11061086      10.42228281
Cu       8.43768096       9.03645237      12.03521536
Cu      11.34230308      11.32914529       7.42730964
Cu      13.40363490      11.42719458       8.72967526
Cu      14.22570864       9.56704513      10.11226620
Cu       8.56855457      10.80430633      10.35443041
Cu      14.80054645      14.30600363      11.17383603
Cu       9.68234967       9.93794111       8.34345995
Cu       9.37627649      12.48373437       8.72076245
Cu      11.42399374      10.04614632      14.43574450
Cu      12.11691654       9.29509095       8.84588076
Cu       8.06158390      13.11095022      10.80788343
Cu      12.60407497      10.35282257      11.82337459
Cu      11.08469548      14.17166795      14.46813227
Cu      11.84350690      12.03726284      15.76233574
Cu      13.52599085      13.37965802      14.84925664
Cu       7.93839383      11.48793803      12.72897953
Cu      10.76929527      15.42437353      12.30638737
Cu      14.50091369      12.52076069      12.79573110
Cu      14.96125376      10.13052630      12.36888266
Cu      12.85003879      12.75919768      10.89740044
Cu      13.21952688       8.62666822      13.38113896
Cu       9.74426436      11.93543516      14.55760118
Cu      12.95916232      14.55139575      12.78232648
Cu       9.26501457      13.59005696      12.87328807
Cu      10.20091450      10.81671082      12.26822992
Cu      13.70760555      10.86745722      14.40555514
Cu      11.93623667      12.29634547      13.22514159
Cu      14.15990639      13.73351598       8.98454183
Cu      11.76816863      13.38426270       8.66692561
Cu      10.29290713       8.92970975      10.46881993
Cu      10.79076550       8.37680645      12.79208319
Cu      10.43646599      13.59422614      10.75248793
Cu       9.03883316       9.64333534      14.21181375
Cu      15.10893890      11.84721347      10.49913899
38
Properties=species:S:1:pos:R:3 config_type=qcd gap_pre_relax_energy=-111.87097358837147 gap_pred_energy=-111.9024228901622 gap_fmax_final=0.0008385690289738342 gap_converged=1 pbc="F F F"
Cu      15.06266164      15.06266164      13.79459855
Cu      17.52392068      15.02942608      13.79459855
Cu      15.02942608      17.52392068      13.79459855
Cu      12.52653546      15.06266164      13.79459855
Cu      10.06527641      15.02942608      13.79459855
Cu      12.55977101      17.52392068      13.79459855
Cu      12.52653546      12.52653546      13.79459855
Cu      10.06527641      12.55977101      13.79459855
Cu      12.55977101      10.06527641      13.79459855
Cu      15.06266164      12.52653546      13.79459855
Cu      17.52392068      12.55977101      13.79459855
Cu      15.02942608      10.06527641      13.79459855
Cu      13.79459855      13.79459855      15.58867236
Cu      16.41717702      13.79459855      15.64904397
Cu      11.17202008      13.79459855      15.64904397
Cu      13.79459855      16.41717702      15.64904397
Cu      13.79459855      11.17202008      15.64904397
Cu      16.27673419      16.27673419      15.55805547
Cu      11.31246291      16.27673419      15.55805547
Cu      11.31246291      11.31246291      15.55805547
Cu      16.27673419      11.31246291      15.55805547
Cu      13.79459855      13.79459855      12.00052473
Cu      16.41717702      13.79459855      11.94015313
Cu      11.17202008      13.79459855      11.94015313
Cu      13.79459855      16.41717702      11.94015313
Cu      13.79459855      11.17202008      11.94015313
Cu      16.27673419      16.27673419      12.03114162
Cu      11.31246291      16.27673419      12.03114162
Cu      11.31246291      11.31246291      12.03114162
Cu      16.27673419      11.31246291      12.03114162
Cu      15.04189749      15.04189749      17.30482372
Cu      12.54729960      15.04189749      17.30482372
Cu      12.54729960      12.54729960      17.30482372
Cu      15.04189749      12.54729960      17.30482372
Cu      15.04189749      15.04189749      10.28437337
Cu      12.54729960      15.04189749      10.28437337
Cu      12.54729960      12.54729960      10.28437337
Cu      15.04189749      12.54729960      10.28437337
38
Properties=species:S:1:pos:R:3 config_type=qcd gap_pre_relax_energy=-112.08814714127972 gap_pred_energy=-112.22060931585554 gap_fmax_final=0.0006549351333451905 gap_converged=1 pbc="F F F"
Cu      14.22652373      14.22724763      15.79388032
Cu      14.92769058      12.06798114      16.61567357
Cu      12.38966193      12.89264902      16.61471836
Cu      12.38966182      15.56184970      16.61471258
Cu      14.92769044      16.38651781      16.61566416
Cu      16.49633995      14.22724956      16.61651843
Cu      13.56566994      12.19133466      14.48690128
Cu      12.08653853      14.22724471      14.48650769
Cu      13.56566976      16.26315496      14.48689241
Cu      15.95886914      15.48545636      14.48801219
Cu      15.95886925      12.96903339      14.48801768
Cu      14.22763288      14.22724190      13.15099326
Cu      16.68136766      10.82939007      15.36028276
Cu      14.23831235      10.03541260      15.35905496
Cu      11.75388917      10.84264000      15.35822493
Cu      10.24387320      12.92101980      15.35781919
Cu      10.24387310      15.53347325      15.35781354
Cu      11.75388892      17.61185318      15.35821023
Cu      14.23831202      18.41908081      15.35903670
Cu      16.68136740      17.62510357      15.36026796
Cu      18.21668111      15.51170811      15.36120463
Cu      18.21668120      12.94278566      15.36121024
Cu      15.31185119      10.89073587      13.20818553
Cu      12.91455679      10.18579161      13.26480436
Cu      11.38940878      12.16510405      13.20678332
Cu       9.97820921      14.22724198      13.26395638
Cu      11.38940863      16.28937976      13.20677437
Cu      12.91455646      18.26869253      13.26478680
Cu      15.31185088      17.56374828      13.20817097
Cu      17.66555196      16.72486653      13.26697702
Cu      17.73591821      14.22724215      13.20948131
Cu      17.66555214      11.72961808      13.26698793
Cu      13.55585839      12.15818779      11.90266678
Cu      12.05254621      14.22723910      11.90217986
Cu      13.55585821      16.29629052      11.90265779
Cu      15.98824502      15.50593292      11.90371927
Cu      15.98824515      12.94854558      11.90372485
Cu      14.22859988      14.22723657      10.70180762
39
Properties=species:S:1:pos:R:3 config_type=qcd gap_pre_relax_energy=-115.68728355821371 gap_pred_energy=-115.7938015317458 gap_fmax_final=0.0008414814620032229 gap_converged=1 pbc="F F F"
Cu      14.20621000      14.20749080      15.50195216
Cu      14.20398406      14.20749588      17.86520179
Cu      14.89170737      12.09476259      16.55774948
Cu      12.40820101      12.90167024      16.55557320
Cu      12.40820106      15.51331589      16.55556762
Cu      14.89170746      16.32022351      16.55774037
Cu      16.42661554      14.20749305      16.55925899
Cu      13.54333751      12.16352935      14.33289212
Cu      12.05818683      14.20748824      14.33172754
Cu      13.54333749      16.25144714      14.33288334
Cu      15.94600461      15.47065364      14.33500260
Cu      15.94600464      12.94432296      14.33500806
Cu      14.20841658      14.20748535      12.97915232
Cu      16.62952295      10.82725444      15.26981346
Cu      14.23376909      10.04843469      15.26744756
Cu      11.74051511      10.85837891      15.26544107
Cu      10.25953387      12.89647321      15.26416690
Cu      10.25953389      15.51850722      15.26416133
Cu      11.74051505      17.55660160      15.26542671
Cu      14.23376902      18.36654585      15.26742969
Cu      16.62952289      17.58772622      15.26979882
Cu      18.17012024      15.46710722      15.27131430
Cu      18.17012030      12.94787347      15.27131973
Cu      15.29533857      10.86309272      13.08098528
Cu      12.89310797      10.15884319      13.16620767
Cu      11.36345592      12.14040298      13.07770064
Cu       9.95135806      14.20748574      13.16397794
Cu      11.36345588      16.27456811      13.07769178
Cu      12.89310788      18.25612831      13.16619026
Cu      15.29533851      17.55187844      13.08097082
Cu      17.65240490      16.70947767      13.17052329
Cu      17.72511768      14.20748560      13.08322388
Cu      17.65240496      11.70549392      13.17053413
Cu      13.53356414      12.12698795      11.76334454
Cu      12.02184001      14.20748273      11.76218042
Cu      13.53356409      16.28797750      11.76333558
Cu      15.97934193      15.49325034      11.76548298
Cu      15.97934197      12.92171516      11.76548854
Cu      14.21045294      14.20748014      10.55816508
39
Properties=species:S:1:pos:R:3 config_type=qcd gap_pre_relax_energy=-115.07329212292576 gap_pred_energy=-115.1495533142494 gap_fmax_final=0.0009697648981084189 gap_converged=1 pbc="F F F"
Cu      15.53816299      15.53816299      14.16227036
Cu      18.00697350      15.50287309      14.13429117
Cu      15.50287309      18.00697350      14.13429117
Cu      13.00008808      15.53816299      14.16227036
Cu      10.53127757      15.50287309      14.13429117
Cu      13.03537798      18.00697350      14.13429117
Cu      13.00008808      13.00008808      14.16227036
Cu      10.53127757      13.03537798      14.13429117
Cu      13.03537798      10.53127757      14.13429117
Cu      15.53816299      13.00008808      14.16227036
Cu      18.00697350      13.03537798      14.13429117
Cu      15.50287309      10.53127757      14.13429117
Cu      14.26912554      14.26912554      15.95306638
Cu      16.90272890      14.26912554      15.98745325
Cu      11.63552218      14.26912554      15.98745325
Cu      14.26912554      16.90272890      15.98745325
Cu      14.26912554      11.63552218      15.98745325
Cu      16.77495711      16.77495711      15.88461671
Cu      11.76329396      16.77495711      15.88461671
Cu      11.76329396      11.76329396      15.88461671
Cu      16.77495711      11.76329396      15.88461671
Cu      14.26912554      14.26912554      12.36210093
Cu      16.88601315      14.26912554      12.29321024
Cu      11.65223792      14.26912554      12.29321024
Cu      14.26912554      16.88601315      12.29321024
Cu      14.26912554      11.65223792      12.29321024
Cu      16.74791190      16.74791190      12.38329185
Cu      11.79033917      16.74791190      12.38329185
Cu      11.79033917      11.79033917      12.38329185
Cu      16.74791190      11.79033917      12.38329185
Cu      15.55557494      15.55557494      17.63004841
Cu      12.98267613      15.55557494      17.63004841
Cu      12.98267613      12.98267613      17.63004841
Cu      15.55557494      12.98267613      17.63004841
Cu      15.51522178      15.51522178      10.63648232
Cu      13.02302929      15.51522178      10.63648232
Cu      13.02302929      13.02302929      10.63648232
Cu      15.51522178      13.02302929      10.63648232
Cu      14.26912554      14.26912554      19.19690679
40
Properties=species:S:1:pos:R:3 config_type=qcd gap_pre_relax_energy=-118.79401153327383 gap_pred_energy=-118.93020725927498 gap_fmax_final=0.000753318202209723 gap_converged=1 pbc="F F F"
Cu      14.28266280      14.20502627      15.43885774
Cu      14.38057795      14.20503131      17.80444318
Cu      14.99463473      12.08657023      16.46723659
Cu      12.52356310      12.88057617      16.54943619
Cu      12.52356302      15.52948101      16.54943056
Cu      14.99463461      16.32348675      16.46722759
Cu      16.52929536      14.20502852      16.45327465
Cu      13.61311533      12.17084465      14.26735668
Cu      12.12348721      14.20502378      14.28855983
Cu      13.61311520      16.23920289      14.26734804
Cu      16.02553603      15.46744716      14.24928302
Cu      16.02553613      12.94260047      14.24928838
Cu      14.28032957      14.20502092      12.91265871
Cu      10.54038048      14.20502966      17.08621744
Cu      16.73619984      10.82833673      15.17640650
Cu      14.34378067      10.05039123      15.18952680
Cu      11.86602578      10.82687924      15.21256169
Cu      10.36008313      12.79959224      15.15975816
Cu      10.36008305      15.61045890      15.15975220
Cu      11.86602557      17.58317223      15.21254735
Cu      14.34378043      18.35966028      15.18950913
Cu      16.73619965      17.58171490      15.17639215
Cu      18.26531238      15.46492833      15.16180004
Cu      18.26531245      12.94512336      15.16180540
Cu      15.37690038      10.86666580      13.00222533
Cu      12.98760291      10.15189400      13.09744846
Cu      11.44400817      12.11990534      12.99666805
Cu      10.03554800      14.20502121      13.10160739
Cu      11.44400804      16.29013670      12.99665921
Cu      12.98760267      18.25814854      13.09743124
Cu      15.37690017      17.54337648      13.00221112
Cu      17.73115808      16.70322696      13.06687341
Cu      17.80005624      14.20502118      12.98375730
Cu      17.73115823      11.70681575      13.06688404
Cu      13.61223618      12.12124214      11.69205475
Cu      12.09954482      14.20501831      11.71182859
Cu      13.61223603      16.28879447      11.69204591
Cu      16.04858344      15.48780807      11.67809006
Cu      16.04858354      12.92222863      11.67809550
Cu      14.27158520      14.20501577      10.48638819
40
Properties=species:S:1:pos:R:3 config_type=qcd gap_pre_relax_energy=-118.94645787790355 gap_pred_energy=-119.04834543687868 gap_fmax_final=0.0009942205090879863 gap_converged=1 pbc="F F F"
Cu      14.02799151      14.05784988      15.31240148
Cu      13.87105628      14.05785511      17.62750768
Cu      15.03857433      11.99752854      16.39835832
Cu      12.62728750      12.03717206      16.38255567
Cu      12.62728685      16.07853243      16.38254653
Cu      15.03857351      16.11817655      16.39834908
Cu      16.30696801      14.05785278      16.37658689
Cu      13.35992865      12.02213799      14.01097529
Cu      11.97273273      14.05784712      14.07292481
Cu      13.35992861      16.09355604      14.01096626
Cu      15.80872051      15.33974919      14.13222272
Cu      15.80872039      12.77594530      14.13222822
Cu      14.12118768      14.05784427      12.77388453
Cu      11.45441356      14.05785321      16.88927391
Cu      16.54519986      10.62593779      15.02254467
Cu      14.06706985      10.06724406      15.15413516
Cu      11.53710017      10.49768341      14.81145749
Cu      10.39194575      12.66387756      15.15953376
Cu      10.39194555      15.45182126      15.15952755
Cu      11.53709981      17.61801404      14.81144139
Cu      14.06706950      18.04845539      15.15411710
Cu      16.54519963      17.48976065      15.02252945
Cu      18.01329805      15.32614034      15.10925753
Cu      18.01329737      12.78955845      15.10926369
Cu      15.20292774      10.71275854      12.87181542
Cu      12.84998968       9.97324882      12.84567942
Cu      11.20510459      11.96628952      12.78030986
Cu       9.83945250      14.05784472      13.05720710
Cu      11.20510449      16.14939874      12.78030052
Cu      12.84998946      18.14243987      12.84566108
Cu      15.20292757      17.40293028      12.87180053
Cu      17.55835097      16.54373105      12.96827886
Cu      17.60495932      14.05784457      12.92068667
Cu      17.55835108      11.57195842      12.96828999
Cu      13.44291609      11.98418502      11.50540078
Cu      11.91335590      14.05784137      11.53507563
Cu      13.44291596      16.13149770      11.50539152
Cu      15.89052465      15.33897705      11.55418993
Cu      15.89052472      12.77670601      11.55419562
Cu      14.12389349      14.05783877      10.33501182
41
Properties=species:S:1:pos:R:3 config_type=qcd gap_pre_relax_energy=-121.88541766051766 gap_pred_energy=-122.033638198529 gap_fmax_final=0.0009205706291246395 gap_converged=1 pbc="F F F"
Cu      14.30414329      14.13769661      15.38822652
Cu      14.43573474      14.04120363      17.75279524
Cu      15.02204820      11.99177162      16.37424153
Cu      12.54642056      12.78386365      16.46933032
Cu      12.54934337      15.41534149      16.56124651
Cu      15.05239555      16.22600132      16.47007231
Cu      16.56638587      14.11286204      16.37489826
Cu      13.63532527      12.09954176      14.19438453
Cu      12.15403944      14.14574577      14.23402073
Cu      13.63653569      16.18194621      14.23456197
Cu      16.03878844      15.40027923      14.19531641
Cu      16.04754672      12.86840480      14.17723989
Cu      14.30198976      14.13993104      12.85738587
Cu      10.55645881      14.08543629      17.02664868
Cu      13.20256613      17.72041020      17.02674524
Cu      16.76064540      10.73910305      15.08360869
Cu      14.36608063       9.96272266      15.09406469
Cu      11.89305801      10.73510699      15.12566869
Cu      10.39144023      12.71061934      15.08221630
Cu      10.36413220      15.49000650      15.10087836
Cu      11.80720235      17.47276680      15.10075215
Cu      14.46127715      18.29990735      15.08310155
Cu      16.80225622      17.47696291      15.12741895
Cu      18.29645563      15.36031798      15.09575745
Cu      18.29254255      12.84294142      15.08442040
Cu      15.39793416      10.79568506      12.91883489
Cu      13.01257459      10.08133709      13.00618023
Cu      11.47448765      12.04821708      12.92145182
Cu      10.06405627      14.11866710      13.02930252
Cu      11.45499472      16.21288053      12.92130447
Cu      13.02120754      18.17957481      13.02990221
Cu      15.42475476      17.47277258      12.92264438
Cu      17.76884285      16.61272212      13.00806914
Cu      17.82115906      14.12333473      12.91997797
Cu      17.75061639      11.62861162      12.98097607
Cu      13.63837305      12.05774297      11.61717922
Cu      12.12507585      14.13173337      11.64392098
Cu      13.64175727      16.21444897      11.64443350
Cu      16.08034788      15.41092001      11.61803706
Cu      16.06919731      12.85336834      11.60582753
Cu      14.29690374      14.14418823      10.42405210
41
Properties=species:S:1:pos:R:3 config_type=qcd gap_pre_relax_energy=-122.05839292770742 gap_pred_energy=-122.15162275222194 gap_fmax_final=0.0009672867893408615 gap_converged=1 pbc="F F F"
Cu      14.39938458      13.47354466      12.62299129
Cu      14.40674032      13.47078293      15.18347734
Cu      16.81181233      14.24251786      12.62260379
Cu      16.80826141      14.23625173      15.18308549
Cu      15.06975908      15.53977954      13.91596687
Cu      15.06336529      15.55840740      11.44522313
Cu      12.89338337      15.55438676      12.62329009
Cu      16.83571657      16.81105306      12.62259766
Cu      14.40887091      17.61212035      12.71197116
Cu      12.91041130      15.57198319      15.18400839
Cu      16.81248089      16.81581010      15.18333916
Cu      14.36347294      17.75581032      15.18393230
Cu      14.40042305      13.47300645      17.74397029
Cu      16.81283985      14.24200411      17.74356710
Cu      15.07027361      15.53951890      16.45115952
Cu      15.06487217      15.55764044      18.92190988
Cu      12.89442234      15.55384386      17.74472438
Cu      16.83673765      16.81054891      17.74407282
Cu      14.40986981      17.61161581      17.65584507
Cu      18.56526997      15.50535711      16.51151130
Cu      18.56474328      15.50561148      13.85421248
Cu      16.23052781      18.83916954      16.45883404
Cu      16.23002125      18.83941950      13.90847820
Cu      16.13508311      12.19771223      13.88707077
Cu      16.13561290      12.19744906      16.47893866
Cu      12.21427077      17.55893261      16.45953985
Cu      12.21375581      17.55920223      13.90917214
Cu      12.23976875      13.48897269      16.51254002
Cu      12.23922462      13.48926344      13.85530183
Cu      18.50125829      12.98176645      13.94420695
Cu      18.50176053      12.98152655      16.42105017
Cu      18.56509649      18.00932540      13.94587150
Cu      18.56558553      18.00908960      16.42033456
Cu      13.75171453      11.46778089      13.94499411
Cu      13.75222618      11.46751732      16.42179131
Cu      10.78996382      15.53085846      13.94722252
Cu      10.79046856      15.53058804      16.42166014
Cu      20.23356779      14.25652326      15.18241056
Cu      20.27513693      16.69921752      15.18263849
Cu      10.15396070      13.47288081      15.18434937
Cu      11.60158288      11.50490732      15.18383321
42
Properties=species:S:1:pos:R:3 config_type=qcd gap_pre_relax_energy=-125.30854894109376 gap_pred_energy=-125.45984103695787 gap_fmax_final=0.0009254534825470112 gap_converged=1 pbc="F F F"
Cu      14.40613776      14.05899686      15.32347800
Cu      14.62686024      13.89816495      17.68634934
Cu      15.13834998      11.88779503      16.27048207
Cu      12.64889131      12.68438902      16.41862452
Cu      12.77878190      15.24055105      16.64774262
Cu      15.17041160      16.15458635      16.41908039
Cu      16.69722924      14.03336742      16.27076925
Cu      13.71410476      12.03803498      14.12354888
Cu      12.21933698      14.10601877      14.21504612
Cu      13.68545153      16.12463806      14.21580479
Cu      16.11431619      15.34223875      14.12399260
Cu      16.12869090      12.80798634      14.08087537
Cu      14.35979944      14.09310876      12.80059764
Cu      10.65089294      14.14026956      16.92993104
Cu      10.85949617      16.63550038      17.08990656
Cu      13.16816367      17.60408892      16.92932413
Cu      16.86169777      10.66589867      14.95074729
Cu      14.46402309       9.88288353      14.98290428
Cu      11.98522058      10.65667772      15.06010074
Cu      10.46839037      12.64027537      15.05522824
Cu      10.33239895      15.48128211      14.95737207
Cu      11.79384331      17.49437312      14.95723080
Cu      14.53889178      18.24267051      15.05576075
Cu      16.89393255      17.41313514      15.06100435
Cu      18.39557890      15.29512427      14.98363235
Cu      18.39255601      12.77297822      14.95087294
Cu      15.46979082      10.74072305      12.81259068
Cu      13.08516894      10.02494397      12.92179556
Cu      11.55066230      11.99281569      12.88828085
Cu      10.13538856      14.03578258      12.97425590
Cu      11.53160993      16.14773222      12.85422441
Cu      13.10865495      18.12834651      12.97481517
Cu      15.48888275      17.41367313      12.88885286
Cu      17.83462951      16.56272173      12.92248844
Cu      17.89103801      14.07377981      12.81292772
Cu      17.82120289      11.57857794      12.84868268
Cu      13.69844278      12.00998045      11.54744649
Cu      12.18951156      14.06694548      11.59416756
Cu      13.71391820      16.16525846      11.59456085
Cu      16.13654645      15.36602537      11.54774008
Cu      16.12314578      12.81211979      11.51450404
Cu      14.34583728      14.10341861      10.36013826
42
Properties=species:S:1:pos:R:3 config_type=qcd gap_pre_relax_energy=-125.2047377131334 gap_pred_energy=-125.30198413338411 gap_fmax_final=0.0008134971082665759 gap_converged=1 pbc="F F F"
Cu      14.33810522      13.56324415      12.62227139
Cu      14.35637328      13.56300122      15.18391326
Cu      16.74970090      14.34454668      12.62529835
Cu      16.75404435      14.36602478      15.18355241
Cu      15.00480168      15.62667653      13.91547830
Cu      14.99946087      15.65184009      11.44592549
Cu      12.82911733      15.64868914      12.62209175
Cu      16.76479940      16.91312536      12.62800421
Cu      14.34157620      17.70517464      12.71208667
Cu      12.84642066      15.66825146      15.18424706
Cu      16.74534000      16.92193635      15.18364651
Cu      14.29548900      17.84817440      15.18409506
Cu      14.33894300      13.56304618      17.74556253
Cu      16.75054740      14.34436000      17.74180748
Cu      15.00522301      15.62657881      16.45229813
Cu      15.00069673      15.65155204      18.92185381
Cu      12.82996255      15.64847703      17.74640361
Cu      16.76564703      16.91293507      17.73928362
Cu      14.34239365      17.70498002      17.65607306
Cu      18.51296678      15.61762461      16.52629809
Cu      18.51252048      15.61771754      13.84031032
Cu      16.15354059      18.94186785      16.45912160
Cu      16.15311629      18.94196499      13.90852820
Cu      16.07294485      12.26612993      13.88645203
Cu      16.07337069      12.26604053      16.48072902
Cu      12.14933693      17.65350223      16.46069931
Cu      12.14891841      17.65361105      13.90818872
Cu      12.17759825      13.58838541      16.50953365
Cu      12.17716615      13.58849719      13.85900331
Cu      18.46859425      13.09549229      13.94329215
Cu      18.46900672      13.09540932      16.42315967
Cu      18.49166643      18.12270378      13.94575241
Cu      18.49207800      18.12261361      16.42104187
Cu      13.67401058      11.56465894      13.94513980
Cu      13.67441725      11.56456222      16.42274660
Cu      10.72574826      15.62783201      13.94679070
Cu      10.72615421      15.62772429      16.42239610
Cu      20.18509723      14.39217747      15.18298384
Cu      20.20455736      16.82570376      15.18306061
Cu      17.80491374      11.09752098      15.18327108
Cu      10.08749391      13.57364924      15.18460689
Cu      11.52743024      11.60328664      15.18429123
43
Properties=species:S:1:pos:R:3 config_type=qcd gap_pre_relax_energy=-128.67472748850935 gap_pred_energy=-128.77674303562148 gap_fmax_final=0.000826381108704778 gap_converged=1 pbc="F F F"
Cu      14.48144540      14.02007141      15.16888909
Cu      14.42147614      14.06441991      17.59244910
Cu      15.17599639      11.92735200      16.23087224
Cu      12.68954027      12.66222055      16.27699225
Cu      12.73691075      15.28830997      16.15038154
Cu      15.21958771      16.14434082      16.27588202
Cu      16.68649319      14.00625298      16.23042464
Cu      13.76717593      11.99743114      14.01753663
Cu      12.30970198      14.05531173      13.95366880
Cu      13.77660821      16.07422733      13.95293621
Cu      16.18410448      15.32385085      14.01662247
Cu      16.19733653      12.77293498      13.99883659
Cu      14.46542903      14.03095465      12.64629988
Cu      12.55986802      15.41829538      18.50803803
Cu      10.84187925      14.11561920      17.09622065
Cu      10.93459763      16.59829496      17.06868170
Cu      13.26706967      17.45379045      17.09439702
Cu      16.88514309      10.65185910      14.91742073
Cu      14.48935257       9.89963117      14.94449984
Cu      11.97835653      10.66112411      14.93643906
Cu      10.52474602      12.74717379      15.01274496
Cu      10.46399265      15.36502861      14.94697753
Cu      11.96089597      17.42556451      14.94590030
Cu      14.46971170      18.17663465      15.01046418
Cu      16.90241322      17.43846635      14.93451108
Cu      18.40246367      15.28545847      14.94340964
Cu      18.42729775      12.77435576      14.91705368
Cu      15.52668612      10.71113038      12.74285285
Cu      13.13455886       9.99460353      12.84072791
Cu      11.57675580      11.96853269      12.78312650
Cu      10.17690264      14.03701994      12.85527633
Cu      11.55827432      16.14314574      12.75510011
Cu      13.13470224      18.10774959      12.85352841
Cu      15.53457325      17.41546587      12.78127082
Cu      17.89330292      16.54383908      12.83914909
Cu      17.95088394      14.04740363      12.74225273
Cu      17.89007190      11.54277646      12.81323593
Cu      13.75081319      11.96976599      11.44258115
Cu      12.24837936      14.05234792      11.44159112
Cu      13.75970732      16.13227025      11.44087625
Cu      16.20482492      15.34694849      11.44167865
Cu      16.21274850      12.76120274      11.41461215
Cu      14.43371373      14.05331565      10.23008289
43
Properties=species:S:1:pos:R:3 config_type=qcd gap_pre_relax_energy=-128.66501881737983 gap_pred_energy=-128.75593375128037 gap_fmax_final=0.0009734697069779733 gap_converged=1 pbc="F F F"
Cu      14.32346824      13.68426413      12.61528345
Cu      14.32911961      13.69734844      15.18392308
Cu      16.75605809      14.46578554      12.61500405
Cu      16.74440009      14.47333163      15.18360207
Cu      15.00659155      15.73513281      13.91302988
Cu      14.99477502      15.77118790      11.44425127
Cu      12.82544969      15.76345353      12.62887838
Cu      16.76295429      17.02843573      12.62841686
Cu      14.33742291      17.81809293      12.71501379
Cu      12.83968597      15.78140736      15.18430638
Cu      16.74144488      17.03496246      15.18378753
Cu      14.29246460      17.95905777      15.18423595
Cu      14.32426786      13.68389309      17.75256339
Cu      16.75685771      14.46541637      17.75219690
Cu      15.00698831      15.73494849      16.45489962
Cu      14.99594067      15.77064916      18.92368728
Cu      12.82624576      15.76308432      17.73973692
Cu      16.76374940      17.02806893      17.73915165
Cu      14.33819077      17.81773677      17.65342423
Cu      18.50976195      15.72748377      16.52035946
Cu      18.50934694      15.72767552      13.84647683
Cu      16.14982257      19.05577135      16.45867457
Cu      16.14942657      19.05595446      13.90937661
Cu      16.07793846      12.40023898      13.82884059
Cu      16.07835951      12.40004384      16.53827552
Cu      12.14422112      17.76885277      16.45918029
Cu      12.14382504      17.76903781      13.90993514
Cu      12.16398329      13.68883326      16.52126105
Cu      12.16356624      13.68902646      13.84725839
Cu      18.47474889      13.20351920      13.94536627
Cu      18.47513392      13.20334137      16.42111757
Cu      18.48827091      18.23560912      13.94649961
Cu      18.48865497      18.23543136      16.42070434
Cu      13.66172213      11.65729468      13.94597623
Cu      13.66210704      11.65711537      16.42178310
Cu      10.72021242      15.74012215      13.94746011
Cu      10.72059793      15.73994198      16.42180895
Cu      20.19261161      14.50880558      15.18306903
Cu      20.20242258      16.94333309      15.18324319
Cu      17.74544912      11.17842426      15.18321054
Cu      15.43425077      10.43592451      15.18351701
Cu      10.07967067      13.69147178      15.18458506
Cu      11.50541150      11.71808150      15.18421944
44
Properties=species:S:1:pos:R:3 config_type=qcd gap_pre_relax_energy=-131.75932381703953 gap_pred_energy=-131.92328950773452 gap_fmax_final=0.0008529024476995781 gap_converged=1 pbc="F F F"
Cu      16.04182985      14.10293490      12.10416434
Cu      13.53177301      14.30576441      11.94341074
Cu      14.84241533      16.26074198      12.47088684
Cu      14.84404022      15.28192019      10.16988899
Cu      13.47721673      13.29024610       9.55420753
Cu      11.34779721      14.43364841      10.48558841
Cu      12.72326189      16.43539614      11.18105510
Cu      12.25478141      12.28709393      11.42634632
Cu       8.70167947      12.57812946       9.56352523
Cu       9.44178427      10.34827140       9.04323367
Cu      15.97051655      13.07512926       9.75221502
Cu      11.13052910      12.11818876       9.28955960
Cu      13.14024133      10.23821855      12.41381107
Cu      11.04025051      10.13030266      10.92197827
Cu      11.97111616       8.14423230      12.14068831
Cu      14.25156791       8.68489355      10.93357905
Cu      15.66488672      10.02972907      12.57429117
Cu      14.10881889       8.25487502      13.39115867
Cu      14.67749396      12.07707252      11.52305234
Cu      15.88456193      12.23102952      13.80760699
Cu      13.28738268      10.71969426       9.83487347
Cu      17.07988792      11.87939548      11.64413425
Cu      15.76486628      10.48687274      10.05722506
Cu      10.51498297      15.95930564      12.31625168
Cu       8.86408899      14.74515416      10.88936565
Cu       7.51466919      12.81881107      11.74622391
Cu      11.11121803      11.35840342      13.40956787
Cu      14.33378529      10.36115066      14.70007099
Cu      12.04807819       9.25420405      14.43900999
Cu       8.91382471      14.14564678      13.34939692
Cu       8.65618204      11.59592746      13.60566313
Cu       9.88369905       9.30240557      13.02095621
Cu       8.60307423      10.60255082      11.31249729
Cu       9.90406164      12.64383848      11.59145206
Cu      10.18978333      12.91064415      15.19220199
Cu      12.24133485      11.47884579      15.68127518
Cu      10.01193902      10.39736520      15.31613688
Cu      12.49413677      14.02216966      15.42696715
Cu      11.39404165      13.84012012      13.19322312
Cu      13.40768437      12.43064475      13.67458658
Cu      14.48168479      12.58089614      15.83991959
Cu      14.71374264      14.48679134      14.22776537
Cu      10.50099180      15.39287758      14.79460369
Cu      12.67903961      15.91920900      13.68712677
44
Properties=species:S:1:pos:R:3 config_type=qcd gap_pre_relax_energy=-131.7565672146731 gap_pred_energy=-131.88565237671008 gap_fmax_final=0.0008694622482728428 gap_converged=1 pbc="F F F"
Cu      14.48704562      14.08056864      15.12283546
Cu      14.44835202      14.20480154      17.54558708
Cu      15.19778577      12.00298659      16.22636336
Cu      12.69208971      12.77482407      16.29461184
Cu      12.73789971      15.36778476      16.08305440
Cu      15.24151416      16.22944734      16.18984702
Cu      16.70352911      14.08046535      16.15911037
Cu      13.78130036      12.04872769      13.98343728
Cu      12.32771014      14.11343388      13.89946136
Cu      13.79139352      16.14402563      13.89306588
Cu      16.19489899      15.38939094      13.95373481
Cu      16.19495416      12.83134425      13.94795575
Cu      14.47647497      14.09737820      12.59567939
Cu      12.57734001      15.56993455      18.44668450
Cu      13.35365301      10.47943116      16.75624320
Cu      10.83366006      14.24415500      17.04972128
Cu      10.95494849      16.72222494      16.98975600
Cu      13.29760393      17.54478917      17.00552593
Cu      16.94703942      10.75311152      14.86921526
Cu      14.61574793       9.93493108      14.81163014
Cu      11.92417936      10.77627445      14.84645050
Cu      10.53633301      12.86135101      14.97124145
Cu      10.48243082      15.47021046      14.87708736
Cu      11.98586552      17.52052191      14.86752018
Cu      14.49198893      18.26442408      14.92288932
Cu      16.91807071      17.51898950      14.85346026
Cu      18.41557814      15.37687470      14.87842847
Cu      18.44390320      12.86997386      14.85427528
Cu      15.56194639      10.77813554      12.65374388
Cu      13.14637756      10.07255895      12.77570005
Cu      11.57470813      12.04554137      12.70994661
Cu      10.18962131      14.12259431      12.80078380
Cu      11.57919209      16.21612656      12.69173373
Cu      13.15537283      18.17710596      12.77169481
Cu      15.54868002      17.48008022      12.70542782
Cu      17.90350568      16.61400816      12.76452771
Cu      17.95788800      14.12300151      12.68441805
Cu      17.91354571      11.62973820      12.75217742
Cu      13.76370844      12.04524480      11.39914756
Cu      12.25724225      14.12652738      11.38299469
Cu      13.77408677      16.19542602      11.37563523
Cu      16.21463257      15.41326847      11.37458829
Cu      16.22963281      12.83830394      11.35539937
Cu      14.44263189      14.11602559      10.17327102
45
Properties=species:S:1:pos:R:3 config_type=qcd gap_pre_relax_energy=-135.08109436103533 gap_pred_energy=-135.19539537603399 gap_fmax_final=0.0008519675109237725 gap_converged=1 pbc="F F F"
Cu      13.82150191      13.25188095      11.27812951
Cu      15.88753737      14.44278303      11.54402017
Cu      15.18298810      12.99806502      13.45886049
Cu      13.07431464      11.72576844      13.17112961
Cu      10.51970724      11.72581961      13.17115109
Cu      13.08251189      13.61188324      14.81257333
Cu      14.29677606      11.45530996      15.22915538
Cu      10.51161144      13.61193678      14.81259245
Cu      13.87593476      15.14251965      12.88776566
Cu      11.79708001      16.05766145      11.59945956
Cu      13.94069220      15.47177700      10.36925050
Cu       8.41108835      12.99820035      13.45891542
Cu      13.08242254       9.46636400      14.30435615
Cu      10.51153093       9.46641569      14.30437956
Cu       9.29727049      11.45541200      15.22919832
Cu      11.79702371      11.44256094      15.32052725
Cu       9.77254548      13.25195627      11.27816039
Cu      11.79693160       7.62083321      13.16882952
Cu      11.79704993      13.90707880      12.74751861
Cu       8.41911738      10.40527779      13.13736191
Cu       9.65343014      15.47185294      10.36927635
Cu       7.70656255      14.44294183      11.54408296
Cu       9.71821538      15.14260111      12.88779209
Cu      11.79694331      10.07083977       9.43366952
Cu      11.79691474       7.88946630      10.64081961
Cu      11.79696484       9.80071807      12.18111481
Cu      11.79703525      14.22338026       9.92586456
Cu       9.65587791       8.74735321       9.55820427
Cu      13.93796265       8.74727721       9.55816166
Cu      15.17485194      10.40514370      13.13730157
Cu      13.88959507       8.44835857      12.08527497
Cu      13.82162864      10.70061667      10.96532864
Cu      11.79699789      12.00661756      11.04049293
Cu      15.88281732       9.46440311      10.93867624
Cu      13.11848247      12.23355987       8.97885829
Cu      15.97670893      11.94860446      11.29544479
Cu      15.24989387      10.95981621       9.04259036
Cu      15.25165959      13.44790979       9.34609557
Cu       8.34402950      10.95994281       9.04265089
Cu       9.77231556      10.70069253      10.96536508
Cu      10.47548661      12.23361305       8.97888090
Cu       8.34235967      13.44803707       9.34614998
Cu       7.61728846      11.94876509      11.29551568
Cu       7.71107697       9.46456020      10.93875184
Cu       9.70427974       8.44843945      12.08531661
45
Properties=species:S:1:pos:R:3 config_type=qcd gap_pre_relax_energy=-135.17109952512067 gap_pred_energy=-135.2552407968137 gap_fmax_final=0.0008245332972541819 gap_converged=1 pbc="F F F"
Cu      14.57377037      14.15619449      14.98936366
Cu      14.53643244      14.15083430      17.42607360
Cu      15.27580680      12.06578536      16.12973234
Cu      12.74811655      12.84308411      15.98184149
Cu      12.81983666      15.45577692      15.97551706
Cu      15.29703607      16.25811187      16.13961447
Cu      16.78991853      14.15685107      16.04737941
Cu      13.84882965      12.12862287      13.78786212
Cu      12.36597511      14.17096317      13.81345775
Cu      13.84390133      16.20070569      13.78736229
Cu      16.26111276      15.45189383      13.84246729
Cu      16.25958800      12.87757187      13.84044246
Cu      14.53580795      14.16448715      12.47657146
Cu      12.61891470      12.90171250      18.34973711
Cu      12.63104712      15.41928091      18.36485546
Cu      13.30834834      10.78539381      17.02181366
Cu      10.93648303      14.16520937      16.94030586
Cu      10.99945101      16.68001898      16.94883616
Cu      13.32520309      17.56751730      17.01635425
Cu      16.96619795      10.77080723      14.76271506
Cu      14.52601142      10.05218221      14.88183812
Cu      12.05575260      10.80682228      14.83313675
Cu      10.54954889      12.85809777      14.83845730
Cu      10.51079491      15.47727956      14.81474289
Cu      12.02424272      17.54862759      14.82421849
Cu      14.52780208      18.27936941      14.88876477
Cu      16.96810298      17.55915719      14.76655339
Cu      18.49192097      15.41667602      14.74390937
Cu      18.49229572      12.90720896      14.74016503
Cu      15.58924130      10.78386068      12.61674175
Cu      13.19050090      10.09796398      12.71414217
Cu      11.62362713      12.07203180      12.62730763
Cu      10.23698060      14.16228797      12.70225802
Cu      11.61857280      16.26342097      12.63035354
Cu      13.18845433      18.23649205      12.72288464
Cu      15.58854843      17.54624743      12.62479819
Cu      17.94871480      16.67422186      12.65286601
Cu      17.99740515      14.16463365      12.55909550
Cu      17.94705040      11.65473255      12.64823082
Cu      13.80560025      12.07288906      11.27728902
Cu      12.31086204      14.16679330      11.30557640
Cu      13.80634042      16.26144158      11.28211554
Cu      16.25599245      15.47302115      11.26530742
Cu      16.25583287      12.85952190      11.26132217
Cu      14.48227782      14.16844768      10.06987356
46
Properties=species:S:1:pos:R:3 config_type=qcd gap_pre_relax_energy=-138.81565832646336 gap_pred_energy=-138.89582625412902 gap_fmax_final=0.0009092549400206867 gap_converged=1 pbc="F F F"
Cu      14.65814022      14.22015821      14.93117336
Cu      14.61344362      14.22016355      17.38371535
Cu      15.36702337      12.12054026      16.08217252
Cu      12.87937577      12.93076097      15.91140670
Cu      12.87937582      15.50955939      15.91140098
Cu      15.36702334      16.31978107      16.08216325
Cu      16.86845980      14.22016051      15.99472704
Cu      13.91458847      12.18352917      13.72403028
Cu      12.43321475      14.22015552      13.75826095
Cu      13.91458841      16.25678168      13.72402138
Cu      16.33373412      15.50951523      13.78361520
Cu      16.33373428      12.93079601      13.78362081
Cu      14.61163857      14.22015261      12.41646013
Cu      12.67990445      12.96549080      18.30885970
Cu      12.67990439      15.47484010      18.30885428
Cu      13.38680487      10.82257263      16.95468769
Cu      11.05774694      11.70922345      16.88274646
Cu      10.95411163      14.22016228      16.88541831
Cu      11.05774678      16.73110123      16.88273553
Cu      13.38680480      17.61775241      16.95467286
Cu      17.03721812      10.82261944      14.70624386
Cu      14.59468187      10.10589336      14.82816630
Cu      12.09284403      10.83813921      14.76090038
Cu      10.57791898      12.91223812      14.74862872
Cu      10.57791892      15.52807716      14.74862299
Cu      12.09284390      17.60217620      14.76088559
Cu      14.59468172      18.33442245      14.82814828
Cu      17.03721802      17.61769604      14.70622888
Cu      18.56457650      15.47486300      14.68424042
Cu      18.56457654      12.96545236      14.68424592
Cu      15.66022772      10.83815097      12.56353514
Cu      13.25923565      10.14928918      12.66000739
Cu      11.69288429      12.12473950      12.56708547
Cu      10.30835308      14.22015299      12.62855269
Cu      11.69288422      16.31556628      12.56707629
Cu      13.25923546      18.29101708      12.65998955
Cu      15.66022755      17.60215496      12.56352022
Cu      18.02087662      16.73108255      12.59381107
Cu      18.06985587      14.22015285      12.50251963
Cu      18.02087666      11.70922364      12.59382218
Cu      13.88088348      12.12475159      11.21936697
Cu      12.38870276      14.22015000      11.24684166
Cu      13.88088339      16.31554835      11.21935778
Cu      16.33080441      15.52802930      11.20505163
Cu      16.33080447      12.91227065      11.20505739
Cu      14.55862302      14.22014731      10.01055245
46
Properties=species:S:1:pos:R:3 config_type=qcd gap_pre_relax_energy=-137.60188613263057 gap_pred_energy=-137.845020386343 gap_fmax_final=0.0009672904716454074 gap_converged=1 pbc="F F F"
Cu      12.31469655      12.73171627       9.87680265
Cu      14.17386632      14.21369986      10.52095786
Cu      14.58341846      11.64317145      10.24207118
Cu      11.94693147      15.32197145      10.62003642
Cu      16.36256184      13.26755016      10.79280358
Cu      10.12662769      11.46452904      10.59476300
Cu      10.00405554      13.90943103      10.12866563
Cu      12.28269422      10.65738165      11.32899687
Cu      13.64530046      12.40904255      12.26743074
Cu      12.82870510      14.75185196      12.78817047
Cu      16.39417730      15.61688096      11.44053268
Cu      15.16525365      14.23264115      12.94382103
Cu      11.24331123      13.05617862      12.01913292
Cu      16.12033497      11.69833307      12.60199309
Cu      11.96636813      16.96126900      12.81723829
Cu      14.50485517       9.97244259      12.10583448
Cu      10.13349607      15.18641990      12.33588834
Cu      10.46688254      11.09562914      13.20735822
Cu      16.87167135      16.09321007      13.94562170
Cu      16.00747645      17.80186846      12.31382778
Cu      14.04805762      16.50075080      11.38501887
Cu       8.84270033      12.92518926      12.13955853
Cu      17.52554931      13.79189827      12.89876295
Cu      14.43233481      16.64525974      13.74734843
Cu      12.78329008      10.45546676      13.78507131
Cu      16.14609069      14.13588004      15.18882258
Cu       9.80124313      13.20035136      14.34904998
Cu      15.41803649      10.15017018      14.46133928
Cu      17.22630504      11.98105790      14.77670276
Cu      18.54691993      14.27245638      15.02259324
Cu      11.09372626      15.33796190      14.55735920
Cu      14.55630487      12.35966070      14.54532777
Cu      11.18363066      11.31510372      15.70156536
Cu      17.29439176      15.68734584      16.61470410
Cu      13.68474230      14.63431513      15.11225317
Cu      12.19415681      12.88167935      14.29481440
Cu      12.66703360      16.93983205      15.42055273
Cu      10.78081078      16.21933624      16.84545634
Cu      17.50950489      13.22365038      17.00480130
Cu      15.57654378      11.78727273      16.65341486
Cu      13.54211725      10.52462229      16.06441557
Cu      11.09530147      13.78423516      16.41995575
Cu      12.96275282      15.30007004      17.31387391
Cu      15.21334937      14.25085007      17.42739675
Cu      15.02349389      16.37347399      16.11902671
Cu      13.27824456      12.80620835      16.82818418
47
Properties=species:S:1:pos:R:3 config_type=qcd gap_pre_relax_energy=-141.98354094413736 gap_pred_energy=-142.08249781289757 gap_fmax_final=0.0008646567000262593 gap_converged=1 pbc="F F F"
Cu      14.00571742       8.64908619       9.56966102
Cu      13.18087654      12.11640887       9.02206457
Cu      11.85653931       9.95764287       9.45687786
Cu      11.85651575       9.65634863      12.19855906
Cu       9.82309557      10.58306514      10.99938525
Cu      10.53262590      12.11667110       9.02207084
Cu       8.38940741      10.88734818       9.08648356
Cu      11.85632644       7.76835395      10.63492827
Cu       9.70710356       8.64950955       9.56967071
Cu       7.69131639      11.85352834      11.34925459
Cu       7.80212411      14.35913590      11.62747805
Cu       8.41766361      13.37003943       9.42629211
Cu       8.47301852      10.26273716      13.16671873
Cu       9.75885162       8.31596511      12.08768620
Cu       9.35531083      11.27800378      15.27493722
Cu       7.76226139       9.36055643      10.95762172
Cu       9.85076130      13.16384998      11.34907739
Cu      11.85673114      11.86580786      11.07703737
Cu      11.85694756      14.08341918       9.98884075
Cu       9.76085850      15.01773956      13.04528133
Cu      11.85717971      16.44935314       9.53205466
Cu       9.78564658      15.43072132      10.49352777
Cu       8.47886781      12.85411280      13.52309330
Cu      13.86295801      13.16345412      11.34906803
Cu      11.85691442      13.68787215      12.77586005
Cu      13.95323569      15.01732604      13.04527110
Cu      13.92851742      15.43031175      10.49351801
Cu      11.85709811      15.50838941      14.34297915
Cu      10.56756924      13.43583229      14.91210351
Cu      11.85713632      15.95178688      11.87938543
Cu      10.57457687      11.56974442      13.21974627
Cu      13.13883641      11.56949171      13.21974075
Cu      11.85668149      11.26027971      15.36218193
Cu      15.29608757      13.36936045       9.42627528
Cu      13.89011347      10.58266366      10.99937619
Cu      13.14299098       9.29969771      14.31931141
Cu      15.23480119      12.85344617      13.52307799
Cu      14.35805448      11.27751030      15.27492654
Cu      15.91183313      14.35833576      11.62745896
Cu      15.32385336      10.88666300       9.08646742
Cu      13.14622072      13.43557777      14.91209783
Cu      15.24013765      10.26206962      13.16670411
Cu      16.02214594      11.85270637      11.34923540
Cu      13.95391575       8.31555115      12.08767687
Cu      15.95070705       9.35974844      10.95760386
Cu      10.56998000       9.29995154      14.31931650
Cu      11.85630241       7.46923979      13.15842977
47
Properties=species:S:1:pos:R:3 config_type=qcd gap_pre_relax_energy=-141.91460554983124 gap_pred_energy=-142.01826488950456 gap_fmax_final=0.0007873722478315244 gap_converged=1 pbc="F F F"
Cu      14.56491119      14.15425693      14.86706827
Cu      14.46923396      14.11603148      17.31915014
Cu      15.24927531      12.02712464      15.98207068
Cu      12.76228675      12.86076954      15.81325205
Cu      12.76826074      15.44340220      15.82307742
Cu      15.22712549      16.23629784      16.08882137
Cu      16.76388008      14.10604147      15.97589059
Cu      13.81810650      12.11597616      13.64075981
Cu      12.34248411      14.15710887      13.66761121
Cu      13.84484376      16.18925949      13.65524074
Cu      16.26328438      15.43362778      13.73848258
Cu      16.23992139      12.86883621      13.71277791
Cu      14.52520126      14.15548217      12.34690291
Cu      12.51907280      12.86603494      18.21325735
Cu      12.51497706      15.37558853      18.22341560
Cu      13.25549050      10.74891575      16.85224756
Cu      10.92412515      11.62575176      16.75444775
Cu      10.82537475      14.13629889      16.77120651
Cu      10.91915119      16.64365890      16.78231930
Cu      13.23569131      17.54582876      16.88943660
Cu      17.61524250      16.31931093      16.52057766
Cu      16.90511790      10.72862265      14.62412895
Cu      14.46510310      10.01574009      14.73091383
Cu      11.97927692      10.76965473      14.64670993
Cu      10.46899470      12.84208927      14.62615143
Cu      10.46775075      15.45172854      14.64156910
Cu      11.97495194      17.52369359      14.67082404
Cu      14.46677846      18.25043941      14.77981302
Cu      16.87782854      17.58679224      14.61678852
Cu      18.53011507      15.29609429      14.56659247
Cu      18.45033037      12.82412858      14.62647812
Cu      15.55219013      10.76861955      12.47884709
Cu      13.15374044      10.08870486      12.55286062
Cu      11.60272695      12.06843512      12.45826855
Cu      10.22252226      14.16140951      12.51394991
Cu      11.61295434      16.25003028      12.48013232
Cu      13.17022453      18.22268471      12.59048557
Cu      15.57207667      17.54110798      12.47846102
Cu      17.93386261      16.64927010      12.53442747
Cu      17.99347094      14.12091743      12.41555508
Cu      17.91092527      11.61229582      12.52010512
Cu      13.79214286      12.06737071      11.12939388
Cu      12.31064554      14.16379353      11.15203435
Cu      13.80014522      16.25412154      11.14493777
Cu      16.24968305      15.45391306      11.15280833
Cu      16.23914439      12.83645470      11.13154322
Cu      14.48630881      14.16323636       9.93515824
48
Properties=species:S:1:pos:R:3 config_type=qcd gap_pre_relax_energy=-144.33170070224912 gap_pred_energy=-144.42885882097758 gap_fmax_final=0.000930002065822001 gap_converged=1 pbc="F F F"
Cu      12.81240060      11.77277505      15.88868955
Cu      13.15915839       9.75251682      14.44290712
Cu      10.83601904      10.38110897      15.23697811
Cu      13.42908136       7.85344475      12.84723112
Cu      10.67914727      12.93217251      15.27412527
Cu      11.12724119       8.38268655      13.67260417
Cu       8.85000677       9.09764265      14.39999707
Cu      12.98178860      13.88583526      14.52576734
Cu      14.81760705       9.88665358      12.44260711
Cu      12.10825885      11.83606440      13.61113221
Cu       8.67451629      11.58957671      14.60172244
Cu      16.03655677      12.03412553      11.99948695
Cu      12.35102991       9.87354388      12.08894982
Cu       8.55615404      14.07722810      14.64128504
Cu      14.59490000      14.01818225      12.58052179
Cu      10.01952200      10.52740899      12.85765533
Cu      11.51228659       7.65798095      11.24526926
Cu      10.86180380      15.07020044      14.05386626
Cu       9.16839735       8.28024732      12.05084167
Cu      13.66786730      11.96299313      11.73242389
Cu      13.77128752       8.59680728      10.48288664
Cu      13.10880462      15.93717470      13.12443018
Cu       9.80346984      13.18359474      12.85641959
Cu      10.40181152       9.81582188      10.46906578
Cu      14.95614268      13.27831336      10.11322958
Cu       7.35216105      12.67981835      12.83088853
Cu      11.21932713      11.97028958      11.29184288
Cu      15.11797991      10.72833989      10.07147094
Cu       7.61224994      10.25196899      12.55093597
Cu      12.07552797      14.06798735      12.14203159
Cu      14.00977607       9.51602558       8.17545609
Cu       9.58564356       7.70341797       9.65121129
Cu      10.15232951      14.08410941      10.55012507
Cu      11.82114132       8.49539547       8.85073478
Cu      12.40645247      13.39496463       9.71535650
Cu       8.80639539      11.96312558      10.91818061
Cu      12.62444438      10.73928305       9.71657345
Cu      13.65495478      15.29717268      10.68351970
Cu      13.86326733      14.50714167       8.23846702
Cu       6.50564294      11.49238277      10.69864533
Cu      10.40036493      12.09254586       8.99495149
Cu      14.01059233      12.02197743       8.16390320
Cu       7.98559383       9.56146974      10.17564858
Cu       9.67642674       9.69837933       8.13496247
Cu      11.88890772      10.59846806       7.39167997
Cu      11.95500832      13.05256103       7.27764382
Cu       8.01092940      11.44582994       8.59760606
Cu       9.78443160      11.75805386       6.74287940
48
Properties=species:S:1:pos:R:3 config_type=qcd gap_pre_relax_energy=-145.27062958120666 gap_pred_energy=-145.35057425923614 gap_fmax_final=0.0007785631745219665 gap_converged=1 pbc="F F F"
Cu      14.56227108      14.10225024      14.77037794
Cu      14.59660738      14.07768701      17.25511656
Cu      15.26982701      11.98900928      15.91242738
Cu      12.79112485      12.84876354      15.78320229
Cu      12.74612371      15.39697883      15.74165928
Cu      15.19842193      16.22461676      15.79904469
Cu      16.77196384      14.07698856      15.90724596
Cu      13.82356721      12.08270541      13.57680043
Cu      12.34089296      14.12351509      13.60591223
Cu      13.83586858      16.18100385      13.59865223
Cu      16.24027335      15.39790189      13.57746209
Cu      16.25868028      12.85001530      13.63535550
Cu      14.50909889      14.12422489      12.26285762
Cu      12.61385558      12.85991336      18.17942456
Cu      12.73034532      15.41050532      18.18196783
Cu      15.13514401      16.32410765      18.16699981
Cu      13.30384146      10.72732758      16.79356660
Cu      10.97813595      11.62566641      16.75706105
Cu      10.89037243      14.14654531      16.81745949
Cu      11.01066658      16.65197566      16.78407854
Cu      13.37553005      17.51003531      16.81134778
Cu      17.34664561      16.32326971      16.79702183
Cu      16.93543380      10.72882409      14.54402987
Cu      14.49314399       9.98973472      14.65675795
Cu      11.99472994      10.76188407      14.61309159
Cu      10.49560631      12.84678519      14.64007885
Cu      10.48524607      15.44657203      14.63673094
Cu      12.00233773      17.53323066      14.63800591
Cu      14.49510027      18.29527283      14.66393590
Cu      16.91675887      17.51052241      14.61854398
Cu      18.43223486      15.41186729      14.65044184
Cu      18.48361155      12.86125181      14.54344077
Cu      15.56643294      10.76304480      12.40065035
Cu      13.15587246      10.06814230      12.49793233
Cu      11.59213337      12.04626384      12.42558997
Cu      10.21038126      14.14344375      12.50697815
Cu      11.60902666      16.22935515      12.45118523
Cu      13.16486108      18.20448983      12.51631149
Cu      15.58265064      17.53427958      12.42071343
Cu      17.94612717      16.65397107      12.48860656
Cu      18.03060699      14.14862921      12.39443792
Cu      17.93829661      11.62756080      12.44531219
Cu      13.78668824      12.04700912      11.06614369
Cu      12.28761480      14.14485979      11.09822644
Cu      13.80036248      16.23012126      11.09389537
Cu      16.25799524      15.44840087      11.06111532
Cu      16.25738323      12.84858388      11.07091867
Cu      14.47411915      14.14490650       9.86589739
49
Properties=species:S:1:pos:R:3 config_type=qcd gap_pre_relax_energy=-148.41301830941745 gap_pred_energy=-148.50778590010236 gap_fmax_final=0.0009623710206798559 gap_converged=1 pbc="F F F"
Cu      13.45541860      14.74789516       8.97358934
Cu      12.81528470      12.44221700       9.68548076
Cu      15.23890901      13.22341123       9.85477853
Cu      11.25667223      14.41354118      10.12938118
Cu      12.20908621      10.20135404      10.60893793
Cu      15.23983375      15.71619326      10.44515690
Cu      14.60363979      10.90579245      10.71395050
Cu      16.93563882      11.75770536      10.97481748
Cu      12.69240710      16.47760115      10.62055492
Cu      10.62449061      12.09510682      10.98836838
Cu      13.47666953      14.27493630      11.33431715
Cu      16.98142187      14.22001028      11.44610175
Cu       9.19192025      14.07217687      11.50866376
Cu      12.84190872      11.96504938      12.14336160
Cu      16.92862478      16.64153569      12.02348250
Cu      10.55890907      16.13952258      11.88861095
Cu      15.23135927      12.76775917      12.34326481
Cu      13.51830245       9.60899786      12.65263123
Cu      14.48095925      17.48745871      11.97259788
Cu      15.94232814      10.38794582      12.82400193
Cu      11.32727269      13.93463398      12.61260653
Cu      11.05889255      10.34394981      12.82217676
Cu      11.99830560      18.11505050      12.36298962
Cu      15.23973703      15.36954132      13.05978034
Cu      14.16657997      11.49566288      14.24529211
Cu       9.43393983      14.79604320      13.89693188
Cu      17.57830574      14.82642157      13.75301722
Cu      13.50250773      13.80563248      13.74423826
Cu       9.49887606      12.31366988      13.26826457
Cu      17.43148794      12.40597041      13.34560611
Cu      12.83233590      16.08906901      13.22556580
Cu      10.03749983      10.66465229      15.07746678
Cu      14.82354209       9.23439561      14.74751100
Cu      14.15042329      15.61215684      15.31516968
Cu      12.39505537       9.82591095      14.93385827
Cu      11.76967214      14.81978610      15.12308372
Cu      15.66511058      13.65590053      14.85470004
Cu      11.75362510      12.21667731      14.41159112
Cu      10.68664354      16.88592753      14.22789345
Cu       9.82202925      15.51548113      16.24876591
Cu      17.79978783      13.13131057      15.69878670
Cu      13.52067239      13.31615939      16.13003822
Cu       9.85730044      13.09115899      15.68253732
Cu      16.37468011      11.14352680      15.23322468
Cu      14.10505680      10.78395067      16.58313739
Cu      11.71039131      11.49962479      16.74817292
Cu      11.43923239      13.85395900      17.40365700
Cu      15.69853903      12.58100658      17.11010379
Cu      13.40779980      12.43564603      18.31086982
50
Properties=species:S:1:pos:R:3 config_type=qcd gap_pre_relax_energy=-151.1651822330843 gap_pred_energy=-151.34185993605576 gap_fmax_final=0.0009613440402226468 gap_converged=1 pbc="F F F"
Cu      12.54853743      13.04842447       8.74500046
Cu      15.03877133      12.43810672       8.57582929
Cu      16.66196147      13.48591538      10.28323412
Cu      13.40090970      10.96665821       9.75142853
Cu      15.72541577      11.21066616      10.62765125
Cu      10.22098326      14.04912309       9.20156102
Cu      10.89221762      11.80130203      10.05762923
Cu      11.85635548      14.12267456      10.89968525
Cu      14.04191947       9.70859939      11.91158621
Cu       9.93715834      15.69364087      11.18116894
Cu      14.21164332      13.32370180      10.59845433
Cu      17.96209888      14.74761327      12.15123138
Cu      13.79412797      15.70064623      11.26757438
Cu      17.22827961      12.38527980      12.39130832
Cu      11.70556913       9.62088983      11.00787626
Cu      12.49894768      11.71116961      11.89798331
Cu       9.36161901      15.00930299      13.46623668
Cu      10.15198793      17.35353240      13.15974432
Cu       9.42391506      13.29568330      11.42873898
Cu      14.84663057      11.87844644      12.81110593
Cu      11.82468657      15.73131472      12.83179248
Cu      10.12464178      11.01237644      12.36524178
Cu      11.00876607      13.20818769      13.29128038
Cu      13.33740233      13.81928571      12.82296295
Cu      15.64427549      14.43030474      12.36460763
Cu      16.36683324      10.01572428      12.71933420
Cu       8.72034525      12.59229131      13.72018924
Cu      12.07461807       9.74678574      13.46847286
Cu      12.46460656      17.66150497      14.29901562
Cu      14.15577205      15.91286355      13.75261921
Cu      16.62149957      16.25632850      13.76312570
Cu      12.88691102      11.88383890      14.38588921
Cu      10.50351772      11.26706328      14.85495763
Cu      14.59052747       9.99518730      14.57367307
Cu      17.18847255      13.96792166      14.40304944
Cu      10.79862238      16.10090679      15.20741237
Cu      14.81681545      13.45531492      14.75614152
Cu      12.44602987      14.29056008      15.05522965
Cu      16.56836402      11.57015181      14.62861051
Cu      10.01586101      13.69792288      15.55522295
Cu      14.95715684      17.70950133      15.04666393
Cu      12.39911450      10.05751261      15.90282858
Cu      15.64509258      15.43547038      15.88683312
Cu      13.27715758      16.29566331      16.18199642
Cu      11.87521358      12.41357014      16.65901894
Cu      14.21184545      11.62016557      16.50054569
Cu      16.26353334      10.46460951      16.69128397
Cu      16.25696625      13.02049211      16.62215828
Cu      13.92265661      14.01484401      17.07010605
Cu      11.53922077      14.81653421      17.22028341
51
Properties=species:S:1:pos:R:3 config_type=qcd gap_pre_relax_energy=-155.05097414276648 gap_pred_energy=-155.331829509154 gap_fmax_final=0.000891549011672849 gap_converged=1 pbc="F F F"
Cu      12.96006986      16.40481244      11.89385071
Cu      10.52985684      15.74834897      11.79931537
Cu       9.97366739      13.31640382      11.65706927
Cu      12.04536587      15.46307926       9.72607124
Cu       9.56603493      14.66715161       9.66327699
Cu       9.23860515      12.53948957       8.29134105
Cu       8.17133336      14.86936635      11.76793151
Cu      11.45130657      13.07957695       9.31106372
Cu       9.85635314      11.20463589      10.21355363
Cu      10.06159351      10.00935176       8.13388638
Cu       7.83467179      10.64070331       9.06338279
Cu       7.89246905      12.77637182      10.41339055
Cu      12.39693469      14.09912531      11.72018126
Cu      11.98900755      15.25749709      13.90365452
Cu      11.41259061      12.83572027      13.67836499
Cu      11.02110711      13.90445726      15.78738964
Cu       9.84304794      11.05021375      12.77489881
Cu       9.53246272      14.47232849      13.83969365
Cu       7.78470607      10.47759414      11.54515895
Cu       9.20659420       8.65454059      12.73935102
Cu       7.92840133      10.38031789      14.04927116
Cu       7.92747721      12.65385982      12.96789913
Cu       9.41628966      12.14976547      15.00173586
Cu       9.19444480       8.81818634      10.17553817
Cu      11.63787137       8.34541647       9.25672432
Cu      11.20426220       9.30399943      11.44198113
Cu      11.81247720      11.73279408      11.45566662
Cu      12.19553595      10.41692280      13.53555521
Cu      10.20832402       9.69259452      14.86297559
Cu      11.62022619       8.00930036      13.46813899
Cu      14.17792053      10.95877692      14.95507216
Cu      11.79302391      11.50426429      15.76673223
Cu      15.76508819      10.91163781      10.34758399
Cu      13.38069788      13.41605043      15.09978244
Cu      12.56991515       9.12208321      15.51138234
Cu      14.09029043       8.79126967      13.52405236
Cu      13.11875013       7.80129903      11.30488859
Cu      13.76878188      12.30754018      12.87440387
Cu      15.69514983      10.71440694      12.89666736
Cu      15.66413312      12.84691322      14.24087186
Cu      13.66467649      10.19413793      11.48943104
Cu      14.10513162       9.13807413       9.34309912
Cu      15.48343908       8.66704266      11.42778514
Cu      14.45409748      11.41517331       8.24323696
Cu      13.61543038      13.93867629       8.40669274
Cu      13.79551978      12.46768413      10.31684766
Cu      14.38923166      14.72010168      13.13404373
Cu      15.83554131      13.05428897      11.75474669
Cu      15.82858257      13.20646016       9.27898703
Cu      12.21640715      10.75686294       9.14884582
Cu      14.46476444      14.88299150      10.58619591
52
Properties=species:S:1:pos:R:3 config_type=qcd gap_pre_relax_energy=-158.9452050941011 gap_pred_energy=-159.026459814417 gap_fmax_final=0.0006744262251215241 gap_converged=1 pbc="F F F"
Cu      14.39231576      14.19628119      14.51383790
Cu      14.52235863      14.19628711      17.06218199
Cu      15.01994717      12.12266195      15.53058091
Cu      12.57544176      12.91871297      15.49322326
Cu      12.57544171      15.47385427      15.49321730
Cu      15.01994719      16.26990534      15.53057148
Cu      16.61229249      14.19628401      15.77181137
Cu      13.67077674      12.13089189      13.34503047
Cu      12.17214461      14.19627863      13.34624603
Cu      13.67077682      16.26166539      13.34502088
Cu      16.08203327      15.47387940      13.32843495
Cu      16.08203318      12.91867766      13.32844086
Cu      14.34342813      14.19627549      12.00582193
Cu      14.93213475      11.89127296      17.93261031
Cu      12.58128212      12.89452739      17.92979525
Cu      12.58128208      15.49805090      17.92978914
Cu      14.93213465      16.50130526      17.93259975
Cu      17.20677608      11.89129947      16.52822385
Cu      15.59522715       9.99563504      16.46235956
Cu      13.17434796      10.74061062      16.53202192
Cu      10.84349528      11.67661836      16.53847330
Cu      10.76427650      14.19628627      16.63217890
Cu      10.84349533      16.71595372      16.53846158
Cu      13.17434802      17.65196133      16.53200598
Cu      15.59522727      18.39693630      16.46234031
Cu      17.20677597      16.50127197      16.52821341
Cu      16.74221237      10.74053031      14.32931323
Cu      14.29121920       9.97035176      14.35026551
Cu      11.81690432      10.79829300      14.36622783
Cu      10.32010332      12.90320488      14.40730965
Cu      10.32010336      15.48935746      14.40730359
Cu      11.81690448      17.59426907      14.36621206
Cu      14.29121943      18.42221003      14.35024607
Cu      16.74221255      17.65203118      14.32929751
Cu      18.25774438      15.49808095      14.42537663
Cu      18.25774441      12.89448094      14.42538253
Cu      15.41433931      10.79822243      12.14534298
Cu      12.97909674      10.13409885      12.22475344
Cu      11.43700068      12.11263972      12.19240131
Cu      10.04091349      14.19627621      12.26454193
Cu      11.43700084      16.27991229      12.19239162
Cu      12.97909703      18.25845324      12.22473468
Cu      15.41433955      17.59432922      12.14532739
Cu      17.79248214      16.71602912      12.24847963
Cu      17.91177587      14.19627594      12.21961490
Cu      17.79248202      11.67652285      12.24849108
Cu      13.64131807      12.11262383      10.83160908
Cu      12.12414842      14.19627286      10.83972501
Cu      13.64131826      16.27992182      10.83159944
Cu      16.12186313      15.48939439      10.82564132
Cu      16.12186303      12.90315112      10.82564725
Cu      14.33144131      14.19626999       9.61586009
52
Properties=species:S:1:pos:R:3 config_type=qcd gap_pre_relax_energy=-158.29891138465453 gap_pred_energy=-158.40815363036398 gap_fmax_final=0.0008915923143517871 gap_converged=1 pbc="F F F"
Cu      14.94270561      15.39300585       9.36997107
Cu      12.83830103      14.01216246       9.30226836
Cu      15.15318465      12.88782750       9.62183029
Cu      10.76078640      12.61588733       9.43585133
Cu      13.03322569      11.47551386       9.65065750
Cu      15.27234733      10.40811278      10.11630422
Cu      12.85836470      16.29677901      10.48295634
Cu      16.63279496      14.46418033      10.98401984
Cu      10.72842976      14.86505869      10.53620439
Cu      16.78782235      11.94753066      11.41309037
Cu      11.04584501      10.73653182      11.01513181
Cu      14.18058961      14.37146999      11.37647873
Cu      13.30724518       9.64727504      11.51399582
Cu      15.16881292      16.64652565      11.53130194
Cu      12.03041811      12.92189092      11.42732893
Cu      14.33950645      11.84731966      11.74909349
Cu       9.57254816      12.87404133      11.66760026
Cu      10.82439899      17.04403821      11.78194664
Cu      15.66164537       9.90400552      12.56362516
Cu      18.16680901      13.52149123      12.78868832
Cu      12.08591114      15.19878236      12.59450709
Cu      15.82474695      13.52992693      13.11133006
Cu      13.09597198      17.45775608      12.78662362
Cu      12.14497118      11.01831593      13.22127715
Cu       9.63795710      15.10643041      12.89152156
Cu      14.73083775      13.74090471      15.38721465
Cu       8.59741896      13.14183945      14.04183984
Cu      10.92389024      13.09006513      13.71450168
Cu      13.35645165      13.28607819      13.41160869
Cu      17.13418791      11.55055503      13.93780040
Cu      11.08883454      16.75071074      14.26738956
Cu      14.47853350      15.53013892      13.61039722
Cu      17.20167081      13.81218231      15.13015966
Cu      13.65755188       9.24583750      14.06737347
Cu      15.35553080      17.71646782      13.83379836
Cu      14.68170885      11.45519222      14.24339696
Cu      11.65390514      10.03966774      15.44744759
Cu       9.98410945      14.70979791      15.41451431
Cu      12.42568917      14.80944288      15.07087652
Cu      10.15056878      12.21167584      15.88085669
Cu      12.58493755      12.28641989      15.46914835
Cu      13.44219420      17.06105321      15.30981813
Cu      15.95069349       9.63067561      15.06100799
Cu      16.03532222      14.14103959      17.33369081
Cu      15.73685674      15.99563165      15.67078225
Cu      13.95893245      10.41469304      16.39817056
Cu      11.49964795      16.27033587      16.70334997
Cu      11.64463043      13.81526074      17.21377095
Cu      16.06836307      11.83901281      16.29279621
Cu      11.87210056      11.34243077      17.53616406
Cu      13.77093456      15.25122267      17.13389536
Cu      13.96754776      12.71819828      17.53301542
53
Properties=species:S:1:pos:R:3 config_type=qcd gap_pre_relax_energy=-162.46711811339378 gap_pred_energy=-162.50707309866965 gap_fmax_final=0.0007117487025690369 gap_converged=1 pbc="F F F"
Cu      14.35169156      14.23389315      14.42435102
Cu      14.32860322      14.23389852      16.92282673
Cu      14.99058775      12.15293926      15.45757121
Cu      12.56042415      12.95322528      15.46242053
Cu      12.56042411      15.51456542      15.46241502
Cu      14.99058768      16.31485149      15.45756225
Cu      16.59723608      14.23389554      15.51986615
Cu      13.65032501      12.16619430      13.29017149
Cu      12.14725772      14.23389068      13.29202439
Cu      13.65032494      16.30158709      13.29016260
Cu      16.08064207      15.51454276      13.28552496
Cu      16.08064211      12.95323868      13.28553047
Cu      14.32336273      14.23388781      11.94629207
Cu      14.99487432      12.10280215      17.91762510
Cu      12.51560069      12.92466797      17.92258529
Cu      12.51560065      15.54313332      17.92257965
Cu      14.99487426      16.36499919      17.91761593
Cu      16.53537181      14.23390078      17.95549982
Cu      17.18953408      12.10283401      16.56048319
Cu      15.63000714      10.11771333      16.49161987
Cu      13.19860707      10.81090712      16.56595543
Cu      10.83104013      11.70379575      16.49973003
Cu      10.72723004      14.23389771      16.56998001
Cu      10.83104005      16.76399937      16.49971915
Cu      13.19860696      17.65688835      16.56594070
Cu      15.63000701      18.35008190      16.49160216
Cu      17.18953402      16.36496156      16.56047402
Cu      16.78278387      10.81092795      14.34958939
Cu      14.30823040      10.01490698      14.35422577
Cu      11.83887424      10.82935768      14.35925315
Cu      10.31414194      12.93342081      14.36312019
Cu      10.31414190      15.53436509      14.36311460
Cu      11.83887413      17.63842825      14.35923850
Cu      14.30823027      18.45287901      14.35420762
Cu      16.78278376      17.65685810      14.34957467
Cu      18.30162177      15.54319296      14.34460314
Cu      18.30162182      12.92459311      14.34460878
Cu      15.41611721      10.82933020      12.14722142
Cu      12.98440033      10.15384956      12.21319856
Cu      11.42389357      12.13402559      12.15653934
Cu      10.02618369      14.23388834      12.22017442
Cu      11.42389351      16.33375086      12.15653031
Cu      12.98440020      18.31392718      12.21318100
Cu      15.41611711      17.63844633      12.14720678
Cu      17.78128176      16.76397172      12.20177034
Cu      17.89051058      14.23388829      12.14029905
Cu      17.78128184      11.70380511      12.20178123
Cu      13.63086924      12.13398399      10.79180441
Cu      12.10780898      14.23388531      10.79580317
Cu      13.63086917      16.33378665      10.79179537
Cu      16.10065183      15.53432716      10.78477206
Cu      16.10065187      12.93344353      10.78477765
Cu      14.31204257      14.23388270       9.56979476
54
Properties=species:S:1:pos:R:3 config_type=qcd gap_pre_relax_energy=-166.17393409055185 gap_pred_energy=-166.18920212368616 gap_fmax_final=0.0009321510778720364 gap_converged=1 pbc="F F F"
Cu      14.28263905      14.28269139      14.41702547
Cu      14.28191205      14.28269684      16.93717111
Cu      14.95789380      12.20445160      15.46805607
Cu      12.51466379      12.99812666      15.46739472
Cu      12.51466387      15.56726063      15.46738915
Cu      14.95789381      16.36093574      15.46804702
Cu      16.46777582      14.28269364      15.46813558
Cu      13.60942263      12.21063201      13.29176178
Cu      12.10417287      14.28268898      13.29145947
Cu      13.60942263      16.35474591      13.29175276
Cu      16.04532175      15.56341190      13.29231708
Cu      16.04532171      13.00196602      13.29232260
Cu      14.28339939      14.28268603      11.94482861
Cu      14.97241724      12.15723289      17.93011051
Cu      12.47365952      12.96903398      17.92948232
Cu      12.47365950      15.59636393      17.92947667
Cu      14.97241721      16.40816508      17.93010129
Cu      16.51669503      14.28269894      17.93011284
Cu      17.19042270      12.16983742      16.57622846
Cu      15.61489395      10.18129134      16.50570358
Cu      13.17142681      10.86391153      16.57512599
Cu      10.79328219      11.74779236      16.50436351
Cu      10.68762717      14.28269604      16.57448321
Cu      10.79328217      16.81759948      16.50435259
Cu      13.17142682      17.70148059      16.57511123
Cu      15.61489392      18.38410046      16.50568587
Cu      17.19042264      16.39555469      16.57621936
Cu      18.59486693      14.28269591      16.50612011
Cu      16.75915915      10.87415723      14.36684936
Cu      14.28298421      10.06962243      14.36607880
Cu      11.80620885      10.87404144      14.36551812
Cu      10.27582167      12.98059284      14.36515563
Cu      10.27582165      15.58478969      14.36515004
Cu      11.80620888      17.69134111      14.36550334
Cu      14.28298419      18.49576012      14.36606056
Cu      16.75915917      17.69122536      14.36683463
Cu      18.28964702      15.58450282      14.36696327
Cu      18.28964703      12.98087977      14.36696885
Cu      15.38872199      10.88004281      12.15933877
Cu      12.95609605      10.19821384      12.22051691
Cu      11.38856082      12.17962069      12.15839238
Cu       9.98840169      14.28268665      12.21996755
Cu      11.38856076      16.38575235      12.15838329
Cu      12.95609605      18.36715943      12.22049928
Cu      15.38872201      17.68533020      12.15932410
Cu      17.75753607      16.80699018      12.22162021
Cu      17.86062304      14.28268652      12.15983717
Cu      17.75753605      11.75838309      12.22163107
Cu      13.60028975      12.18023439      10.79601924
Cu      12.07279854      14.28268360      10.79585928
Cu      13.60028974      16.38513271      10.79601015
Cu      16.07194419      15.58212413      10.79639510
Cu      16.07194419      12.98324300      10.79640067
Cu      14.28365961      14.28268092       9.57370255
55
Properties=species:S:1:pos:R:3 config_type=qcd gap_pre_relax_energy=-169.90824523904956 gap_pred_energy=-169.92019082455653 gap_fmax_final=0.0008881116956357286 gap_converged=1 pbc="F F F"
Cu      14.89483180      14.89483180      14.89483180
Cu      14.89423773      14.89483758      17.33691374
Cu      15.56978181      12.81734869      15.98692954
Cu      13.12750241      13.61087264      15.98660896
Cu      13.12750236      16.17879602      15.98660274
Cu      15.56978174      16.97232008      15.98691970
Cu      17.07885520      14.89483444      15.98755478
Cu      14.21988186      12.81734352      13.80274389
Cu      12.71080840      14.89482916      13.80210882
Cu      14.21988179      16.97231490      13.80273406
Cu      16.66216119      16.17879096      13.80305464
Cu      16.66216124      13.61086757      13.80306086
Cu      14.89542587      14.89482602      12.45274986
Cu      14.89404385      14.89484317      19.70166118
Cu      15.57807493      12.78969551      18.47619343
Cu      13.10338055      13.59369518      18.47603767
Cu      13.10338052      16.19598531      18.47603152
Cu      15.57807484      16.99998506      18.47618340
Cu      17.10768385      14.89484030      18.47675497
Cu      17.79202885      12.78951692      17.10878392
Cu      16.22302392      10.80561346      17.04477692
Cu      13.78762200      11.48861920      17.10789636
Cu      11.41599060      12.36759578      17.04382035
Cu      11.31286630      14.89483697      17.10755478
Cu      11.41599040      17.42207791      17.04380834
Cu      13.78762192      18.30105487      17.10788020
Cu      16.22302378      18.98406033      17.04475755
Cu      17.79202877      17.00015724      17.10877389
Cu      19.19393355      14.89483698      17.04536806
Cu      17.36980120      11.48829211      14.89525622
Cu      14.89483187      10.68424956      14.89484182
Cu      12.41986250      11.48829205      14.89442359
Cu      10.89066695      13.59374088      14.89392939
Cu      10.89066689      16.19592260      14.89392320
Cu      12.41986240      18.30137149      14.89440738
Cu      14.89483173      19.10541404      14.89482177
Cu      17.36980110      18.30137155      14.89524001
Cu      18.89899665      16.19592272      14.89573421
Cu      18.89899671      13.59374100      14.89574039
Cu      16.00204168      11.48860873      12.68178340
Cu      13.56663982      10.80560326      12.74490605
Cu      11.99763482      12.78950636      12.68088971
Cu      10.59573004      14.89482662      12.74429553
Cu      11.99763474      17.00014668      12.68087968
Cu      13.56663968      18.98405014      12.74488668
Cu      16.00204160      18.30104440      12.68176723
Cu      18.37367300      17.42206781      12.74584325
Cu      18.47679730      14.89482663      12.68210882
Cu      18.37367320      12.36758569      12.74585526
Cu      14.21158876      12.78967854      11.31348020
Cu      12.68197975      14.89482330      11.31290863
Cu      14.21158867      16.99996809      11.31347017
Cu      16.68628305      16.19596842      11.31362593
Cu      16.68628308      13.59367829      11.31363207
Cu      14.89561975      14.89482042      10.08800241
