3
Properties=species:S:1:pos:R:3 config_type=qcd gap_pre_relax_energy=-4.575343028665498 gap_pred_energy=-4.625161014379494 gap_fmax_final=0.0006316088420937826 gap_converged=1 pbc="F F F"
Ga       8.67714325       8.73002302       7.98353113
Ga       6.08524105       8.46495991       7.74958268
Ga       8.57613453       6.14353588       7.60540502
4
Properties=species:S:1:pos:R:3 config_type=qcd gap_pre_relax_energy=-7.276892658099296 gap_pred_energy=-7.290708948048145 gap_fmax_final=0.00060904436307746 gap_converged=1 pbc="F F F"
Ga       8.02915190       9.85846673       8.02915190
Ga       8.02915190       6.19983707       8.02915190
Ga       6.19982292       8.02915190       8.02915190
Ga       9.85848088       8.02915190       8.02915190
5
Properties=species:S:1:pos:R:3 config_type=qcd gap_pre_relax_energy=-9.312169182842648 gap_pred_energy=-9.624800981968587 gap_fmax_final=0.00031293819465998097 gap_converged=1 pbc="F F F"
Ga       9.88779992       8.39992741       8.97069100
Ga       9.47886399       6.57258959       7.02782135
Ga       8.89417324      10.87175623       8.69795883
Ga       7.39369001       6.95216866       8.71635909
Ga       6.62797976       9.48606501       8.86967664
6
Properties=species:S:1:pos:R:3 config_type=qcd gap_pre_relax_energy=-12.64785147562045 gap_pred_energy=-13.095484927972903 gap_fmax_final=0.0006717937366543969 gap_converged=1 pbc="F F F"
Ga      14.96056161      16.42285015      16.24010252
Ga      16.41573029      14.01693109      16.20292424
Ga      13.67128561      13.94275724      16.57009511
Ga      16.49953501      14.68089874      13.56224585
Ga      13.75435515      14.15123177      13.86346312
Ga      14.69853234      16.78533101      13.56116916
7
Properties=species:S:1:pos:R:3 config_type=qcd gap_pre_relax_energy=-14.890362631806687 gap_pred_energy=-15.9133283690116 gap_fmax_final=0.0008591020818791908 gap_converged=1 pbc="F F F"
Ga       6.77746588      10.04018655       8.23672186
Ga       9.23498322       6.68924701       9.06930655
Ga       9.31311154      10.92362233       8.82323858
Ga      10.79708313       8.75181109       7.85956802
Ga      10.09760671       8.92505842      10.62313103
Ga       8.24018903       8.14224588       6.89032400
Ga       7.36994045       8.35820867      10.32808992
8
Properties=species:S:1:pos:R:3 config_type=qcd gap_pre_relax_energy=-17.653541319762837 gap_pred_energy=-18.460679499098674 gap_fmax_final=0.0006623859581113531 gap_converged=1 pbc="F F F"
Ga       7.06693983      10.53880644       8.83311707
Ga       9.40505577      11.67416609       8.04949489
Ga      11.08377062       9.42256212       8.01565207
Ga      11.70540442       8.41435216      10.56227855
Ga       9.30698671       7.36442595      11.27996242
Ga       8.67443194       8.28182511       8.74133062
Ga      11.01130957      11.11883193      10.28229746
Ga       8.59880499      10.03773403      11.08857078
9
Properties=species:S:1:pos:R:3 config_type=qcd gap_pre_relax_energy=-20.022996627204083 gap_pred_energy=-21.577967208132595 gap_fmax_final=0.0007382890536816806 gap_converged=1 pbc="F F F"
Ga      10.36699160      12.23590605      10.37143767
Ga      11.97595608       9.94385640      10.01633918
Ga      10.78940948      11.38966608      12.90596193
Ga      10.26873354       8.89309586      12.00372256
Ga      10.83683333       8.87938283       7.76804224
Ga       8.23338720      10.43925958      10.80568115
Ga       9.61340034       7.39782408       9.83480649
Ga       9.73317350      11.47569953       7.84370843
Ga       8.08110987       9.24430454       8.34929532
9
Properties=species:S:1:pos:R:3 config_type=qcd gap_pre_relax_energy=-20.205899911732995 gap_pred_energy=-21.333866128641496 gap_fmax_final=0.0009135418368145954 gap_converged=1 pbc="F F F"
Ga      11.25897657       7.66135208      10.68354547
Ga      11.81841308      10.29194464      10.00357669
Ga       9.80631058       6.80880363       8.47936415
Ga       8.85806684       8.97148839      10.85956383
Ga       7.40938927       8.18589525       8.61785409
Ga      10.60888420       9.31637657       7.75939693
Ga       6.69056369      10.61576547       9.96278869
Ga       9.38143564      11.59973987      10.11146467
Ga       8.30768181      10.68835579       7.66216717
10
Properties=species:S:1:pos:R:3 config_type=qcd gap_pre_relax_energy=-22.88942292084477 gap_pred_energy=-23.859768295364812 gap_fmax_final=0.000699711633555935 gap_converged=1 pbc="F F F"
Ga       9.85198945       9.94903854       7.27151387
Ga       9.16388092       7.65516204       8.77521469
Ga      11.85287917       8.36222647       8.38875117
Ga       7.39607158       9.82297215       8.58751377
Ga      10.41137559      11.36464470       9.57750996
Ga      12.59741374       9.83707067      10.46100068
Ga       7.75815682      11.06033393      10.90356641
Ga      11.42141184      10.41809189      12.84327332
Ga       9.77992222      12.44082449      12.08520343
Ga       9.73579119       9.05852765      11.07534521
10
Properties=species:S:1:pos:R:3 config_type=qcd gap_pre_relax_energy=-22.901989138512658 gap_pred_energy=-23.912505409034818 gap_fmax_final=0.0009952817453385042 gap_converged=1 pbc="F F F"
Ga       8.76091097      10.45318304       7.09206706
Ga       7.63573871       7.87110708       6.75788479
Ga       6.25535364       9.81642967       8.25568522
Ga       9.86229546       8.14246344       8.37408551
Ga      10.96973616      10.75948647       8.73918756
Ga       7.32682355       7.53719290       9.55748635
Ga      12.04157465       8.47982667      10.04052689
Ga       8.43385674      10.15488959       9.92326235
Ga       9.53560988       7.84345585      11.20465608
Ga      10.66136658      10.42523162      11.53842454
11
Properties=species:S:1:pos:R:3 config_type=qcd gap_pre_relax_energy=-25.716759577895544 gap_pred_energy=-26.926294651524117 gap_fmax_final=0.0009027556090349513 gap_converged=1 pbc="F F F"
Ga       7.33282341       6.43358346       8.03764837
Ga       7.12301309       8.84293180      10.50039576
Ga      10.56285051       8.84293180      10.50039576
Ga       6.06214810       8.84293180       7.98904580
Ga       7.33282341      11.25228014       8.03764837
Ga      10.35304019       6.43358346       8.03764837
Ga      11.62371550       8.84293180       7.98904580
Ga       8.84293180       8.84293180       7.47152126
Ga       8.84293180      10.95292948      10.33562599
Ga      10.35304019      11.25228014       8.03764837
Ga       8.84293180       6.73293412      10.33562599
11
Properties=species:S:1:pos:R:3 config_type=qcd gap_pre_relax_energy=-26.013321668085112 gap_pred_energy=-26.991988711004836 gap_fmax_final=0.0008687922873050517 gap_converged=1 pbc="F F F"
Ga      11.01267673      11.60076489      12.05781323
Ga       9.31981133       9.45557202      12.15428920
Ga       7.64417440      11.41996700      11.26699776
Ga      11.46269876       8.38421484      10.88214695
Ga      12.65920476      10.69127402      10.03361224
Ga       9.85173660      11.10005023       9.56146548
Ga       7.26769166      10.42031266       8.72191072
Ga       8.05537948       8.17764936      10.11815672
Ga      11.52127023       9.87161017       7.67258460
Ga      10.25689755       7.54805603       8.59245923
Ga       8.89373164       9.27580193       6.88383702
12
Properties=species:S:1:pos:R:3 config_type=qcd gap_pre_relax_energy=-28.50547474994197 gap_pred_energy=-29.213212999386855 gap_fmax_final=0.0009318469983317097 gap_converged=1 pbc="F F F"
Ga       9.74082267       8.06713573       9.50422987
Ga      11.26176209       9.23614255      11.57604119
Ga       8.59522470       8.72032413      11.99633788
Ga       7.96880687       6.46646542       8.09465871
Ga      12.31504544       8.86885097       9.04899261
Ga       9.70910317       8.37087234       6.75612195
Ga       6.87401392       8.48071365       9.74656177
Ga      11.00889069      10.75270479       7.56823548
Ga       7.55670601      11.01727794      10.83852482
Ga       6.83818325       8.69646342       6.88789816
Ga       8.39568139      10.44475642       8.28580860
Ga      10.25490642      11.39743925      10.21573559
12
Properties=species:S:1:pos:R:3 config_type=qcd gap_pre_relax_energy=-28.403620400805508 gap_pred_energy=-29.43601693545823 gap_fmax_final=0.0008684499884938871 gap_converged=1 pbc="F F F"
Ga       7.88369396       6.09879585       9.41755074
Ga       5.90724492       8.15037570      10.00209278
Ga       6.27745164       7.26871382       7.37755230
Ga       8.62882293       8.74228047       9.44176327
Ga       9.02193977       7.17010036       6.95027490
Ga       7.06594247       9.94833017       7.31742592
Ga       9.83442385       9.92311741       7.17723749
Ga       6.82656054      10.74506686       9.95781045
Ga       9.26585066      11.73939887       9.21457910
Ga      11.19769062       9.69107452       9.67701819
Ga      11.65658330       7.81329732       7.61093606
Ga      10.50057874       6.77623205       9.92254219
13
Properties=species:S:1:pos:R:3 config_type=qcd gap_pre_relax_energy=-31.262826080595804 gap_pred_energy=-32.01278203515575 gap_fmax_final=0.0008433990351391207 gap_converged=1 pbc="F F F"
Ga       8.69948618       8.69967201       8.69948600
Ga       7.29331296      10.63415844       7.28292185
Ga       8.69948637       8.69939222       5.54878195
Ga      10.10503452      10.63461143       7.28292156
Ga      10.97413928       7.96079458       7.28301055
Ga       8.69987140       6.30780451       7.28302041
Ga       6.42507139       7.96006181       7.28301055
Ga       7.29331296      10.63415844      10.11605015
Ga       6.42507139       7.96006181      10.11596145
Ga       8.69987140       6.30780451      10.11595159
Ga      10.97413928       7.96079458      10.11596145
Ga      10.10503452      10.63461143      10.11605044
Ga       8.69948637       8.69939222      11.85019005
13
Properties=species:S:1:pos:R:3 config_type=qcd gap_pre_relax_energy=-31.14216365773593 gap_pred_energy=-32.00306024138776 gap_fmax_final=0.0008975000119550825 gap_converged=1 pbc="F F F"
Ga       8.30853215       9.80139580      11.09501090
Ga      10.47701986      11.47948869      11.87073694
Ga       8.15722636      12.55281509      10.75069950
Ga      10.10194878       8.97744428      13.04873287
Ga      10.16928773      11.68471372       9.04493434
Ga      12.69907247      11.60687500      10.18721736
Ga      12.16513169       9.92730164       8.02770497
Ga       9.52674324       9.74911740       7.11353551
Ga       7.46537565      10.90662228       8.61029830
Ga      11.56267858       9.12357230      10.69147098
Ga       7.95827239       8.16200402       8.84069815
Ga       9.47750175       7.20779064      10.98778815
Ga      10.70074823       7.59039807       8.50071094
14
Properties=species:S:1:pos:R:3 config_type=qcd gap_pre_relax_energy=-33.618287914098374 gap_pred_energy=-35.54666516332732 gap_fmax_final=0.0008184798333258427 gap_converged=1 pbc="F F F"
Ga      10.26495581      10.61350793      11.46475430
Ga       7.64220864       9.77410705      11.53627187
Ga       9.07343071      12.40854412       9.78460046
Ga       7.90544694       7.12097965      10.76330098
Ga       6.94844852      10.86748964       8.97124228
Ga       9.36288510      10.96587214       7.35645622
Ga      11.70960709      10.38410870       9.13513633
Ga      10.56069288       7.85794834      11.27938727
Ga       9.17806858       9.11485771       9.25100185
Ga       6.26606630       8.18457011       8.81578060
Ga       9.18394104       6.41336223       8.40326646
Ga       8.05786403       8.44873350       6.71653871
Ga      10.76710155       8.71634348       6.34216287
Ga      11.61662476       7.66691735       8.71744175
14
Properties=species:S:1:pos:R:3 config_type=qcd gap_pre_relax_energy=-33.63014910336708 gap_pred_energy=-34.78269315229616 gap_fmax_final=0.0006132093855465882 gap_converged=1 pbc="F F F"
Ga       7.58628006       7.81487759       7.78667145
Ga       7.58628006       7.81487759      10.70486685
Ga       9.57127974       9.24567454       6.07459170
Ga      10.25001866       6.99361529       7.81980009
Ga      10.25001866       6.99361529      10.67173821
Ga      11.91574005       9.24505369       7.84776779
Ga      11.91574005       9.24505369      10.64377051
Ga       7.58704183      10.67759114      10.70485382
Ga       9.57127974       9.24567454      12.41694660
Ga      10.25119020      11.49734937      10.67174013
Ga       9.46105096       9.24574521       9.24576915
Ga      10.25119020      11.49734937       7.81979817
Ga       7.58704183      10.67759114       7.78668448
Ga       5.65661608       9.24669967       9.24576915
15
Properties=species:S:1:pos:R:3 config_type=qcd gap_pre_relax_energy=-36.53557363664995 gap_pred_energy=-38.77876697771023 gap_fmax_final=0.0009403375847947025 gap_converged=1 pbc="F F F"
Ga      11.92910307       7.34532838       9.56158475
Ga      11.30554165       9.93034516      12.09192229
Ga      12.30021892      10.05755105       9.56158475
Ga       8.31033016       6.73056511       9.56158475
Ga      10.01052058       7.61167203      11.49588861
Ga      11.30554165       9.93034516       7.03124721
Ga      10.01052058       7.61167203       7.62728089
Ga       9.16202858      11.59243747       7.46632072
Ga      10.77489584      12.33442789       9.56158475
Ga       7.84975670       9.20952363       7.09027003
Ga       9.42926421       9.68569964       9.56158475
Ga       7.34213396      11.63913672       9.56158475
Ga       7.84975670       9.20952363      12.03289947
Ga       9.16202858      11.59243747      11.65684878
Ga       6.68213007       8.94310584       9.56158475
15
Properties=species:S:1:pos:R:3 config_type=qcd gap_pre_relax_energy=-36.55028999757698 gap_pred_energy=-37.671357683949765 gap_fmax_final=0.0009008059609952499 gap_converged=1 pbc="F F F"
Ga       9.50524794      13.48526890      10.81382219
Ga       8.45484827      11.18199746      12.29117156
Ga       7.52913213       9.37658742       8.63815375
Ga       8.02701846       8.53420220      11.30882413
Ga       9.88881693      11.79961883       7.85334280
Ga      13.85944745      11.19272751      11.17529711
Ga      11.77283148      12.39574049       9.81436265
Ga      12.25868509       9.65669779       9.28415433
Ga      10.71123506       8.40993971      12.03974676
Ga       9.82344313      10.29618139      10.13550111
Ga      10.11435774       9.04655050       7.64196864
Ga       9.89178482       7.19020446       9.63998169
Ga      11.31896286      11.11103297      12.35234038
Ga       7.60146181      11.94853356       9.59677445
Ga      13.40354182       8.53553177      11.57537341
16
Properties=species:S:1:pos:R:3 config_type=qcd gap_pre_relax_energy=-39.22629125279449 gap_pred_energy=-40.391950034534204 gap_fmax_final=0.0008923527472242406 gap_converged=1 pbc="F F F"
Ga      12.22848954       7.57647315       9.05575884
Ga       9.71619336      13.55174387      10.12948702
Ga       9.80343789       8.73141245      12.66572037
Ga       9.79936780       8.87536887       9.90570535
Ga       9.84482232       6.36219547      11.15133233
Ga      11.96195502      10.03809459      11.24385420
Ga       9.75362336      11.50898671      12.03580529
Ga       7.59820580       9.96036964      11.24624982
Ga      12.23478264      12.49359824       9.97898659
Ga      11.76171190      10.21502255       8.41977593
Ga       7.23672831      12.40458013       9.98172690
Ga       9.74267369      11.99361416       7.81393892
Ga       7.78891890      10.14426345       8.42195841
Ga       9.84241253       6.41312012       8.42732219
Ga       9.79963324       8.77045270       6.99403048
Ga       7.41711045       7.49077063       9.05841406
16
Properties=species:S:1:pos:R:3 config_type=qcd gap_pre_relax_energy=-39.1638785454851 gap_pred_energy=-40.89041902573858 gap_fmax_final=0.0008739241835107029 gap_converged=1 pbc="F F F"
Ga      13.71597333      10.29848319      10.23591535
Ga      12.93563698      12.87848986       9.73593802
Ga      12.87467100       9.76385405      12.79895581
Ga      11.13111761      11.35888055       8.23842840
Ga      11.75699181       7.65843609      11.36004778
Ga      12.20567005      12.38955537      12.48980262
Ga      11.95247254       8.78493406       8.78812998
Ga      10.80978489      10.26067343      10.89127192
Ga      10.23274421       9.87602306      13.60808994
Ga       9.08272055       8.07882128      11.85035547
Ga       9.68146479      13.71868772       8.75073175
Ga       9.35015640      12.30061030      12.00677175
Ga       9.22385025       8.61459808       9.14363365
Ga      10.95811802      14.40155036      11.03222601
Ga       8.57765259      11.32470046       9.39072726
Ga       7.47733902      10.25806620      11.64533832
16
Properties=species:S:1:pos:R:3 config_type=qcd gap_pre_relax_energy=-38.89540986498662 gap_pred_energy=-40.06003756087731 gap_fmax_final=0.000956163880541817 gap_converged=1 pbc="F F F"
Ga      11.98921095       8.78795270      13.73318784
Ga      13.34942988       9.80778104      11.52742374
Ga      14.34753532      11.59655411       9.70159679
Ga      10.98944977      11.31766645      13.35763787
Ga       9.23641260       9.14503345      13.87107592
Ga      10.79136971       8.62478356      11.27655759
Ga      12.86742894      12.58615909      11.83765254
Ga      11.00887028      11.70095193      10.08248027
Ga      11.85751113       9.37753906       8.90237663
Ga      12.58559608      11.71716382       7.65929790
Ga       8.06861689       8.66940127      11.43870269
Ga      10.29494287      13.70256807      11.94169946
Ga       8.76869662      11.29194070      11.76804407
Ga       8.71385941      10.01732408       9.12436318
Ga       9.86749404      11.88629459       7.50042184
Ga       8.68080727      13.18811785       9.69471344
17
Properties=species:S:1:pos:R:3 config_type=qcd gap_pre_relax_energy=-41.787389269684255 gap_pred_energy=-43.29249673942465 gap_fmax_final=0.0007549574183069698 gap_converged=1 pbc="F F F"
Ga      12.45384648       9.74822559      10.95236542
Ga       9.37489384       7.32382211       7.00240153
Ga       7.26857414       7.73145768      10.46275743
Ga       8.68001416      13.07620194      10.23402378
Ga       9.60172436       8.18734193      12.06616176
Ga      11.56278098       7.30852626      10.18917246
Ga      10.00420962      10.88170341      11.42183176
Ga      12.37542105      11.23061394       8.59795430
Ga       6.91485911       6.38814032       8.01392618
Ga      11.65171253       8.72164038       7.70875168
Ga       7.41808171      10.41273724      10.81995552
Ga       9.45480899       8.95232256       9.34934826
Ga       9.61714144      11.36639126       8.18147112
Ga       9.28430454       5.96533573       9.48818626
Ga      11.44784152      13.00018141      10.48173699
Ga       7.18066786       9.13871615       7.73293190
Ga       6.90640447      11.76392887       8.49431044
17
Properties=species:S:1:pos:R:3 config_type=qcd gap_pre_relax_energy=-41.73544798349559 gap_pred_energy=-43.37073938797419 gap_fmax_final=0.0007743450459561138 gap_converged=1 pbc="F F F"
Ga       8.90338802       7.90155862      11.96758767
Ga       7.22307541      10.05082400       7.56168283
Ga       9.09384888       9.30928596       9.58563530
Ga       8.36903954       6.52762561       9.58563530
Ga       6.35362261       8.33136216       9.58563530
Ga      11.36005945       9.07228811       7.94638235
Ga       8.90338802       7.90155862       7.20368293
Ga      11.03258123       6.70881385       9.58563530
Ga      11.36005945       9.07228811      11.22488825
Ga      11.48630481      12.42437218       9.58563530
Ga       9.70536655      11.26793101      11.49982639
Ga       8.88565552      13.21303985       9.58563530
Ga       6.62301374      11.78664625       9.58563530
Ga       9.70536655      11.26793101       7.67144421
Ga      13.21253448      10.36388734       9.58563530
Ga      13.51542045       7.70556343       9.58563530
Ga       7.22307541      10.05082400      11.60958777
18
Properties=species:S:1:pos:R:3 config_type=qcd gap_pre_relax_energy=-44.782158628562414 gap_pred_energy=-45.73949364758498 gap_fmax_final=0.0008174352827084858 gap_converged=1 pbc="F F F"
Ga       8.33139554       6.26547250      10.23915018
Ga      10.61398328       5.81228363       8.58517070
Ga      10.83658546       7.25306660      11.00530221
Ga      10.03778223       8.49343031       8.58517070
Ga      10.83658546       7.25306660       6.16503919
Ga       8.33139554       6.26547250       6.93119122
Ga       8.31184721       9.33834662      11.23556486
Ga      10.87967294      10.00196951      10.70695326
Ga       8.53086604      11.25458298       8.58517070
Ga       5.85204000       7.87981244       6.36698718
Ga       7.49279556       8.53570881       8.58517070
Ga       5.85204000       7.87981244      10.80335422
Ga       6.07897457      10.52779345       9.95489467
Ga       6.07897457      10.52779345       7.21544673
Ga       6.04765985       6.18496996       8.58517070
Ga      11.22895418      11.71917461       8.58517070
Ga      10.87967294      10.00196951       6.46338814
Ga       8.31184721       9.33834662       5.93477654
18
Properties=species:S:1:pos:R:3 config_type=qcd gap_pre_relax_energy=-44.197750044621515 gap_pred_energy=-45.745396252048906 gap_fmax_final=0.0009549067173239734 gap_converged=1 pbc="F F F"
Ga       7.25520692       9.74594144       7.42897287
Ga       9.28427947       5.67594531       7.16550941
Ga       8.93811083       8.42046877      11.98583266
Ga       6.18544664       9.35963191      10.20559303
Ga      11.03272987      10.31573156      11.26256488
Ga      11.29637845       7.72279760      10.37564564
Ga       8.49900584      10.95706464      10.39623702
Ga       7.08572267       6.83230187      10.62950428
Ga      13.01521125       9.21082637       8.76202397
Ga       9.49547909       5.73818329       9.90869094
Ga       8.92621306       8.51103399       9.20982656
Ga      11.08782405       7.67930964       7.52443039
Ga      10.51790707      10.41178677       7.83017777
Ga       8.46262379      12.18894916       7.76086874
Ga       6.96430297       7.01978234       7.85420029
Ga      12.40567341      11.78727667       9.41563293
Ga      10.07563430      13.15826770       9.74890037
Ga       6.14071753      11.93316818       9.20385548
18
Properties=species:S:1:pos:R:3 config_type=qcd gap_pre_relax_energy=-44.299857013970666 gap_pred_energy=-46.30142942972649 gap_fmax_final=0.0009089906315853566 gap_converged=1 pbc="F F F"
Ga      13.14106665       7.99196518      10.05823465
Ga      11.82848762       9.10472382       7.88649740
Ga       9.72211133       8.02188345       9.30098916
Ga      12.34146078       9.41163995      13.18280123
Ga      10.03880556      11.18316284       7.97290267
Ga      14.09444270      10.28625960      11.24964922
Ga      10.96701816       7.63897779      11.67440006
Ga      13.48643334      11.16865012       8.68354692
Ga      11.38089565      10.29491981      10.39895148
Ga      12.62787811      12.54465812      11.80303509
Ga       8.52356203      10.27909679      10.19086239
Ga      11.60590787      13.02774219       9.32480179
Ga      10.38797503      11.30339919      12.81905891
Ga       7.51880820      12.16748999       8.19633029
Ga       8.80074097       9.01408742      12.62011159
Ga       7.67435517      11.49034706      13.21224510
Ga       9.36344126      12.97917207      10.80927583
Ga       6.69609846      12.29131350      10.81579510
19
Properties=species:S:1:pos:R:3 config_type=qcd gap_pre_relax_energy=-46.9892399062126 gap_pred_energy=-48.72576873319921 gap_fmax_final=0.0008503865314721621 gap_converged=1 pbc="F F F"
Ga       6.65663544      11.48591597       8.08156934
Ga       8.29539946      12.64539448       6.26810641
Ga      10.77708888      11.94904820       7.07411772
Ga       9.19462768      11.81820976       9.39887672
Ga      11.94140575      11.59336212       9.56160183
Ga       9.17263863       8.02830145       9.44553575
Ga      11.02011857       9.40842927       8.03525103
Ga       8.49951975       9.73674006      12.02514111
Ga      10.08612323       6.88594618       7.03868809
Ga       6.81698127      11.44469535      10.80936721
Ga       7.41961144       7.52191281       7.26845650
Ga       7.26567350       7.36995605      11.44574309
Ga       6.49939912       9.00398134       9.36942306
Ga       8.61470809       9.90943389       6.84122123
Ga      10.91411901       9.45718835      10.92063236
Ga       9.94321070       6.71841854      11.79926608
Ga      10.47030507       5.46495466       9.38578256
Ga       7.69894927       5.67927742       9.31151264
Ga      12.31802032       7.48336932       9.52424243
19
Properties=species:S:1:pos:R:3 config_type=qcd gap_pre_relax_energy=-47.121579020181535 gap_pred_energy=-48.65480705819092 gap_fmax_final=0.0009581929735631022 gap_converged=1 pbc="F F F"
Ga      14.13273864       9.33430330       9.67707556
Ga      13.68186241       8.23492893      12.07687870
Ga      11.36929570       6.77997663      11.61953912
Ga      12.30728424      10.96437243       8.28011790
Ga      11.38295328       8.73274426       9.67158258
Ga      14.41228415      12.07381528       9.75039104
Ga      12.72325092      10.98741371      11.69411097
Ga       9.18879929       9.87263352       8.21296728
Ga      11.22470844       9.12218271      13.08551432
Ga       8.95146887       7.97703827      10.96389279
Ga      12.14221283      13.51055785      10.36427278
Ga      10.12481918      11.01033603      10.63323172
Ga       7.42649437      10.19936277      10.38386032
Ga       8.74262164      10.18033244      12.87797131
Ga      10.11989039      12.56300462       8.32737852
Ga      10.57102390      12.35917655      13.05661054
Ga       7.32659474      12.45504891      12.11407765
Ga       9.44388508      13.71458497      10.83518186
Ga       7.45017355      12.65054839       9.09770663
19
Properties=species:S:1:pos:R:3 config_type=qcd gap_pre_relax_energy=-47.47229841925424 gap_pred_energy=-48.86749705354868 gap_fmax_final=0.0009653377514594504 gap_converged=1 pbc="F F F"
Ga       9.68841206      11.90445802       9.18068367
Ga      10.90536409      14.76589991      10.29533859
Ga       8.61624166      13.54616007      11.14365388
Ga       6.65567211      11.79459372      10.49243165
Ga      12.33692944      12.57022170       9.28307792
Ga      10.90582592      12.66597790      12.28154579
Ga       8.66385425      10.89933020      12.21184626
Ga       8.08263428       9.59765120       9.72157485
Ga      11.12504078       9.62721118       8.19910031
Ga      10.99810872      10.11943803      11.02117021
Ga      12.12562478       8.80339949      13.32680629
Ga      13.35584112      10.98312800      12.21851121
Ga      13.51016528      10.11399179       9.49530518
Ga      10.58074624      10.84519469      14.22027381
Ga       9.55420719       8.16897505      12.46034387
Ga      10.03585888       7.70159223       9.80590617
Ga      13.24661573      13.86426850      11.59868911
Ga      15.06995936      12.24699504      10.33425282
Ga      12.62157639       7.86019155      10.78816667
20
Properties=species:S:1:pos:R:3 config_type=qcd gap_pre_relax_energy=-49.80446175631802 gap_pred_energy=-51.76251921818867 gap_fmax_final=0.000880576008846649 gap_converged=1 pbc="F F F"
Ga      11.10658312      10.89453502       7.30061074
Ga      11.80747864       5.82392631       8.23310349
Ga      11.46751547      11.51017661       9.98658307
Ga       6.59553436      11.80015853       9.94699167
Ga       8.96769555       9.18656072       6.73162158
Ga       9.09551201      12.67227967       7.67981841
Ga       6.83632396       6.59448862       9.97657546
Ga       7.55808842       6.79221993       7.28549309
Ga       9.52500103       6.97843278       9.20022039
Ga       6.00812905       8.79580722       8.39804308
Ga       6.93539507       9.26514016      10.96740333
Ga      10.09579516       6.67552613       6.24327948
Ga      11.81594375       8.55214609       8.35236599
Ga       6.95603335      11.02929376       7.29046183
Ga       8.98354973      10.27734614       9.21162031
Ga      10.75209691       8.97209941      10.90280170
Ga       9.09543058      12.83986837      10.45797689
Ga       8.74776059       7.31828045      11.87886898
Ga      11.82152820       6.47501049      10.91095962
Ga       8.97059526      10.68869379      12.18719110
20
Properties=species:S:1:pos:R:3 config_type=qcd gap_pre_relax_energy=-49.73603828012273 gap_pred_energy=-51.464745853151676 gap_fmax_final=0.0008921634616396812 gap_converged=1 pbc="F F F"
Ga      13.47230336      11.13127397      10.37176261
Ga      12.68011425      13.00341180       8.29149845
Ga      11.96661497      10.33821500       8.12904252
Ga      10.31622459      12.19655531       9.55136011
Ga      11.25739755      15.06110979       9.50302567
Ga      13.39881367       8.43277466       9.53143413
Ga       8.61432789      11.55372693      12.36550059
Ga      10.41113193       9.55677533      10.31196702
Ga      11.60426509       7.24113345      11.24934586
Ga       9.79726520      13.90646982      11.57590886
Ga      13.23105437       9.27701826      12.24526214
Ga      11.28706557      16.15959867      12.07242770
Ga      13.03384155      13.60778809      11.04287376
Ga      13.01412625      14.64640421      13.58643206
Ga      10.30082538       8.74974116      13.15533482
Ga      10.32440764      11.07065394      14.62105786
Ga      11.32697954      11.45094357      12.06976903
Ga      12.61953415       9.51038411      14.90111177
Ga      10.46997381      13.69358481      14.22251836
Ga      13.37175343      11.91045731      13.70038689
20
Properties=species:S:1:pos:R:3 config_type=qcd gap_pre_relax_energy=-49.8837198829568 gap_pred_energy=-51.57522455339273 gap_fmax_final=0.0009194131505381027 gap_converged=1 pbc="F F F"
Ga      13.03755356       7.67391255      11.86637989
Ga       9.74289309       6.98614079      11.40349986
Ga      10.87956957       8.36926667      13.44851173
Ga      11.51263261       7.66063855       9.35865040
Ga      13.79952871       9.18860656       8.91454147
Ga      12.29523771      10.72155656      13.42070619
Ga      14.09897127      10.19923958      11.42548924
Ga      11.29100686       9.77800702      11.01393570
Ga       8.94753777      10.11599420      12.61943752
Ga       8.91758124       8.85054017       9.59783748
Ga       8.77760957      11.04635872       7.80273621
Ga      12.59675924      12.16846309      10.25502165
Ga      11.42296664      10.11716440       7.91769558
Ga       9.63450334      11.55830658      10.28074805
Ga      10.85230966      12.77242855      12.47750589
Ga       6.92096988      10.67887866      10.03004355
Ga      10.89961214      12.89375520       8.15540736
Ga      10.03664748      14.35764957      10.39098123
Ga       7.82848302      13.47092209       8.87875803
Ga       7.71396827      12.59851215      11.94845465
21
Properties=species:S:1:pos:R:3 config_type=qcd gap_pre_relax_energy=-52.83439881963221 gap_pred_energy=-54.32087130737757 gap_fmax_final=0.000939990886866363 gap_converged=1 pbc="F F F"
Ga       7.00654942       8.98912557       9.29224228
Ga       6.97772740       6.33238068      10.26653466
Ga       6.28659469       8.46944314      11.87623385
Ga       7.28299211      10.94060382      11.25325218
Ga      13.00756020      10.62924700      10.35776366
Ga      10.71733539       9.40599889       9.41142410
Ga       9.87340725      11.46325159      11.53239340
Ga       8.98826396       8.20111986      11.81694569
Ga      11.98782423       7.24264459      10.62927770
Ga      13.34011308       8.53021430       8.56954552
Ga      11.38573759       9.37078107      12.21821406
Ga       9.42236795       7.06282805       9.31819626
Ga      11.41574175       7.04078959       7.32475241
Ga       6.71827701       9.61408381       6.67860434
Ga       7.27121452       6.90783708       7.48125360
Ga      11.92975850      10.40972831       7.09184965
Ga       8.82784547      11.26590192       7.64147397
Ga       9.33519770       8.76421585       7.12616657
Ga      10.98301382      12.15413219       9.08742512
Ga       6.31571271      11.59471228       8.70834157
Ga       8.40755750      13.09175266       9.79890166
21
Properties=species:S:1:pos:R:3 config_type=qcd gap_pre_relax_energy=-52.16612958814645 gap_pred_energy=-54.59089628570591 gap_fmax_final=0.0009922714916060459 gap_converged=1 pbc="F F F"
Ga       9.60932817       9.33338235       4.96203263
Ga       6.55223186       9.31859075       9.54685833
Ga       5.91377095       9.28426241      12.97172428
Ga      11.95251094       9.23677604       9.95570768
Ga      11.92142841       9.19293563      13.46476953
Ga       9.55041810      11.79702471       6.20566727
Ga       7.19899706       7.40249358      11.52392710
Ga       9.20281206       6.65150831       9.78052535
Ga       9.31510810       9.28671560       8.97320476
Ga      11.04507478      11.14640932      11.81833389
Ga      11.99965767       9.28237003       6.31684921
Ga      11.33925986      11.19429656       8.14983446
Ga       7.47678855      11.25121262       7.86522164
Ga       7.04270975       9.35735901       5.94065923
Ga      10.99077552       7.30716658      11.76966565
Ga       9.48015478       6.84169399       6.14275540
Ga       7.25245909      11.16493229      11.57166810
Ga      11.28472444       7.34406070       8.10086029
Ga       9.27717586      11.90277265       9.84716090
Ga       7.42230686       7.40379925       7.81640046
Ga       9.12024828       9.24817868      12.22411495
22
Properties=species:S:1:pos:R:3 config_type=qcd gap_pre_relax_energy=-55.72141669854114 gap_pred_energy=-56.97857708360504 gap_fmax_final=0.0009806663412186606 gap_converged=1 pbc="F F F"
Ga      10.98354294      11.41207450      11.58257240
Ga       8.27428920       8.92311182       8.76410583
Ga      10.46163523      11.62418602       8.41816438
Ga       8.67396705       9.16177371      12.15774746
Ga      10.12058037       9.44460323       6.73693647
Ga       6.79659099       7.02396326      10.31441625
Ga       7.64442810      11.73228000       9.10901971
Ga       6.39858955       9.77727159      10.62722673
Ga       9.51607663      13.39936006      10.32304608
Ga       7.61501497      10.69069249       6.65188152
Ga       7.99051407      11.75160624      11.92732832
Ga       5.59321417       9.23128276       7.97740870
Ga      10.50876965       9.18223694       9.90732512
Ga      12.69084536      10.36668003       7.27708082
Ga       9.40015729       6.76276741      11.03412235
Ga      13.03386031      10.17155719      10.03864187
Ga      12.00330123       7.78269125       8.03393170
Ga      11.46078498       8.83828751      12.61384891
Ga       9.55590176       6.50716142       8.22748359
Ga      12.11402653       6.95881244      10.61354557
Ga       6.82842291       6.70535371       7.63092040
Ga       7.92806882       8.14482855       5.62582794
22
Properties=species:S:1:pos:R:3 config_type=qcd gap_pre_relax_energy=-55.53759102805674 gap_pred_energy=-57.09791076439646 gap_fmax_final=0.0009558132093714199 gap_converged=1 pbc="F F F"
Ga       8.21464589       8.50247059       7.27584089
Ga       8.77034103      10.68408752       5.54630424
Ga       9.65809920       7.03229941       9.72413809
Ga      12.29111530       6.58665333      10.19981535
Ga      11.54188260       7.94247530       7.90956004
Ga       7.02487235       7.16014663       9.34077773
Ga       5.67967408       9.54433625       9.28196681
Ga      10.40175617       8.48800968       5.54630424
Ga       8.33085278       9.61419778       9.99847861
Ga      10.13331723       8.16669332      12.33953985
Ga       9.03877997      11.00540388      12.33953985
Ga      10.84124442       9.55789942       9.99847861
Ga       6.88098190      12.58544387      10.19981535
Ga       7.33882448       7.99092399      11.98776178
Ga      10.95745131      10.66962661       7.27584089
Ga      11.83327272      11.18117321      11.98776178
Ga      13.49242312       9.62776095       9.28196681
Ga      12.83767548       8.65628526      11.84235121
Ga       7.63021460      11.22962190       7.90956004
Ga      12.14722485      12.01195057       9.34077773
Ga       9.51399800      12.13979779       9.72413809
Ga       6.33442172      10.51581194      11.84235121
22
Properties=species:S:1:pos:R:3 config_type=qcd gap_pre_relax_energy=-55.92842640739454 gap_pred_energy=-56.732978859475686 gap_fmax_final=0.0008965402647428504 gap_converged=1 pbc="F F F"
Ga       7.91307217      11.87082531       7.01331778
Ga      10.73663817      11.88496913       7.05024650
Ga      11.95328248       9.42786011       7.42925632
Ga       9.23121952       9.69495575       8.02691690
Ga      11.91227755      13.42566168       9.02641161
Ga       9.19970321      12.77227587       9.25647915
Ga       7.11370541      10.85475087       9.53610815
Ga      12.64936945      10.87150894       9.63629400
Ga      13.59705274       8.30864759       9.50860721
Ga      10.80725130       8.11459641       9.57631444
Ga       8.13814691       8.40795270      10.20452650
Ga      12.11889861       8.52069163      11.87809534
Ga       9.63014745       7.06115783      12.09234446
Ga      13.55068031      12.83311483      11.31619425
Ga      14.41944996      10.09339427      11.62944336
Ga       9.93007560      10.17673875      11.30555657
Ga      10.75851760      12.87761305      11.47931684
Ga       8.09953665      12.18514174      11.71366695
Ga      12.09332056      11.02084783      12.87703284
Ga       7.48363949       9.60206908      12.68105120
Ga      10.15208028       9.17770143      13.81143460
Ga       9.58081899      11.88640960      14.02026939
23
Properties=species:S:1:pos:R:3 config_type=qcd gap_pre_relax_energy=-57.899443585973344 gap_pred_energy=-58.754704312535914 gap_fmax_final=0.0009103107956430649 gap_converged=1 pbc="F F F"
Ga      12.40053363      11.01464594       9.75127372
Ga      12.06197571      13.75281335       9.75125985
Ga      11.17401919      12.21540262       7.56279765
Ga      12.35820462       9.75126712       7.20626891
Ga      11.17402504      12.21541865      11.93973847
Ga      12.40052731       8.48790825       9.75128981
Ga       8.44768793      12.00899135      12.29555451
Ga       9.75127208       9.75128380      11.39192805
Ga       9.52116820      12.67722278       9.75126939
Ga      12.35820991       9.75128890      12.29629486
Ga      12.06195525       5.74974199       9.75130504
Ga      11.17400919       7.28716040      11.93976701
Ga       6.90565779       9.75129760      11.93971913
Ga       6.90565470       9.75128561       7.56285563
Ga       7.33243502       8.08875214       9.75129318
Ga       8.44766980       7.49359480      12.29557491
Ga       9.52115313       6.82534689       9.75129952
Ga       8.44767752      12.00898052       7.20699610
Ga       7.33244263      11.41382815       9.75128064
Ga       5.13030756       9.75129502       9.75128895
Ga       9.75127013       9.75128572       8.11064202
Ga       8.44767318       7.49358559       7.20701520
Ga      11.17400983       7.28714216       7.56282681
23
Properties=species:S:1:pos:R:3 config_type=qcd gap_pre_relax_energy=-58.4534425405045 gap_pred_energy=-60.22925168123662 gap_fmax_final=0.0009511729956807797 gap_converged=1 pbc="F F F"
Ga       8.61971168       7.74299813       7.73858646
Ga       6.97043932       9.85281433       8.54039507
Ga       9.47029529      11.64714628       9.87996030
Ga       9.67630456       9.15017847       9.87996030
Ga       6.83376805       7.35686385       9.87996030
Ga      13.22585540      10.21028691       8.48419933
Ga      11.33940928       7.70176592       7.29421695
Ga      12.19974504       8.00819863       9.87996030
Ga       9.93694351       6.30038822       9.87996030
Ga      10.90219960      12.41675309       7.41219168
Ga       8.18474038      12.05793936       7.45438691
Ga      11.80768533      10.15951178       6.15183063
Ga       9.08971564       9.87222649       6.02218493
Ga      12.07781600      12.36027091       9.87996030
Ga       6.76470121      12.38744847       9.87996030
Ga       8.61971168       7.74299813      12.02133414
Ga       6.97043932       9.85281433      11.21952553
Ga      13.22585540      10.21028691      11.27572127
Ga      11.33940928       7.70176592      12.46570365
Ga      10.90219960      12.41675309      12.34772892
Ga       8.18474038      12.05793936      12.30553369
Ga      11.80768533      10.15951178      13.60808997
Ga       9.08971564       9.87222649      13.73773567
23
Properties=species:S:1:pos:R:3 config_type=qcd gap_pre_relax_energy=-58.396091341746256 gap_pred_energy=-59.4855660228839 gap_fmax_final=0.0009109659518367144 gap_converged=1 pbc="F F F"
Ga       8.64452353      11.01847861       7.54582857
Ga       9.77586426      13.32885309       8.52422551
Ga      11.80780412      11.60570096       7.33891324
Ga       7.41479047       9.01931120       9.91663967
Ga      12.53979278      14.00018749       8.89557715
Ga       8.05561625       8.30673680       7.34304810
Ga       9.81966886       7.53105481       9.37468179
Ga       8.61584273      12.66427190      12.77489177
Ga      11.21189780      11.60519346      10.01754736
Ga      14.09345115      11.24634420       9.60935245
Ga      10.70217918       9.07184247       7.08531307
Ga      12.87920982      12.95796195      11.55806030
Ga      10.30419799      14.05956435      11.18694598
Ga      12.25654930       9.16598436       9.27519453
Ga      10.29124880       9.50258767      11.19685942
Ga      12.05227253       7.02035219      10.97623535
Ga       8.45051140      11.53760871      10.20315541
Ga       7.89034853       9.98613320      12.45969203
Ga      12.86723251      10.12826711      11.93169771
Ga       8.97661262       7.33969969      12.26146289
Ga      11.19131446      11.73693819      13.47037059
Ga      11.47070986       8.25209743      13.36286646
Ga       9.58888222       9.81535133      14.59196183
24
Properties=species:S:1:pos:R:3 config_type=qcd gap_pre_relax_energy=-60.678807609535774 gap_pred_energy=-63.07879502481973 gap_fmax_final=0.0008147394671588455 gap_converged=1 pbc="F F F"
Ga       9.74585442      12.70169839      12.07161392
Ga       9.80397218       7.30164645      11.74584990
Ga      11.21568065       6.18342584       9.59877449
Ga      13.51461667       7.65673061       9.53754011
Ga       7.21205018       8.19984035      11.99883709
Ga       7.66582572      10.91177872      11.83081638
Ga       9.71601656      14.07154923       9.68967412
Ga       9.75343290       9.79911635       8.01190320
Ga       6.05852483       7.57370598       9.58479042
Ga      12.05377511      11.17488045       7.46145755
Ga      12.37823004       8.25705071      11.96650465
Ga       7.32041005      12.76131941       9.75422964
Ga       9.71774557      12.62044920       7.36803485
Ga      12.19483386       8.43641677       7.26898164
Ga       9.77815033       7.13285489       7.39656306
Ga       9.76851758       9.75058232      10.43897394
Ga      11.86193361      10.95820285      11.80484617
Ga      13.57996014      10.38409605       9.66677752
Ga      12.14070677      12.81482429       9.72461400
Ga       5.93440812      10.29918814       9.71452137
Ga       7.33186329       8.38184295       7.29990644
Ga       8.39039498       6.15184753       9.61695320
Ga       7.41614251      11.12262530       7.49073883
Ga       9.78683833       9.69421160      13.29698192
24
Properties=species:S:1:pos:R:3 config_type=qcd gap_pre_relax_energy=-60.814311463886604 gap_pred_energy=-62.42291011158847 gap_fmax_final=0.0008292148376609145 gap_converged=1 pbc="F F F"
Ga      11.68495925      10.69077865      12.53864891
Ga      11.18718755       6.71381951      10.38865500
Ga      12.75635042       8.26811567      12.89721743
Ga      12.75635042       8.26811567       7.88009257
Ga      11.68495925      10.69077865       8.23866109
Ga      12.42012941      13.27241794       8.95535562
Ga      13.38114256      10.54210908      10.38865500
Ga      13.75167436       7.79856886      10.38865500
Ga      12.42012941      13.27241794      11.82195438
Ga      10.50930639      11.98555779      10.38865500
Ga      10.00722311       7.99539684      12.45028079
Ga       9.75812221      14.38441028       9.02949896
Ga       9.53769247       9.71078019      10.38865500
Ga       9.75812221      14.38441028      11.74781104
Ga      10.14387109       9.71138512      14.58661287
Ga       9.47663583      12.15907795      13.18480251
Ga      10.14387109       9.71138512       6.19069713
Ga       6.68681269       9.93511191      10.38865500
Ga       7.82755660      12.43696891      10.38865500
Ga       7.97655546       9.89939592      12.76753918
Ga       9.47663583      12.15907795       7.59250749
Ga      10.00722311       7.99539684       8.32702921
Ga       7.97655546       9.89939592       8.00977082
Ga       7.99865383       7.44284700      10.38865500
25
Properties=species:S:1:pos:R:3 config_type=qcd gap_pre_relax_energy=-63.48106341853389 gap_pred_energy=-64.95057066093166 gap_fmax_final=0.0007966396651967808 gap_converged=1 pbc="F F F"
Ga      13.75948750      11.45568071      10.31858910
Ga      10.26114813      13.14983773      10.31858910
Ga      11.97942418      12.36069763       8.30676786
Ga      12.85261663      14.09657738      10.31858910
Ga      10.26740677       7.71812702      10.31858910
Ga      12.41900805       9.62483353      12.84445690
Ga       9.41331730      11.28457874      12.32774712
Ga      10.99035735      10.46178349      10.31858910
Ga       9.41331730      11.28457874       8.30943108
Ga       9.79546966       8.50279757      12.91679041
Ga      11.10386642      11.21050434      14.64008377
Ga      11.10386642      11.21050434       5.99709443
Ga      13.21319425       8.80782883      10.31858910
Ga       7.76574005      12.21697845      10.31858910
Ga       9.79546966       8.50279757       7.72038779
Ga       6.85171538      10.02231036       7.93600968
Ga      12.22782299       6.89273446      12.04592783
Ga      12.41900805       9.62483353       7.79272130
Ga      12.22782299       6.89273446       8.59125037
Ga      11.97942418      12.36069763      12.33041034
Ga       8.60627029      10.16153391       5.90778063
Ga       8.34846486       9.51978990      10.31858910
Ga       5.71252340      10.41814290      10.31858910
Ga       8.60627029      10.16153391      14.72939757
Ga       6.85171538      10.02231036      12.70116852
25
Properties=species:S:1:pos:R:3 config_type=qcd gap_pre_relax_energy=-63.86153349656351 gap_pred_energy=-64.91131747806622 gap_fmax_final=0.0008327163377046802 gap_converged=1 pbc="F F F"
Ga      11.73454111      12.38494429      10.40154417
Ga      14.46151983      11.92946312       9.88474988
Ga      16.01209882      14.12440667      10.29985757
Ga      13.45790515      14.23113241      11.28402211
Ga      10.78583152      14.80359871      11.57303722
Ga      12.73786216       9.90449862      10.91838865
Ga      15.14720497      16.53810335      11.27353932
Ga      10.64736377      10.93155460      12.57164445
Ga       9.09297090      12.69303779      11.10518327
Ga      14.64068667      17.85616018      13.69598909
Ga      16.04812459      12.76541433      12.75053813
Ga      15.35270059      10.19277440      11.95321700
Ga      12.53382920      16.65259491      12.44290417
Ga      11.68048955      11.25172911      15.16391977
Ga      12.54850233       9.07748890      13.54491233
Ga      13.51134743      16.12369156      15.56304807
Ga       9.73315580      13.34265990      13.71707789
Ga      15.40801681      15.19667713      13.69295016
Ga      12.39847788      14.28193477      13.78621632
Ga      13.30441298      11.88240731      12.81377080
Ga      10.99452486      13.74820120      16.06858821
Ga      14.82440734      10.32164319      14.69907304
Ga      14.52646030      13.05427514      15.04679376
Ga      13.44994167      14.06759824      17.37120053
Ga      13.65048671      11.32687308      17.06069701
25
Properties=species:S:1:pos:R:3 config_type=qcd gap_pre_relax_energy=-64.034638965224 gap_pred_energy=-64.84361469600037 gap_fmax_final=0.0008385754958924387 gap_converged=1 pbc="F F F"
Ga       6.06422689      11.51348525      10.10357372
Ga       7.99305657      12.64034097       8.49389481
Ga       6.96861174       9.42969080      11.67546004
Ga       7.91875693       9.76168881       9.04226593
Ga      10.57206118      13.71643050       8.43177495
Ga       7.81224637      12.10355167      12.15407724
Ga       9.46522712      10.85574122       7.01219742
Ga       9.86822828      11.74907107      10.26520214
Ga       8.23877161       7.53114221      13.22970068
Ga       9.08565037       7.98578652      10.66266871
Ga      10.48097833       8.80968671       8.39617891
Ga       9.27307680      10.09043557      13.22457299
Ga      10.28095960      12.69782293      12.93679935
Ga      11.39455823       9.57368299      10.79218861
Ga      12.66380775       9.72019846       6.90090880
Ga      10.94687843       7.92090187      12.89863783
Ga      11.75059827      12.27246016       6.42593188
Ga      11.93132431      13.57897596      10.83392339
Ga      12.99055967      13.02832691      13.32051271
Ga      13.61284335      11.24352411      11.33938631
Ga      12.30263331      11.49496348       9.04245309
Ga      13.70273992       8.98590947       9.32112781
Ga      11.59360473       6.76302747      10.39443166
Ga      11.92413949      10.45567510      13.41790140
Ga      13.62984104       8.54286006      12.14960994
26
Properties=species:S:1:pos:R:3 config_type=qcd gap_pre_relax_energy=-66.33590368105223 gap_pred_energy=-67.79432558505603 gap_fmax_final=0.0007951455426227887 gap_converged=1 pbc="F F F"
Ga      12.04045862      13.04638542      10.38165941
Ga       9.91843549      14.82544031      10.43227490
Ga       5.72412986      11.35045925      10.40879713
Ga      12.57236390      11.40094584      12.59233637
Ga       8.22338268       8.38366570      13.59554527
Ga      10.12898467      10.39293042      13.40958296
Ga       7.84095719       8.04324888       7.56197486
Ga       8.06028834      10.57067312       8.97496219
Ga       7.51054281      10.81032595      12.41962740
Ga      10.12416856      10.76026735      10.62112000
Ga      10.18442744      12.92933493      12.48574869
Ga      12.15207765      10.71154291       8.89139636
Ga      10.18252313       8.56351709       9.04010081
Ga       8.00696230      12.85224922      10.62599367
Ga      10.25228602       7.89801777       6.37049447
Ga      12.69769623       8.45468044       7.34109072
Ga      14.59965253       9.35415509       9.08022231
Ga      14.33621376      11.74945133      10.41198087
Ga       7.52043152       8.44764018      10.81357304
Ga      10.04668348      10.53753933       7.06728626
Ga      10.11643634       8.03303163      11.64579522
Ga       9.96027227      12.69381004       8.63688367
Ga       5.73179711       9.10570065       8.86939505
Ga      12.46618313       8.21358516      10.38732726
Ga      12.28138249       8.64612278      13.21738385
Ga      14.52729506       9.43131182      11.92347987
27
Properties=species:S:1:pos:R:3 config_type=qcd gap_pre_relax_energy=-69.13139855333893 gap_pred_energy=-71.41355297407165 gap_fmax_final=0.0009847528368181193 gap_converged=1 pbc="F F F"
Ga      12.34469402      10.84293418      10.22270134
Ga      12.80440138      13.57943792      10.45210155
Ga      11.86844740       8.37785432       9.15466287
Ga      12.89078005      11.94616762      12.64563386
Ga      12.34201165       8.56226872      11.81011438
Ga      12.69429317       9.89400439       6.92560856
Ga       8.39129630      10.80299436      10.27434028
Ga       7.88259044      13.52975550      10.51617588
Ga       8.89028252       8.34771205       9.19365526
Ga       7.88608274      11.89609025      12.71099825
Ga       8.48064481       8.52364593      11.86027279
Ga       8.19510259      12.37249959       8.00130524
Ga       7.97572326       9.84584027       6.98736834
Ga      10.32857061      13.47243352       9.27614880
Ga      10.34545126      10.52600992       8.26882837
Ga      10.36076153       7.43467301       7.02374156
Ga      10.29921186      12.29485861       6.11228242
Ga      10.31795171       9.64368877       5.47701204
Ga      10.39998600      10.43634105      12.41729485
Ga      10.36729379      12.99885936      11.87870262
Ga      10.41223220       6.23397926      10.04473364
Ga      10.44151489       6.59112176      12.66753159
Ga      10.42045750      11.63619927      14.90539655
Ga      12.44996810      12.41584474       7.94572510
Ga      12.51310226       9.85860111      14.26389808
Ga       8.34763570       9.81697883      14.31823961
Ga      10.45247433       8.22216778      14.74848823
28
Properties=species:S:1:pos:R:3 config_type=qcd gap_pre_relax_energy=-72.16056041592566 gap_pred_energy=-74.11788774493638 gap_fmax_final=0.0007616102234464967 gap_converged=1 pbc="F F F"
Ga      14.28565212      12.64167549      10.51595889
Ga      12.43995595      13.01423004       8.60438740
Ga      10.29357158      12.20897383       7.08479339
Ga      11.94669780      12.65539965      11.91331893
Ga       6.21173433      12.46983300      10.42651689
Ga       5.75032562      10.43831361       8.60448672
Ga       8.30607706      10.03844965      13.21326323
Ga      12.88705803       7.85797254       8.55823508
Ga      14.87810403       8.45170933      10.35562091
Ga       5.80145404       8.25852747      10.25548816
Ga      10.31650105       8.16495869      12.78733931
Ga       5.82641604      10.34090088      12.10476266
Ga       7.85528950       7.75089710       8.50282211
Ga      12.77750779       7.74304517      11.90195691
Ga      10.37282120       8.31985714       7.38949452
Ga       8.08154763      12.92146568       8.55588059
Ga       8.51669215      12.58225105      11.87504048
Ga      14.87308808      10.63250291       8.70524400
Ga      12.61502109      10.27866085      10.39556871
Ga      12.27693423      10.37022276       7.60900883
Ga       8.37894508      10.28727891       7.56600997
Ga      12.23561000      10.12200059      13.25667463
Ga      10.32907849       9.00253603      10.03198267
Ga      10.27495224      11.63051736       9.87297848
Ga       7.98338768      10.18010306      10.34431287
Ga      14.72406768      10.53018913      12.20306828
Ga       7.89576788       7.63920609      11.84805839
Ga      10.22652258      11.82910292      13.87850796
29
Properties=species:S:1:pos:R:3 config_type=qcd gap_pre_relax_energy=-74.8398345054444 gap_pred_energy=-76.4357861525713 gap_fmax_final=0.0009372815233571816 gap_converged=1 pbc="F F F"
Ga      14.34208409      12.08475170      11.18271661
Ga      12.59910753      12.55962114       8.92176854
Ga      10.58229699      12.67876924       6.93297047
Ga      11.57750583      12.51468478      11.55204603
Ga       5.78667109      11.61462705      10.93960392
Ga       6.40487140      11.05624686       8.27026516
Ga       7.85568588      10.34249136      13.25783287
Ga      13.27851602       7.65359961       9.10865484
Ga      14.98124555       9.23017527      11.31487930
Ga       5.70502893       8.58922595       9.24644036
Ga      10.03401429       8.71144619      12.80779725
Ga       5.90891099       9.02025743      11.93507143
Ga       8.25126220       7.76306575       8.60215348
Ga      12.43463408       7.97431952      11.76982638
Ga      10.84618204       7.38922033       7.79478346
Ga       8.04247127      13.11686469       8.94169762
Ga       8.78225705      12.37242167      11.59927704
Ga      14.61558483      10.59487927       8.41123369
Ga      12.57081901      10.22878193      10.21627509
Ga      11.72456066      10.04708302       7.67473484
Ga       8.91479473      10.20434495       7.27182463
Ga      10.36417028      11.38589179      13.69029463
Ga      10.36991774       8.92841016       9.99346056
Ga      10.18871170      11.49630201       9.47052540
Ga       8.03673042      10.05929598      10.36047296
Ga      12.74699433      10.42521118      12.96824743
Ga       8.07371197       7.39767469      11.42352630
Ga      10.43847568      14.30402975       9.75847269
Ga      10.55136041       6.26488369      10.59172401
30
Properties=species:S:1:pos:R:3 config_type=qcd gap_pre_relax_energy=-77.21254463793599 gap_pred_energy=-79.26211895831152 gap_fmax_final=0.0009024842957257909 gap_converged=1 pbc="F F F"
Ga      14.45853589      10.31120416       8.11877285
Ga      12.73083521       7.87841100       9.73923089
Ga      10.17231401       6.11052330       9.90786653
Ga      11.53154972      10.30238526       7.61417259
Ga       5.91147011      10.69368693       8.69195887
Ga       6.21377427       8.59162111      10.49099286
Ga       8.09278625      13.28078205       8.63059518
Ga      12.94869383       9.75483296      12.71097915
Ga      14.49624325      12.28952470      10.87718358
Ga       5.83573419      10.73367675      12.17498300
Ga      10.34321560      12.50250653       9.85750183
Ga       6.28583904      12.80524436      10.52530373
Ga       7.98340489       9.82511913      13.47950111
Ga      12.01841569      12.86192836      11.95645074
Ga      10.57964184       9.19513670      14.18862155
Ga       7.88020546       7.92709478       8.40796071
Ga       8.76291600      10.50497468       7.68046635
Ga      14.77776266       9.53223805      10.71384019
Ga      12.35305773      10.69471051      10.06676670
Ga      11.18804811       7.62376649      12.03319605
Ga       8.46643136       7.65555453      11.80178813
Ga      10.41187118      12.71898290       7.12496107
Ga      10.27861751      10.41169369      11.75517626
Ga      10.13711557       8.93856539       9.66876805
Ga       8.12902298      10.62895897      10.33989209
Ga      12.80389661      13.11845342       8.73632775
Ga       8.64122873      12.80867364      12.04655118
Ga      10.42082595       7.68726879       7.17981123
Ga      10.52990587      11.95901001      14.00258877
Ga      13.14289194       8.17972239       7.00404252
31
Properties=species:S:1:pos:R:3 config_type=qcd gap_pre_relax_energy=-80.30180667983059 gap_pred_energy=-82.18962834409679 gap_fmax_final=0.0009804204500446336 gap_converged=1 pbc="F F F"
Ga      15.16175642      10.47930991      10.41120345
Ga       6.27922187       8.62417543      12.52472703
Ga       7.37401192      11.05536283      12.93944591
Ga       9.01806396      13.07348106       8.48087564
Ga      12.19128021      14.96377099      10.41119883
Ga       9.46051979      14.95894032      10.41119953
Ga      12.90564731      11.22681024      12.87607941
Ga      11.48911737       8.22294691       7.93889866
Ga      12.90562850      11.22678647       7.94633461
Ga       5.28270313      10.11744009      10.41121539
Ga       7.16814955      12.26984914      10.41120798
Ga      11.62249910      13.63832386       8.02910293
Ga       8.93289097       8.11615748      12.70476805
Ga       8.93289123       8.11613665       8.11768077
Ga      11.62249961      13.63833075      12.79329969
Ga       9.73797426       6.76743368      10.41123012
Ga      13.95428873      12.89659294      10.41120238
Ga       7.37402368      11.05534220       7.88298416
Ga       9.01806626      13.07348514      12.34153319
Ga      10.16129811      10.51912758      12.10164934
Ga      10.16130050      10.51912477       8.72073992
Ga      11.08356214      12.36046768      10.41120095
Ga       8.04229963       9.56696651      10.41122005
Ga      12.38620222      10.05383087      10.41121057
Ga       6.27922608       8.62416012       8.29771682
Ga       6.84545067       6.97599214      10.41122839
Ga      12.45635584       7.33660301      10.41122338
Ga      14.04151641       8.79603496      12.38535958
Ga      15.32849067       7.45558748      10.41121748
Ga      14.04151134       8.79602097       8.43706737
Ga      11.48911798       8.22297333      12.88354391
32
Properties=species:S:1:pos:R:3 config_type=qcd gap_pre_relax_energy=-83.17382920962574 gap_pred_energy=-84.18480722379257 gap_fmax_final=0.000903029470533397 gap_converged=1 pbc="F F F"
Ga      10.53457082       7.26075688      12.75160719
Ga      10.40187447       9.65472052      14.47755032
Ga       8.39251516       8.48979386       5.94212828
Ga       8.28549038      10.85201096       7.39523937
Ga      12.83581371      13.18051239       9.01780005
Ga      10.19493311      14.39116718      12.22497763
Ga      10.61591182       7.54481634       7.32075289
Ga      12.87163287       8.53395311       6.03775102
Ga      10.85593949      15.05601509       9.52540762
Ga       8.18838332      10.50220308      12.96315754
Ga      12.79884691       8.27801416      11.54349515
Ga       8.25687680       8.14734433      11.42760376
Ga      12.59821223      10.73104526      13.05128166
Ga      10.61579398      10.18290487       5.97510150
Ga      10.57553388      12.52161087       7.51090047
Ga      12.73129007      13.33048551      11.80356797
Ga       8.28149218       8.29407299       8.71133343
Ga      12.86833532       8.36451674       8.81838172
Ga       7.90240857      12.85747038      11.61590740
Ga      10.57208465       7.40101080      10.05874233
Ga      10.29612861      12.23854179      13.82694999
Ga      12.88108713      10.88811738       7.50640229
Ga       8.27772782      13.18571786       8.79881543
Ga       8.30172217      10.64238692      10.15561756
Ga      12.70142292      10.71963876      10.29019915
Ga      10.44969220      12.36009580      10.34635056
Ga      10.55223633       9.95006361       8.76796996
Ga      10.47376155       9.85973050      11.59005316
Ga      12.73138457       8.16669456      14.29489188
Ga       8.21859340       7.95784117      14.19652337
Ga      10.49316086       7.04162324      15.55194201
Ga       8.21934367      15.38932402      10.47579829
32
Properties=species:S:1:pos:R:3 config_type=qcd gap_pre_relax_energy=-82.66832087455408 gap_pred_energy=-84.4609056187507 gap_fmax_final=0.0009760613006470724 gap_converged=1 pbc="F F F"
Ga      14.36513407       9.94815449      15.63186015
Ga      11.63613059      10.42357485      15.49348557
Ga      10.53833453       7.93141879      15.18798735
Ga      13.34295313      12.24670593      14.37193530
Ga      13.08418150       8.10484203      13.98370510
Ga      10.56357576      12.63095906      14.23779783
Ga      14.76595543      10.22772953      12.87170773
Ga       9.47556242      10.12042525      13.76969431
Ga      12.04305513      10.33637819      12.68160245
Ga      12.30294422      14.42830776      13.22778272
Ga      10.73244444       7.86389735      12.44560930
Ga      13.30780359       7.62639384      11.29289307
Ga       9.47906578      14.95529029      12.94652545
Ga      13.62208993      12.58037062      11.69005124
Ga       8.51351882      12.35407432      12.48707207
Ga      13.76854624      10.24397183      10.37121633
Ga      11.45647059      16.85595260      12.19539096
Ga      13.36996975       8.09052292       8.59895546
Ga      11.40134532      10.00907466       8.68117784
Ga      10.83444417       7.67694409       9.79749138
Ga      10.70761119      13.31099622      11.06234983
Ga       9.88088729      15.81801057      10.16161531
Ga       9.77117517      10.02530980      11.11915486
Ga       7.40831461      11.06824289      10.23490456
Ga      13.88160721      10.66893530       7.61982674
Ga      12.60983955      12.55464914       9.25476704
Ga       8.73588314       9.13854198       8.68590025
Ga       9.66543059      11.87436221       8.82794120
Ga      12.73207859      14.99808677      10.47952291
Ga       8.01792234      13.78587178      10.07570438
Ga      11.57081962      11.99010158       6.73041881
Ga      10.61850671      14.31550475       7.98755391
33
Properties=species:S:1:pos:R:3 config_type=qcd gap_pre_relax_energy=-86.12596303377117 gap_pred_energy=-86.86128512429121 gap_fmax_final=0.0007621679983256936 gap_converged=1 pbc="F F F"
Ga      12.04410860      14.47339516      10.56235462
Ga       9.07981219      14.35746322      10.57237824
Ga      14.74298149       8.02784302      12.71158621
Ga      11.93665732       7.90983789      12.88068973
Ga       9.21917118       7.91947638       8.30601327
Ga       6.36094576       9.64161657      10.60164119
Ga      14.70701719       9.86443523      10.57356228
Ga      14.72903522       8.00917192       8.45157159
Ga       7.81184084       7.07534190      10.60786313
Ga       9.19417144      12.77693082      12.85099375
Ga      12.00494148      12.75843573       8.34720971
Ga      12.01916733      12.77776774      12.79242271
Ga       9.17960120      12.75728139       8.30687004
Ga      13.30396099       7.05188142      10.59046252
Ga      10.55367745       7.03131755      10.59941139
Ga       7.80972973      10.40916781       8.29501546
Ga      13.31001410      10.39286998      12.99238281
Ga      13.29427630      10.37169741       8.15926037
Ga       7.82468590      10.42893243      12.89201035
Ga      13.83211793      12.45761986      10.56530213
Ga       7.73284523      12.01146580      10.58691147
Ga      11.92172850       7.88970470       8.30164068
Ga       9.23413156       7.93930782      12.89335916
Ga      10.59209370      10.36724313      12.78069157
Ga      10.57785144      10.34816994       8.38887743
Ga       9.15893734       9.53189897      10.59297404
Ga      12.01082790       9.54237158      10.58370258
Ga      10.61001044      11.96562202      10.57778753
Ga      10.55038460      15.16955334       8.30794683
Ga      10.56477787      15.18916724      12.82018500
Ga      10.45379627      16.81768204      10.55724572
Ga       6.44355630       7.99165170       8.35962597
Ga       6.45820540       8.01073851      12.85711074
33
Properties=species:S:1:pos:R:3 config_type=qcd gap_pre_relax_energy=-85.35174628143338 gap_pred_energy=-86.54047847817279 gap_fmax_final=0.0009121923520877097 gap_converged=1 pbc="F F F"
Ga      13.83091743       9.91544744       7.49586332
Ga      12.34265654       9.10978688       9.75454629
Ga      11.15711520      10.65685589       7.74799149
Ga      14.47224783      10.90197806      10.01544511
Ga      11.18932593       8.12209915      11.97275720
Ga      11.17409539       6.84622591      14.38635836
Ga       9.53402901       9.56759277       9.56460664
Ga      12.69194370      11.60004455       5.56926254
Ga      13.33878207      12.60947424       8.11214289
Ga      12.96631209      10.20013550      12.30644861
Ga      11.60264652       9.51381715      14.84080048
Ga      11.82052772      11.72183159      10.36533441
Ga       8.58742647       7.63631727      14.26941282
Ga       8.44785047       9.07473202      11.93846090
Ga      10.86845899      13.27014005       6.88488908
Ga      15.15577517      11.91322774      12.44335416
Ga       9.45629942      12.38705879       9.19584360
Ga      10.39698360      10.91921518      12.68102656
Ga       8.39782057      10.33382093      14.57090149
Ga       7.90617459      11.74087677      11.50962886
Ga      13.70508546      11.24607607      14.81132048
Ga      11.56435547      14.33011280       9.33019265
Ga      14.01310353      13.60024831      10.52090133
Ga      12.54915073      12.85397703      12.85564498
Ga      15.80729399      13.05239088      14.89892505
Ga      11.03336902      12.13709241      15.17626470
Ga      10.22105687      13.52166618      11.59173110
Ga       8.74181793      12.96245931      13.85891516
Ga      13.18754670      13.93360462      15.37123253
Ga      12.26765745      15.41305231      11.71629099
Ga      14.69954063      14.66796588      12.93867284
Ga      10.82611080      14.72271045      14.05015146
Ga      12.98726882      16.45871199      14.19542807
34
Properties=species:S:1:pos:R:3 config_type=qcd gap_pre_relax_energy=-88.06524424571933 gap_pred_energy=-89.69771216093635 gap_fmax_final=0.0009817478782730416 gap_converged=1 pbc="F F F"
Ga      13.04868762       6.56402867       9.70061536
Ga      15.03248852       9.49558009       9.96019144
Ga       6.32831350       7.71527425      12.15780135
Ga       7.60589331      10.04910214      12.86568510
Ga       8.83851244      12.61478173       8.00415503
Ga      12.14569945      14.20739006      10.14457034
Ga       7.45189000       6.59828814       9.85671852
Ga       6.06078140       8.03147417       7.90974772
Ga       8.45742529      14.22598457      10.24386827
Ga      13.10149936      10.02560534      12.71709226
Ga      11.52907492       7.84029446       7.75154282
Ga      11.60252097       7.22646759      12.01716049
Ga      12.90352628      10.31406985       7.61106403
Ga       5.52478123       9.53834825      10.22052309
Ga       7.16754816      11.75604600      10.14104689
Ga      11.62943506      12.60032096       7.92935813
Ga       9.02913125       7.24213652      12.08552953
Ga       8.88114392       7.85216981       7.82230515
Ga      12.20602233      12.54624670      12.31701716
Ga      10.24793648       6.34217961       9.72159220
Ga      13.40367169      11.72556871       9.97429235
Ga       7.52662325      10.34184775       7.75208260
Ga       8.49585836      12.56340363      12.41656421
Ga      10.33295335       9.73991026      12.06708401
Ga      10.22908193      10.20216356       8.21348293
Ga      10.29392871      12.03807305      10.32058101
Ga       8.30115965       9.21997771      10.21449131
Ga      12.25865720       9.19669588      10.11013703
Ga      14.35270105       7.98890150       7.68725477
Ga      14.30421244       7.67901653      11.93012890
Ga      10.25340366      15.02515835       8.24840895
Ga      10.34674689      15.70514789      11.58891260
Ga      10.39590677      11.37055334      14.20859619
Ga      10.39563609      14.10064545      13.77325079
34
Properties=species:S:1:pos:R:3 config_type=qcd gap_pre_relax_energy=-88.9534163690568 gap_pred_energy=-90.48998062978085 gap_fmax_final=0.0009221235613699469 gap_converged=1 pbc="F F F"
Ga      13.82601074      12.05948372       6.40666235
Ga      11.70023761      10.51944216       7.13484245
Ga      11.49793642      13.25906163       7.52646676
Ga      10.95097526      14.75016025       9.75437718
Ga       9.00313958      12.38782715       8.23548796
Ga      13.95126962      10.43967403       8.76517929
Ga       8.62083398      13.61532813      10.66218540
Ga       9.39510241       9.58203550       8.01063320
Ga      13.92538364      13.21803644       8.87010099
Ga      13.41263312      14.45444185      11.14345965
Ga      11.26873067      11.87925917       9.96668537
Ga       6.78571757      11.08653754       9.53168574
Ga      10.54261629      15.64277575      12.46120613
Ga      11.72797531       8.72843630       9.18618895
Ga       9.26059562      10.33129286      10.79092146
Ga       7.50199473       8.42037055       9.60202458
Ga      14.30718661      11.85631005      11.19744577
Ga       7.20987031      11.77118187      12.16754965
Ga       9.81741977       7.55114482      10.77150248
Ga      11.36696759      12.88583459      12.43342624
Ga      14.69772199       8.68882634      10.53119772
Ga       8.81669366      13.71992272      13.42053865
Ga      11.54205173      10.22138950      12.19450361
Ga      12.85839316      14.91650124      13.77879581
Ga       7.16252363       9.01593712      12.27122368
Ga      12.37809669       7.50701810      11.48411094
Ga      13.76219147      12.33516041      13.84751630
Ga       9.07139460      11.04704479      14.07879438
Ga       9.70644535       8.43961007      13.47974930
Ga      14.33323958       9.87817744      13.00871949
Ga      10.91821195      13.57074397      15.19987406
Ga      14.66825755       7.14597257      12.96845561
Ga      11.65152931      10.79851226      14.99646608
Ga      12.37301587       8.28891253      14.13438619
35
Properties=species:S:1:pos:R:3 config_type=qcd gap_pre_relax_energy=-91.74426885309889 gap_pred_energy=-92.96854466336283 gap_fmax_final=0.0009275951613965898 gap_converged=1 pbc="F F F"
Ga      12.45453747       7.80742703      13.08524193
Ga      10.50003710       9.24413521       6.08384651
Ga       8.64689399      11.25426709      10.33587426
Ga       7.40337609      12.97997631      12.31471411
Ga      15.04845276      11.53025355      10.31899621
Ga       8.72705408       7.84194231       7.71422279
Ga       8.94364313      14.17309550      10.34355574
Ga      13.89092284       9.72708769       8.61748747
Ga      10.51449359       9.20927816      14.48775306
Ga      12.20366873       7.85394008       7.74934920
Ga      10.29807159      13.04285630       8.14123243
Ga      11.65156019      14.03872151      10.32791189
Ga      12.11810008      11.28019563       7.01460177
Ga      10.30757326      13.02242856      12.51465782
Ga      10.40072927       9.84535921      11.74411062
Ga       6.89066803       9.69923716      12.00225228
Ga      12.12856538      11.25625668      13.62473234
Ga      12.20782712      11.22690502      10.34659462
Ga      12.73230593       7.94536588      10.37330716
Ga      10.43528089       9.89973552       8.87215282
Ga      13.58419495      13.10632930      12.05065360
Ga       8.74887554      11.14472632      13.76805028
Ga       8.73772632      11.13680440       6.89169509
Ga       5.88705665      11.62821769      10.29382510
Ga      13.57518565      13.10498210       8.60261543
Ga       8.55963209       7.86706918      13.02364742
Ga      13.94765288       9.73990441      12.07154297
Ga       7.43405925      13.00704533       8.33580714
Ga       6.97820806       9.70157867       8.62117400
Ga       8.17676460       7.91470963      10.33214047
Ga      10.48476056       6.44218825       6.11176490
Ga      10.46359948       6.05033348       8.94961895
Ga      10.49045938       6.63877629      11.47261086
Ga       6.13175711      14.42883457      10.32410670
Ga      10.46785794       6.38158798      14.30970409
35
Properties=species:S:1:pos:R:3 config_type=qcd gap_pre_relax_energy=-91.11427117119096 gap_pred_energy=-92.39841037700918 gap_fmax_final=0.000989697368304658 gap_converged=1 pbc="F F F"
Ga      11.07479993      12.17801314       7.39844795
Ga      12.72832596      10.02770304       6.95039136
Ga      13.67270958      12.72907952       8.38710950
Ga      13.31517838      14.58538953      10.27982181
Ga      10.85852005      14.53904587       8.69740909
Ga      12.40190597       8.27204736       9.05255958
Ga      11.25402215      16.45322676      10.61012065
Ga      14.54684738      10.14638448       9.09056528
Ga       9.68207477      12.14033177       9.78756980
Ga      14.17888111      11.89981411      11.07863991
Ga      12.00500806      10.99456942       9.81103781
Ga      10.13808096       9.68302429       8.29195094
Ga       9.46919557      14.38516088      11.19191188
Ga      14.93943546       7.53865536       9.87993587
Ga      11.75759027      12.75668292      11.86419587
Ga      14.22532876      13.95120342      12.76761612
Ga      13.35272091      16.56753241      12.39225334
Ga      12.68540035      10.17293318      13.01188409
Ga      11.00643971      15.22276547      13.22041128
Ga      13.16026973      15.26635712      14.90839456
Ga       8.19023376       9.87073317      10.15761567
Ga      12.88209259       7.67592805      11.72698354
Ga      15.05984261       9.43664089      11.85097199
Ga      10.30275567       8.10830893      10.62917038
Ga      10.12722173      10.57935263      12.08152593
Ga      14.99942936      11.47837582      13.71471230
Ga      12.48135786      12.58229797      14.60747973
Ga       7.82366271      12.28015017      11.72124671
Ga       9.70573255      12.94317167      13.68908301
Ga       6.17055555      10.09548888      12.07297621
Ga      10.90175769       8.15931037      13.37041138
Ga       8.30084117       8.38228583      12.50639812
Ga      10.67086864      10.56841591      14.86665870
Ga       8.01492103      10.81776309      14.05210596
Ga       8.87356108       8.46942566      15.23800273
36
Properties=species:S:1:pos:R:3 config_type=qcd gap_pre_relax_energy=-94.46515064165904 gap_pred_energy=-95.86550038526676 gap_fmax_final=0.0008400078596009103 gap_converged=1 pbc="F F F"
Ga      13.32500598      12.83303089      12.29282455
Ga       5.23646684      11.43128592      10.10930179
Ga      10.82025671       9.20457473       8.92744510
Ga      12.56664114       7.39086810       7.54954233
Ga      10.53036444       9.34130901      15.10246553
Ga       7.14996721      12.80809937       7.64019698
Ga      10.45137166       6.44015386       9.30904014
Ga       8.90728239      10.98438222      13.69667108
Ga      14.77978515      11.55073041      10.16189336
Ga       7.28712176      12.78604543      12.41178913
Ga       8.38699720       7.81267060      10.52635420
Ga      10.36319717       6.39244833      11.95836060
Ga       7.11516786       9.97824323      11.68303703
Ga      12.54865525       7.41943863      10.74079335
Ga      12.01537546      11.33044049      10.32750783
Ga      12.28473657      10.74265728       7.02631382
Ga      13.72526829       9.63001083      11.88866353
Ga       9.76022533      10.20893368      11.08767776
Ga      10.03548185      12.80276378      11.89572616
Ga       8.10124897      11.83042346       9.91374835
Ga      12.20257340       8.04626656      13.31705593
Ga      13.61453973       9.32078152       9.13215226
Ga       6.84458554       9.62192864       8.86671598
Ga      10.53766240       8.84452759       6.11953628
Ga       8.81789040       8.32360017      13.10285772
Ga      13.05374833      12.99279388       8.30851128
Ga      11.65798447      10.87105958      13.13485907
Ga       8.55536744       7.88057506       7.83047433
Ga       8.87176612      10.65667902       7.29813571
Ga      10.28904494      12.56036597       8.51304042
Ga       6.29177096      13.96634602      10.09209163
Ga       8.95527016      14.54595887       9.97775440
Ga      11.69487010      14.24759243      10.38314084
Ga      10.27930016       6.09011774       6.55778514
Ga      14.50171244      14.34994552      10.26081840
Ga      10.28524039       6.60689537      14.69966220
36
Properties=species:S:1:pos:R:3 config_type=qcd gap_pre_relax_energy=-93.94480814467143 gap_pred_energy=-95.69297955042606 gap_fmax_final=0.0009692202698692072 gap_converged=1 pbc="F F F"
Ga      11.11740660       8.76889680      14.71770203
Ga      13.71054041       9.10015097      13.40796340
Ga      12.80036416      10.95164395      15.12044934
Ga      14.95180521       9.10513120      10.93328029
Ga      12.37165712       6.68901704      13.41837989
Ga      14.48758118      11.57957276      12.24920477
Ga      14.07382676      13.25483450      14.45444708
Ga      12.35123795       8.11095134      11.01043487
Ga      14.95903391      10.03489659       8.32839875
Ga      10.01765727      11.08243033      15.71730680
Ga      15.71484231      12.20033015       9.78391260
Ga      15.03495976      14.44180526      12.09423864
Ga      12.65885370       8.56568692       8.32345291
Ga      11.37865296      13.42569848      15.23351018
Ga      11.42705050      10.47919295      12.54660148
Ga      12.81459558      10.75925356      10.13324897
Ga      10.05228635       7.76324038      12.32330262
Ga      12.82709589      15.74955549      14.43813348
Ga       8.80304661       9.84837997      13.53966623
Ga      13.12465227      11.97656710       7.61036712
Ga      13.23855917      13.54210301       9.97790057
Ga      12.54001235      15.66440642      11.66534548
Ga      10.30157700      15.11758890      13.27505274
Ga      12.15318653      13.10232052      12.52181200
Ga      10.00997940       8.30313112       9.55345143
Ga      10.41128500      12.07486575      10.70008397
Ga       9.59440030      12.44888780      13.36490078
Ga       7.85167516       8.80693671      11.17638249
Ga      10.78900006      10.56590171       8.16933686
Ga      10.91876067      13.48629334       8.33183175
Ga      10.21637614      15.01017519      10.42296181
Ga       8.30295318      10.51191380       9.14233787
Ga       7.73649886      11.52349701      11.60095558
Ga       7.99568896      14.25813015      12.04170722
Ga       8.85075176      12.22049457       7.01752194
Ga       8.23392395      13.29789322       9.47619107
37
Properties=species:S:1:pos:R:3 config_type=qcd gap_pre_relax_energy=-96.7920921023521 gap_pred_energy=-98.222182201433 gap_fmax_final=0.0008510256059122299 gap_converged=1 pbc="F F F"
Ga      11.96188322       8.37243486       8.28699319
Ga      12.26860003       6.56704957      10.40548721
Ga      11.40708810      10.88638651       7.37021824
Ga      14.25477708       8.42940276      10.77151048
Ga      10.69976447      12.93618234       5.62593319
Ga       8.70463546      11.41178933       6.86260925
Ga      13.22284453      10.62806734       9.37018196
Ga      12.74840952      13.30271862       7.49214398
Ga      10.04062647      13.42405343       8.27904708
Ga      12.06511402       7.53337112      13.12392145
Ga      15.25602836      10.91550682      11.19758257
Ga      14.38571918      13.12151538       9.56730054
Ga      10.75484266      11.57003715      10.26493207
Ga       9.38261318       9.52485260       8.80963481
Ga      16.30413590      13.48056129      11.54259139
Ga      12.83360544      12.18067625      11.78221424
Ga      13.81023032      14.71511045      11.86108462
Ga       9.39147362       7.08763450      10.08868789
Ga      11.21417755       9.06491663      10.97264609
Ga       8.08035376      11.95393047       9.51045311
Ga      14.97246680      12.20274090      13.61276916
Ga      10.35664577       5.54085923      12.20549231
Ga       9.39067824      14.00200091      10.88921364
Ga      13.50379344       9.77990100      13.14469266
Ga      11.89182910      14.27010471      10.02462508
Ga       8.03456612       9.79583998      11.17509554
Ga      13.74679123      14.47803009      14.61426966
Ga      10.26315889      12.25416546      12.88610035
Ga       9.29113246       8.06733572      12.83509139
Ga      12.44517414      11.98221656      14.55127581
Ga      10.94617801       9.80954193      14.20890761
Ga       7.49723967      12.31806047      12.13154998
Ga       8.61810135      14.52570707      13.45440679
Ga       8.38161889      10.39693721      13.90627271
Ga      11.31119371      14.78166842      13.27396482
Ga       9.94219864      12.58981520      15.54446124
Ga       7.18483931      12.66340635      14.92116654
37
Properties=species:S:1:pos:R:3 config_type=qcd gap_pre_relax_energy=-96.20308190607119 gap_pred_energy=-98.75508639975308 gap_fmax_final=0.0008678661678993018 gap_converged=1 pbc="F F F"
Ga      10.46241916      10.27551337      15.29309793
Ga       8.82917903       9.10769710      13.46723006
Ga       7.92653030       8.57060842      10.92370610
Ga       9.50047039       6.86063058       9.47852643
Ga      10.60082324       8.22465494      11.61722228
Ga      12.08124896       8.41961324      13.97598870
Ga      12.29845279       6.77497622      10.00437804
Ga      13.10622849      10.81768858      15.91680369
Ga       9.00243652      11.97728526      13.58259904
Ga       7.13370269      10.95133999      11.92638351
Ga      10.53657322      13.03212530      15.59416820
Ga       6.26419478      10.12694503       9.37306167
Ga      13.84579103       7.35405418      12.23881594
Ga      11.73112834      11.00066559      12.92021772
Ga       9.88566682      11.03199581      11.04330880
Ga       8.61640786       9.25935833       8.30263737
Ga       9.69780602      15.55574408      10.72242476
Ga       5.99837439      12.76852593      10.08496965
Ga       7.67488693      14.72885709       8.98775545
Ga      12.96578715      13.05026719      14.30519492
Ga      12.72982134       9.51689813      10.83041338
Ga      11.26305782       8.53447021       8.20677325
Ga       8.09588275      11.99795314       8.36098300
Ga       8.47198816      13.20492313      11.18665852
Ga      14.45470239      10.59082958      13.46290447
Ga      14.49353487       8.21965538       8.97161925
Ga      10.85630848      13.91948251      12.72599380
Ga      12.16501210      12.05590443      10.27765137
Ga      10.49236428      11.09534282       7.72978955
Ga      15.49468522       9.32620877      11.27145970
Ga      14.16408537      13.09308933      11.93683274
Ga      13.13542067      10.46508089       8.14026923
Ga      10.27110441      13.55934144       8.83518780
Ga      15.16070849      11.53299425       9.67587789
Ga      12.31479349      14.84647145      10.61804230
Ga      12.78466818      13.13529527       7.79937877
Ga      14.71034948      14.23410868       9.42827032
38
Properties=species:S:1:pos:R:3 config_type=qcd gap_pre_relax_energy=-99.48876798079435 gap_pred_energy=-101.37631497186342 gap_fmax_final=0.0007915631649746891 gap_converged=1 pbc="F F F"
Ga      13.64392201      13.51795642      13.50336857
Ga       7.37913381      12.05285245      10.94506378
Ga      11.86806125      10.02559647       9.59481135
Ga      14.09466821       8.38633575       8.82853051
Ga      10.84740275      10.29005774      16.57924198
Ga       8.99799736      13.23317533       9.04638103
Ga      11.83386137       7.30799881      10.33313528
Ga       9.67440235      12.08272513      14.85032818
Ga      15.67623282      12.27498667      12.14908053
Ga       8.87361592      13.39007690      12.81263187
Ga       9.56704379       8.39448727      11.45352950
Ga      11.41066700       7.48837565      13.21657723
Ga       8.51723127      10.51798435      12.89363169
Ga      13.62878949       8.50346213      12.04303173
Ga      12.99216779      11.59842715      11.40941160
Ga      13.71422657      11.62874253       8.05988814
Ga      14.11290047      10.66839912      13.70578016
Ga      11.31969603      10.29502009      13.32265458
Ga      15.48374615      15.03395354      12.00974428
Ga      11.12435661      14.46750753      13.90090967
Ga      10.19413156      11.52361736      11.00362923
Ga      12.79875220       8.79543308      15.26410427
Ga      15.20392714      10.12965979      10.55484175
Ga       8.39652934       9.94739779       9.56702462
Ga      12.26953837       9.51399768       6.92374058
Ga       9.43144252       8.70457608      14.77540002
Ga      14.60332959      13.38324733       9.86030294
Ga      12.36557058      12.15576622      15.23962702
Ga      10.04011158       8.27779732       8.24004650
Ga      10.45279073      11.54141456       7.58646973
Ga      11.79057270      13.04698302       9.57123639
Ga       7.45788301      14.81893366      10.84513726
Ga      10.25511282      14.85627420      10.79521034
Ga      12.81798557      14.92702829      11.16516184
Ga      12.24382292       6.74624580       7.61113374
Ga       8.73607431      16.09890337      12.94798293
Ga      11.27411970      16.83206220      12.42589064
Ga      13.59483020      16.22918910      13.65197649
39
Properties=species:S:1:pos:R:3 config_type=qcd gap_pre_relax_energy=-102.095106202985 gap_pred_energy=-103.66732875852603 gap_fmax_final=0.000992381148858383 gap_converged=1 pbc="F F F"
Ga      12.56429557       9.95195579      16.11096658
Ga      10.51150724       9.85202183      14.26841385
Ga       8.98985614      10.19802328      12.00703161
Ga      12.30394135      11.52271865      18.29798180
Ga      10.35334004      11.75306025      16.31748777
Ga      13.01283909       8.65546915      13.79051077
Ga       8.87756254      12.15102741      14.11588135
Ga      11.61707663       9.73562434      11.70491185
Ga      15.00621401      10.36715330      14.86812518
Ga      14.19306934       8.89404452      11.22677285
Ga      15.72637371       8.19894288      13.37505215
Ga       7.66273979      11.53644644       9.97035184
Ga      13.88055871      12.50028739      16.12308695
Ga      12.64009595      11.52539748      13.82175787
Ga      10.74873475      12.30196237      12.04714063
Ga      10.13289123      10.94772660       9.03057263
Ga       7.17693027      13.00574954      12.20622070
Ga      11.83706717      14.01625033      17.22198024
Ga      11.19919453      13.74280153      14.56797850
Ga      12.74663316      10.02918408       9.22389818
Ga      12.08504260      11.94949568       7.33797252
Ga      13.49020532      11.63583032      11.38034986
Ga      16.08909282      10.72958580      12.27578723
Ga      14.54370002      10.72531840       7.11308547
Ga       9.31197901      14.64495072      12.79362960
Ga       9.31517542      13.77579787      10.19610878
Ga      14.98490414      12.82680986      13.63462270
Ga      11.93538486      13.22290148       9.76343545
Ga      13.65114148      15.19434428      15.48967438
Ga      12.86731512      14.05447348      12.42451964
Ga      14.40483234      13.14902452       8.48656370
Ga      15.48455530      10.77092351       9.64909877
Ga      11.45034165      16.19945507      13.44727024
Ga      11.19212424      15.66136316      10.77428406
Ga      15.71314293      13.18878359      10.96129012
Ga      13.93811479      15.21974524      10.12294594
Ga      15.29479658      15.30871969      12.65841803
Ga      13.93820695      17.37819817      13.91498419
Ga      13.16168523      17.51109405      11.31249805
39
Properties=species:S:1:pos:R:3 config_type=qcd gap_pre_relax_energy=-102.09952120521255 gap_pred_energy=-104.27463163076816 gap_fmax_final=0.0008951064732553787 gap_converged=1 pbc="F F F"
Ga       6.50270210       7.52651359       9.76320187
Ga       6.71395901       9.99431620      11.07807904
Ga       6.95335101       9.80564008       8.27193642
Ga       8.92712762       7.74421282       8.30659594
Ga       8.97418871      12.60502928      14.34244417
Ga       8.48140344       7.88465409      11.65303639
Ga       7.15565053      12.36512144      12.23420065
Ga       8.37862115      10.09334713      13.29316993
Ga       7.51010136      12.17710862       9.51023301
Ga       9.27755499       9.90647752      10.01149230
Ga       9.46953820      13.68707743       8.26636253
Ga       9.20924900      11.07893351       7.53423668
Ga       9.94240086      11.93001903      11.78190554
Ga      11.50099323       6.73356205       8.19375413
Ga       7.64003623      14.84261531      13.33817828
Ga      10.95531704       7.81915023      10.75205658
Ga      10.78033691      10.70948968      14.93454084
Ga      10.48917380       8.35992539      13.44871117
Ga       8.57226551      14.27082387      10.73967339
Ga      12.21449289      10.34219865      12.62884197
Ga      11.58297380      13.45416674      14.92946780
Ga      12.80857244       8.86049388      15.09467827
Ga      11.74468445      11.02405232      10.13674371
Ga      13.39427342       6.50021473      10.17516804
Ga      14.91410235       8.78021356      10.60144481
Ga      10.34341921      14.66999915      12.85340789
Ga      11.15649444      14.91655131      10.30151968
Ga      13.01008296       7.67910616      12.53258629
Ga      11.87026190      14.83190626       7.66161937
Ga      11.66665977      12.05166996       7.52026833
Ga      11.27942152       9.42815519       8.10076903
Ga      13.77232626      11.94734958      14.32955148
Ga      14.85530630       9.61650653      13.23226858
Ga      12.37561457      13.06771074      12.11703318
Ga      13.87003450       8.32521900       8.09146410
Ga      14.31520668      11.36685193      11.16476821
Ga      13.24921312      13.38460552       9.64880702
Ga      14.08464905      13.29997883       7.00139801
Ga      14.09709891      10.95789191       8.46324460
40
Properties=species:S:1:pos:R:3 config_type=qcd gap_pre_relax_energy=-104.98731580303681 gap_pred_energy=-106.89398097773926 gap_fmax_final=0.000895106625703949 gap_converged=1 pbc="F F F"
Ga      14.23834166      16.45830067      10.81507870
Ga      11.90166737      17.94845735      11.27797299
Ga      12.66099996      16.17272994       8.50468310
Ga      15.50691960      14.52498738      12.21763807
Ga      13.98585192      13.80269290      10.04252294
Ga      10.25343780      16.16337752       9.89921213
Ga      13.17903173      16.38851801      13.50605616
Ga      12.07805893      14.92461123      11.46598925
Ga      12.99476292      13.60190607       7.47943568
Ga       9.98047045      16.09543245      12.76936811
Ga      15.86388982      12.30238290      13.74887673
Ga      14.37746533      11.48377636       8.72621543
Ga      15.42126080      11.77195575      11.18413045
Ga      11.09994651      13.50159810       9.46972303
Ga      14.24388442      14.27432980      14.72793319
Ga       8.74118484      14.06196328      10.66903829
Ga      11.48270481      14.17734107      14.07000860
Ga      13.48325988       9.08841843       7.80428445
Ga      12.59802064      11.62179864      11.17188064
Ga      13.03523401      11.88697930      13.78462582
Ga      10.49858471      11.61065494      12.90432199
Ga      12.51853545      12.86442822      16.31534208
Ga      11.67369224      11.19241032       8.08772681
Ga      10.03227447      12.30333692      15.60609891
Ga       8.84911410      13.76843262      13.50767426
Ga      14.04618077       9.39277694      10.56625886
Ga       9.99980034      11.10790793      10.19160859
Ga      14.84909407       9.79524674      13.23899905
Ga      14.93767513      11.47765390      16.16334995
Ga       7.91890070      11.78039117      11.81341310
Ga      12.10185989       9.41520069      12.69591802
Ga      12.53387269       9.99719802      15.81551699
Ga       7.65258278      11.26511399      14.47171065
Ga      11.34984282       8.78070434       9.55951150
Ga       8.87787017       9.18442485      12.07971876
Ga      13.34536725       7.05843570      11.81617987
Ga      13.54513376       7.77103639      14.49089164
Ga       9.90319331       9.72381080      14.71795033
Ga      10.60905565       7.18707306      11.58171464
Ga      10.87290958       7.31413863      14.28335355
40
Properties=species:S:1:pos:R:3 config_type=qcd gap_pre_relax_energy=-105.00289932584535 gap_pred_energy=-107.5094088818445 gap_fmax_final=0.0007193020160150037 gap_converged=1 pbc="F F F"
Ga      13.11189837       7.85599296      10.16561357
Ga      11.46963579      12.89915908       8.48971037
Ga       6.54679467      12.32694908       9.99672126
Ga      14.11750979      15.38595884      11.54239670
Ga      13.27015951      11.10579931      14.39333064
Ga       8.58443919       8.45642243      10.18606529
Ga       6.78277327       9.96753936      11.59964150
Ga       9.58867022      15.98661947      11.56279806
Ga      10.82705600       8.04546245       8.74434866
Ga      11.75671157      15.00641208      10.17258151
Ga       9.22768306      14.27921506      13.77065999
Ga      13.08652718       8.59156874       7.21225021
Ga      11.44424195      12.58636704      12.06915620
Ga       8.53450494       9.10250713      13.51992238
Ga       9.03415274      11.46548594       8.81989634
Ga       7.45845579      14.17913953      11.70933271
Ga      11.54275298      13.23215854      14.90381231
Ga      15.25766433       8.84349562      11.56148688
Ga      13.86835295      13.41014357       9.60123181
Ga      15.79767709      10.81895284      13.34567155
Ga      11.11171901      10.05658252      12.72027108
Ga       8.97766190      11.72412361      11.52707129
Ga      13.59600214      11.11155428      11.50627600
Ga      11.79913113      15.23021779      12.99398849
Ga      10.78713631       7.65256455      11.45194360
Ga       9.29704443      14.01640683       9.62181642
Ga       6.79218761      12.01336694      13.38626607
Ga      14.04057830      13.64088613      13.74899897
Ga      11.16454619      10.54213945      10.15663438
Ga      13.35814390       8.46271875      13.49828115
Ga      15.70422153      13.08552446      11.67221003
Ga      11.14409065      10.48412738       7.32130756
Ga      13.45003803      10.87973869       8.79996797
Ga       9.31625991      11.63023097      14.41116787
Ga       8.77458888       9.16348685       7.23169885
Ga       6.67306735       9.91569656       8.74720441
Ga      15.32482640       8.76816975       8.70822791
Ga      16.08636390      11.06172708       9.95377003
Ga      11.11103202       9.95307074      15.62255364
Ga      10.80329901       7.68191759      14.17331637
41
Properties=species:S:1:pos:R:3 config_type=qcd gap_pre_relax_energy=-107.5854428507876 gap_pred_energy=-109.61327170008092 gap_fmax_final=0.0009213938587759898 gap_converged=1 pbc="F F F"
Ga      16.68702759      11.74158611      12.20474539
Ga      14.78172068      13.10882352      13.60375340
Ga      14.04348311      11.69928491      15.91287511
Ga      16.63679141      11.47254993       9.48631494
Ga      14.78970771      10.27495175      13.65601346
Ga      14.56747874      12.97742817      10.75651707
Ga      12.23324959      13.41327938      14.56267761
Ga      12.95742773      14.66287001      12.18697133
Ga      11.29097799      11.48275809      16.33778579
Ga      14.66609711      10.15892883      10.96161760
Ga      12.71641494      11.72475933      12.27638789
Ga      12.57199363       9.44945413      15.00360840
Ga      14.50699241      12.56445796       8.04861369
Ga      12.60699049      14.31239734       8.87415756
Ga       9.16218854      13.08296554      15.80352408
Ga      13.07659192       8.55361811      12.44764640
Ga      14.84803692       9.77206309       8.16811147
Ga       9.98467481      14.18505745      13.29011441
Ga      10.76229858      15.33947896      10.87161904
Ga      12.40718352      11.52856369       9.68009703
Ga      10.42958462      11.41036569      13.63043340
Ga       7.31420008      14.20400366      14.04673251
Ga      10.36021201      12.59747566      11.15391486
Ga      10.52980001       8.46707430      13.50855889
Ga       9.27159416       9.69098324      15.57512717
Ga      12.76894644       8.78463159       9.72763019
Ga      12.25247685      11.60017138       6.87604556
Ga      10.76686122       9.93680098      11.24377873
Ga       8.16215279      15.72279136      11.87428263
Ga      12.58580179       8.77745674       6.94525565
Ga      10.13994763      15.30125370       8.17340851
Ga      11.08112628       7.09488858      11.18686165
Ga      10.11402220      12.49016039       8.28683773
Ga       8.11881624       9.37909098      12.37145163
Ga       7.61200022      11.34254911      14.18466431
Ga       7.32321176      12.62675633      11.78548802
Ga      10.53995517       9.86975238       8.47082382
Ga       8.35102458      13.95838407       9.73502422
Ga      10.89217812       7.09059266       8.39997296
Ga       8.84244856       8.29296355       9.94453134
Ga       8.41455874      11.02482428       9.91427143
41
Properties=species:S:1:pos:R:3 config_type=qcd gap_pre_relax_energy=-107.66868797289304 gap_pred_energy=-110.077702262865 gap_fmax_final=0.000972391984710718 gap_converged=1 pbc="F F F"
Ga       8.82751270       8.40751508      11.88884005
Ga      10.78209681       8.08444741      13.80305868
Ga      11.09918488       7.81212305      10.45828488
Ga       7.15010737      10.55030193      11.84699333
Ga       9.58591076      10.17550639       9.73624811
Ga      13.32009064       8.51681011      14.89709540
Ga       8.82517810      10.77935389      14.18230982
Ga      12.89259908       9.03851233      12.22702334
Ga      13.67518172       8.42836033       9.55717458
Ga      11.58771853      10.61531547      14.71978164
Ga      11.78274497       9.69636308       7.77967376
Ga       9.83702769      11.49258125       7.22352479
Ga       7.72196023      11.97671754       8.83998157
Ga      10.62232747      10.51445006      12.13702658
Ga       6.23685246      12.94810821      10.91761792
Ga      13.52437311      10.72133453      16.74787736
Ga      14.16902211      10.86785022      13.80359697
Ga       7.50781668      13.63482343      13.29231689
Ga      15.44339540       8.37251498      13.10569181
Ga      12.38873281      10.75860922      10.20677910
Ga      15.85591119       9.65398010      15.61811137
Ga       9.03760421      12.53071071      11.30611444
Ga      10.56936195      12.88827115      13.73878792
Ga       7.83547388      15.02041570      10.25037689
Ga      14.73941221      10.76288909       8.41124201
Ga      16.95973043      10.67911447      13.17117139
Ga      14.92854916      10.47481510      11.22568932
Ga      12.20280202      12.55512514       8.14488316
Ga      11.61670591      13.05090192      11.26742985
Ga      12.88315503      12.93070719      15.16036126
Ga       9.78781728      13.94014178       8.52474192
Ga       9.79263680      15.05451898      12.24411666
Ga      15.77613043      12.48102107      15.15054518
Ga      15.58046208      12.87603607      12.30756616
Ga      14.14103229      12.86042909      10.07410833
Ga      12.36446666      14.90109631       9.39499331
Ga      12.13227792      15.01620846      13.61133703
Ga      10.08620225      16.41418791       9.72052953
Ga      14.77326617      14.76809227      14.19952259
Ga      14.01632541      14.98593125      11.60033643
Ga      11.98585692      16.80882151      11.55215244
42
Properties=species:S:1:pos:R:3 config_type=qcd gap_pre_relax_energy=-110.17245917119037 gap_pred_energy=-111.93118850679156 gap_fmax_final=0.0008054901843156702 gap_converged=1 pbc="F F F"
Ga       8.31461785      13.43243224      15.61011565
Ga      10.05557521      11.57400074      16.66998225
Ga       9.21845558      15.18900260      13.60822289
Ga       7.34657015      13.14971229      13.01985682
Ga      10.96033356      13.34151387      14.65177720
Ga      12.67827498      11.49953618      15.70615821
Ga       9.08095384      11.26517371      14.02129396
Ga      10.78852227       9.40198763      15.08394777
Ga       8.23661914      14.92674994      10.99324287
Ga       6.36740426      12.90649962      10.42541218
Ga      13.55009180      13.26076113      13.76760633
Ga      11.78295028      15.10531669      12.67504535
Ga      10.01927742      13.00117209      12.02422207
Ga      13.44919038       8.82071654      15.71326819
Ga       8.12122215      11.01550652      11.49846333
Ga      11.67836861      11.18527248      13.08608631
Ga       9.80946343       9.07175127      12.52418633
Ga      10.79323298      14.81872621      10.01399043
Ga      12.69276528      16.74632249      10.63074433
Ga       8.99840552      12.80602068       9.42459154
Ga      14.31246481      10.61571381      13.69005051
Ga      15.11688971       7.93956790      13.70072749
Ga      10.70073192      10.90301668      10.48166799
Ga      12.43370436       8.53086659      13.08637885
Ga      15.16550418      12.28961017      11.73599463
Ga      13.26483712      10.33891019      11.10005904
Ga      14.42625290      14.90521038      11.76277129
Ga       8.82482496       8.87507657       9.97801631
Ga       7.11266247      10.76725769       8.85180512
Ga      12.54624111      12.93305386      11.08346949
Ga       9.72517089      10.71210150       7.86204252
Ga      11.50213450       8.22121868      10.49190088
Ga      13.41015103      14.61503766       9.01579345
Ga      11.56680666      12.67518350       8.40232426
Ga      15.97581093       9.67949310      11.71041862
Ga      16.84513964      11.38974207       9.69342026
Ga      14.10320486       7.64927007      11.09341965
Ga      12.37974197      10.00535403       8.44508282
Ga      10.48221684       8.04960073       7.91700994
Ga      14.97460095       9.38697254       9.07054068
Ga      16.06199468      14.03444066       9.67800017
Ga      14.17493963      12.01344745       9.04921277
42
Properties=species:S:1:pos:R:3 config_type=qcd gap_pre_relax_energy=-110.05955849261386 gap_pred_energy=-112.49191573262601 gap_fmax_final=0.0008018570063882456 gap_converged=1 pbc="F F F"
Ga      10.87240647       8.90387595       7.50351354
Ga       8.68507288      10.13594077       8.36263272
Ga       8.28160341      15.38550982       7.71929239
Ga       6.43723318      11.57677343       8.92696687
Ga      13.18416566      10.37438956       7.90049229
Ga       8.34427128      12.66753312       7.23891312
Ga      10.82064045      11.65792014       7.21413599
Ga      12.74335233      12.81967161       8.86275078
Ga      15.34317500       8.87919773       8.94751719
Ga      12.71566403       8.03556988       9.32964842
Ga      10.14968698       8.76029211      10.24991491
Ga       9.55500447      16.28347061      10.02686303
Ga       7.43048093       9.66916326      10.75542678
Ga      14.74783191      11.40408603       9.97860895
Ga       6.92403019      14.19238899       9.73245546
Ga      10.19365077      13.76815453       8.91790471
Ga       6.77923576      12.21586428      11.64255766
Ga       9.55830241      11.25960262      11.09795691
Ga      12.18790256      10.52706008      10.57092919
Ga      12.25908375      15.34774508       9.85847416
Ga      16.75117945       9.82163351      11.17976781
Ga       8.95669474      13.94735480      11.54036281
Ga      14.18279206       8.95970755      11.56342692
Ga      11.97655052       7.34189618      11.85266281
Ga      13.42397948      11.53350514      12.64150258
Ga      14.14637655      14.33803440      11.57787207
Ga      11.50833893      13.05098040      11.31776213
Ga       8.12453304      10.82184349      13.48714700
Ga      11.06700360      15.67506004      12.36246967
Ga      16.00293820      12.35015645      12.23374366
Ga      10.96305041      10.31409832      13.05791683
Ga       8.87054143       8.29081616      12.71080361
Ga      13.35186356       9.33710716      14.08382005
Ga       9.87408223      12.93816570      14.00693842
Ga      16.04913037      10.01643961      13.89038630
Ga      14.89279322      13.08240023      14.60837529
Ga      12.46584578      13.91038023      13.83913855
Ga      11.07047043       7.83360298      14.38500674
Ga       9.66928678       9.97070444      15.58572494
Ga      14.50236399      10.76348282      16.14952843
Ga      11.94618275      11.85299578      15.65499349
Ga      12.19658076       9.19079776      16.63906755
43
Properties=species:S:1:pos:R:3 config_type=qcd gap_pre_relax_energy=-113.50074062279228 gap_pred_energy=-115.4055077210726 gap_fmax_final=0.000990709535599088 gap_converged=1 pbc="F F F"
Ga      13.93216399      11.72412754       7.56156366
Ga      11.20855530      11.29762271       7.56067955
Ga      12.76767543      14.22248960       7.13549539
Ga      10.14188225      13.82695436       8.09761247
Ga       8.20765858      11.86608042       8.21743198
Ga      15.13239237      10.24005126       9.55849958
Ga      12.84744163       9.26177253       8.28883782
Ga       9.51616032       9.45330333       8.62018222
Ga      15.56523639      13.49297676       8.86505647
Ga       8.12201633      14.82375680       9.74765072
Ga      11.27428790       7.69752842       9.75092435
Ga      13.71082574      15.34003297       9.69849021
Ga       7.68555588       9.69245475      10.74377972
Ga      12.35446402      12.92484649       9.58700985
Ga      13.16668037       9.10995563      11.09761625
Ga      11.15228107      16.09873530       9.35680838
Ga      16.47564656      12.17391016      11.12384597
Ga       7.19397889      12.45208081      10.78551143
Ga      10.43914427       9.84409392      11.56701384
Ga      13.81398099      11.86620644      11.43956357
Ga      11.62442465       7.11210983      12.53280074
Ga       9.91172537      12.19977152      10.47888751
Ga       9.82404961      15.90389308      11.69113199
Ga       9.08382148       7.37715471      11.36217531
Ga      12.16961616      14.26235007      11.89344800
Ga       8.27429625      13.90568481      12.86064372
Ga      12.37178740      10.36595739      13.26200031
Ga      14.90959139      14.40194472      12.00624191
Ga      15.62133322       9.84085085      12.35677045
Ga       8.07208304      11.13155612      13.10531020
Ga      13.93363588       8.12289724      13.76716405
Ga      16.11694152      12.79551670      13.91367709
Ga       8.86828796       8.64657781      13.79311012
Ga      10.51053509      12.35790320      13.28404785
Ga      10.77048063      15.05230996      14.12145683
Ga      13.25646025      12.81156706      13.89914576
Ga       8.57683261      13.12104727      15.52469659
Ga      14.83340631      10.52417704      14.88294304
Ga      14.13503774      12.67901999      16.50643607
Ga       9.79175530      10.66495899      15.40551128
Ga      11.38147350       8.33347053      14.98106644
Ga      11.38116433      13.04004379      15.90426765
Ga      12.41339143      10.48041653      16.20365308
43
Properties=species:S:1:pos:R:3 config_type=qcd gap_pre_relax_energy=-113.22603629053972 gap_pred_energy=-115.26518906561955 gap_fmax_final=0.0008805657521196312 gap_converged=1 pbc="F F F"
Ga      13.39266531      11.25603205      14.07678779
Ga      11.29591250       8.00022357      11.04932848
Ga       6.81895107       9.65505760      10.98124249
Ga      13.66104843       9.14838856       6.97889473
Ga      13.50540467      13.86356547       9.98366718
Ga       8.94441246      11.21230865      13.92872317
Ga       6.72945225      12.00600031      12.50176004
Ga       9.18528934       9.10612443       6.83338554
Ga      11.12686302      10.36943311      15.36355663
Ga      11.38473599       8.21416029       8.30239997
Ga       9.13247106      11.49166651       8.35355145
Ga      13.37816838       8.72816130      15.36380257
Ga      11.25190228      15.43526475       9.96843833
Ga      11.32818748      10.60001849       9.79058801
Ga       8.95256864      13.61190442      12.67423942
Ga       9.02274604       8.79026492      12.37435649
Ga       6.89448188       9.81062293       8.20599042
Ga      11.34136855      13.13418590       8.42746627
Ga      15.67602082      12.04662940      12.82005892
Ga      13.54741330       8.95127195       9.80786623
Ga      15.77149485      12.18846852       9.99003542
Ga      11.24981886      12.97728204      11.29717971
Ga       9.12151352      11.29552774      11.14110497
Ga      13.41818612      11.35092998      11.28883236
Ga      11.40927053      10.78895778       6.99170225
Ga      11.14770901      12.84652861      14.16784414
Ga       9.11431533       8.92626054       9.66002765
Ga       6.82394671      12.14634850       9.70048682
Ga      13.58047076      11.53502460       8.50996269
Ga      11.23473194      10.46120126      12.56069568
Ga      13.40898786      13.72035812      12.84130237
Ga      15.84298978       9.85652497       8.50467865
Ga      11.19913294       7.93847389      13.80361708
Ga      13.45563188       8.81494960      12.52807822
Ga       9.04821903      13.75396811       9.83904800
Ga       8.90294667       8.68672109      15.20318863
Ga       6.70723515       9.53250713      13.75692735
Ga      15.65534615       9.57776164      14.06650262
Ga      15.73065535       9.70570251      11.28439418
Ga      11.15427225      15.29027466      12.86184548
Ga      15.70400673      14.47396377      11.52248378
Ga       6.72100858      14.47099037      11.21922150
Ga       8.93031504      16.13225850      11.37700484
44
Properties=species:S:1:pos:R:3 config_type=qcd gap_pre_relax_energy=-115.5167496402072 gap_pred_energy=-118.16639966018087 gap_fmax_final=0.0008484063808603757 gap_converged=1 pbc="F F F"
Ga       5.71916202      11.50988699      11.91683953
Ga       7.29248181       9.98488758      10.22668286
Ga       7.59654102      14.32413135      11.99237004
Ga       7.35470617      11.84063132      14.07840624
Ga       9.34152212      14.48336024      14.06560413
Ga       7.78756849       9.39769307      12.80692560
Ga       9.79802992      12.11672894      15.47215131
Ga       9.45397429       9.51038373      15.04413614
Ga       9.66406902       7.35651286      13.36700568
Ga      12.36117522      10.98654577      15.47283645
Ga       7.02711411      12.71100006       9.71455369
Ga      12.01668165       8.49688407      14.41227799
Ga       9.09665455       7.94507086      10.68216168
Ga      15.03733041       9.64983502      14.29045961
Ga       8.85852251      11.91085061      11.71719118
Ga       8.34584142      15.11963554       9.32476122
Ga      10.30139417      14.27040817      11.05596866
Ga      12.29467202      15.14149266      12.83079559
Ga      11.17100811      12.49077070      12.94698706
Ga       8.05950141      10.85108006       7.77512697
Ga      11.84402474      13.91417103      15.31175403
Ga      10.51845081       9.87499826      12.35629587
Ga      14.16950790      12.86771870      14.29958146
Ga       9.71463688      12.87616975       8.59312145
Ga      10.11932108      10.39644558       9.71115932
Ga      11.72743319       6.13884000      12.16342350
Ga      12.61440941      15.41588460      10.13431271
Ga      12.35032031      11.56805789       8.94983861
Ga      13.01625146      10.56671523      12.66937900
Ga      13.08791346      12.89531028      11.21729680
Ga      10.81227439      15.40116653       8.07086618
Ga      15.50646024      11.72743024      12.22411332
Ga      10.63014296      10.73747203       6.93207454
Ga      11.22818257       6.64767269       9.53499981
Ga      12.28921195       9.06918937      10.51815474
Ga      13.92595880      13.95214705       8.25115281
Ga      15.02040818      11.87447384       9.50782585
Ga      11.75534045      13.23447074       6.71335886
Ga      13.88502444       7.81877081      12.45976665
Ga      11.92432905       8.51220669       7.60624489
Ga      15.67119047       9.33155805      11.02599123
Ga      13.61834767      11.10007335       6.51231614
Ga      13.97134760       6.88137922       9.73210504
Ga      14.33242437       9.41075127       8.62248838
44
Properties=species:S:1:pos:R:3 config_type=qcd gap_pre_relax_energy=-115.93721282834659 gap_pred_energy=-118.43538434661814 gap_fmax_final=0.0009354732318730147 gap_converged=1 pbc="F F F"
Ga      15.44524669      13.06298851       9.43306362
Ga      10.31879413      14.30153602       8.98949145
Ga      11.55209583      11.62618379       8.17072607
Ga      12.98807454      13.98727885       8.57330138
Ga      16.91531116      13.84691024      11.62805277
Ga       9.31141736      11.91594832       9.80477651
Ga       9.80441475      15.43478203      11.34958345
Ga      14.91295550      15.73833743       9.86022529
Ga      11.64390963       9.33697686       9.65271744
Ga      16.30756088      10.74922973      10.67701410
Ga      14.22196099      10.87416412       8.11639762
Ga      10.88240508      17.43540319      12.81355791
Ga      11.08808294      12.92798668      11.91855428
Ga      11.69302278       7.95712435      12.17514419
Ga      14.06517616       9.17791303      11.00376380
Ga      13.11953480      11.76157924      10.46510244
Ga      12.17729013      10.57961481      12.68986435
Ga      17.26564051      11.51830461      13.16868749
Ga      14.55943804      11.83050515      12.76211289
Ga      13.42089619      16.85722632      11.99825473
Ga       9.72102530       9.83365277      11.55448431
Ga      13.58304356      14.07318180      11.53006949
Ga       8.35053169      13.17299003      12.02518246
Ga      16.06407551      16.34852582      12.39326385
Ga      13.50883437      10.24213698      15.00238834
Ga       9.24338009      14.77365919      14.09035220
Ga      15.77503511       9.28454875      13.57331937
Ga      17.39839818      13.99557350      14.47872326
Ga      13.62393740      17.07303294      14.73134286
Ga      13.67752143       7.63842598      14.00828347
Ga       8.99044311      11.14823417      13.85250278
Ga      11.95190164      14.88565679      13.49438653
Ga      11.47673950      12.36390259      14.54886805
Ga      14.62157694      14.39681034      13.84078383
Ga      10.82299549       9.11256875      14.67185459
Ga      15.49899829      12.09662326      15.31987140
Ga       9.11739818      12.89641167      16.03505726
Ga      10.89204217      16.62753790      15.41214640
Ga      16.17031465      16.31947625      15.18297557
Ga      13.19282787      12.17790825      16.83022306
Ga      11.41954899      14.22803396      16.68657236
Ga      12.97938302      16.39530183      17.32098636
Ga      14.76820276      14.42221252      16.66111787
Ga      10.76609526      10.88107931      16.81233116
45
Properties=species:S:1:pos:R:3 config_type=qcd gap_pre_relax_energy=-118.73616246808878 gap_pred_energy=-120.72370447903286 gap_fmax_final=0.0009494018903009043 gap_converged=1 pbc="F F F"
Ga       7.96121362       9.12559126      13.97157204
Ga      10.62310155       9.47972680      14.81501956
Ga       6.20563604      10.82734250      12.68660680
Ga       8.84991749      11.64880810      14.52446763
Ga      11.41409546      12.10720649      15.12671882
Ga       7.82223060       8.15478804      11.40801333
Ga       9.42720360      14.62917782      14.34237779
Ga       7.45145988      13.26199028      12.79343966
Ga       6.25117630      13.07099520      10.14342131
Ga      12.68960930       8.08718287      13.61909086
Ga      10.06873190       7.48995331      12.97908643
Ga       6.51315481      10.22048304      10.06697421
Ga       9.80128532      10.15482814      12.14272823
Ga      12.28114946      10.72233255      12.77080071
Ga       8.68445967      15.10164523      11.12728399
Ga      10.47072954      12.89789027      12.46000641
Ga      12.25921600      14.44684068      14.00130674
Ga       9.90697912       6.61694088      10.38939113
Ga      11.26215981      15.72503350      11.75418385
Ga       8.68486557      11.93742802      10.70204861
Ga      13.27894653       9.94574798      15.59371889
Ga      14.36049782       7.65526061      11.50019958
Ga      14.05428797      12.25790416      14.28924927
Ga      12.61953895       6.11870165       9.94465123
Ga      11.77274254       8.64590924      10.99240939
Ga       8.42302614       8.46930714       8.80373442
Ga      13.20452772      13.11278563      11.77429245
Ga      10.38670788      10.36524365       9.37528701
Ga      12.99830298      14.90271603       9.68691554
Ga      12.90127955      10.97651460      10.02458741
Ga       8.02699023      11.18680323       8.05604936
Ga       8.63370777      13.83234966       8.65766265
Ga      14.90593758       9.75859520      13.22800461
Ga      11.04164335      13.01201691       9.89810625
Ga      11.14662553       7.90689691       8.31128794
Ga      15.87483810      12.20010648      12.25805880
Ga      13.76725656       8.51207833       8.95815842
Ga      11.01810387      14.92890477       7.70742744
Ga      12.32300552      10.21878258       7.33056988
Ga       9.74006742       9.57841543       6.60458990
Ga      15.00346710      12.79968046       9.73602006
Ga      10.42910257      12.23875221       7.19102760
Ga      15.48287761      10.05364687      10.54966894
Ga      14.95704054      10.77302538       7.89127333
Ga      13.02392804      12.84649480       7.81533639
45
Properties=species:S:1:pos:R:3 config_type=qcd gap_pre_relax_energy=-118.53121361745781 gap_pred_energy=-121.16467019178748 gap_fmax_final=0.000877800909922112 gap_converged=1 pbc="F F F"
Ga      11.03761431      14.00581189      13.74697828
Ga       9.46633223      11.22332191       9.07727322
Ga      14.68228972      15.96556398      10.11272707
Ga       9.13160423      10.76900180      12.35703027
Ga      13.49100925      15.59363385      15.47913123
Ga      14.93616602      11.32213636       7.82606050
Ga      12.32149193      16.41455196       8.69838001
Ga      13.56642187      14.27876287       7.58508799
Ga      12.52946470      17.18257292      11.33284298
Ga      11.73773730       8.86820791      16.13196749
Ga       8.49399210      12.70698567      14.12163474
Ga      11.05468350      11.53376645      14.50585150
Ga      14.92404310      12.36057431      12.69835376
Ga       8.63580816      15.51287818      14.13582488
Ga      16.63858770      11.40691318      10.73800666
Ga      12.32766808       9.56015236       8.77579156
Ga      12.31032523      14.38610750      10.71250417
Ga      15.89566379      14.37401533      14.52672875
Ga      10.37949767      14.31903728       8.78726179
Ga      16.39453048      11.09710702      14.82241247
Ga      14.80552834       9.49034040       9.94721171
Ga      15.58516347       9.46749376      12.63003567
Ga       9.03075130      13.42336153      11.48261290
Ga      13.49833353      11.05973492      16.45914583
Ga      13.95341483      15.22282995      12.79181074
Ga      12.03222404      12.16747445       8.15730584
Ga       9.10822638      13.38217455      16.66263734
Ga      13.34073694      12.94644593      14.48051443
Ga      16.41147808      14.65281773      11.53671367
Ga      15.85459399      13.64190982       9.06632391
Ga      11.31890427      11.96595478      10.99199774
Ga      14.66010525      13.49361744      16.81795439
Ga      11.72551678      16.81918408      13.86784806
Ga      14.94424717       8.85506349      15.42061913
Ga      10.10949137      15.86124065      11.78025018
Ga      10.78294766      15.49679088      16.10882416
Ga      13.33688951      10.34080655      13.83557364
Ga      10.86001288      11.32803843      17.25798923
Ga      10.56882507       9.19608036      10.73598914
Ga      13.85399414      12.13939950      10.30326048
Ga      17.64069015      12.81841808      13.04016964
Ga      13.01287699       8.54821574      11.80850713
Ga      10.91745613       9.02835559      13.48323183
Ga       8.79896035      10.27242314      15.55166602
Ga      12.12447946      13.73150497      17.84073736
46
Properties=species:S:1:pos:R:3 config_type=qcd gap_pre_relax_energy=-121.64280876732684 gap_pred_energy=-123.64502009882514 gap_fmax_final=0.0008330885941718962 gap_converged=1 pbc="F F F"
Ga      14.09199416      12.92614600      14.43796125
Ga      15.66986203      12.84216213      12.25069374
Ga      15.17732821      10.56041259      13.80632112
Ga      12.85394163      10.07794879      15.39761162
Ga      14.04138579      15.10673574      12.02390641
Ga      13.87426287       8.08133090      13.62694156
Ga      15.13555511       9.16344304      11.46384960
Ga      11.69127924      12.63019710      15.76873369
Ga      12.19218912      14.90048509      14.13256388
Ga      15.54609769      14.23147778       9.87215663
Ga      11.27859008       7.57386939      14.05052463
Ga      11.20558625      12.62579270      12.94065784
Ga      10.07676577       9.55856541      15.54607632
Ga       9.97210938      10.27920362      12.77057519
Ga      12.61112913      10.40728004      12.61091944
Ga      13.56731494       7.86883343       9.67210936
Ga       9.15666062      12.05340744      14.95043923
Ga      15.41160797      11.37803909       9.92596035
Ga      12.37500035       6.57374230      11.79718046
Ga      12.77401175      14.99482466       9.54546384
Ga      11.33481567      15.74530160      11.65500722
Ga       9.45351499      14.62344700      14.09853540
Ga      13.07138997      12.58514348      11.08779861
Ga       8.59629789       8.06004331      13.63705291
Ga       7.26781678      10.46590302      13.79699265
Ga       9.60435272       6.66557188      11.41284821
Ga      13.83806770      12.81605618       8.23773993
Ga      13.80383266      10.11294979       8.01329056
Ga      11.30643837       6.16459706       9.28854876
Ga      10.45604070      13.28216986      10.32924585
Ga      11.17693035       8.98064950      10.82693825
Ga       9.70078720      15.58339133       8.87462555
Ga       9.16242886      10.82145634      10.15104212
Ga      11.59252980       8.54411789       7.92881998
Ga       8.62953630      15.13241379      11.40698502
Ga       8.55183730      12.56607563      12.26609712
Ga      11.37882394      13.75116263       7.61218420
Ga      11.50952369      11.24449557       9.04380454
Ga       7.56277745       8.56997757      11.13525542
Ga       9.12249939       8.04814977       9.04278867
Ga      11.72775636      11.33371701       6.22500331
Ga       8.89999407      12.73135815       7.45547207
Ga       7.28483133      13.42565941       9.59519525
Ga       9.46393040      10.10824724       7.34859026
Ga       6.93146865      10.31570176       8.49297374
Ga       6.54171630      11.16095686      11.11912909
46
Properties=species:S:1:pos:R:3 config_type=qcd gap_pre_relax_energy=-121.93684689762622 gap_pred_energy=-123.94793572986981 gap_fmax_final=0.0007408716194408756 gap_converged=1 pbc="F F F"
Ga      13.64730602      11.68476983      12.98637145
Ga      16.08551929      13.36047787      13.32396773
Ga      15.45139641       8.98621988      10.69470993
Ga      14.09941001       8.20810650      13.00460424
Ga      16.08540179      10.00916734      13.32384880
Ga      12.99019401      10.28421281      10.77052043
Ga      16.02169538      11.68514833      11.07038096
Ga      13.26280000       7.66383151       9.73778694
Ga      14.67360715      10.31327905       8.41789706
Ga      15.45061370      14.38399838      10.69427566
Ga      14.09966818      15.16118578      13.00476207
Ga      12.99009434      13.08491665      10.77063654
Ga      14.67354021      13.05600488       8.41789756
Ga      11.68472748      15.98827810      11.95868884
Ga      11.68471668      14.22550365       7.94564994
Ga      10.28266120      11.68427713       6.54754129
Ga      10.10648954       7.66385759       9.73777995
Ga      11.68469128      11.68439119       8.87818563
Ga      11.68466501       9.14295318       7.94694179
Ga      13.08673150      11.68424791       6.54754019
Ga      11.68463205       7.38120200      11.95719728
Ga      13.26051892      15.70463989       9.73803542
Ga      11.68462854       7.43521323      14.69885381
Ga      10.37915444      10.28424187      10.77052006
Ga      11.68466396       9.85789450      13.17248070
Ga       9.26986841       8.20815248      13.00459663
Ga       8.69574923      10.31333796       8.41788066
Ga       7.28390015      10.00925967      13.32382852
Ga       7.91790824       8.98629909      10.69469167
Ga       8.69586527      13.05605856       8.41787702
Ga      11.68467354      11.68466330      15.84099697
Ga       9.26975786      15.16122810      13.00474447
Ga      10.00536455      13.83630486      15.41601505
Ga      15.12121791      11.68472521      15.27674831
Ga      13.36402366      13.83627005      15.41602723
Ga       8.24812008      11.68479524      15.27673823
Ga      13.36394276       9.53301575      15.41575241
Ga       9.72205899      11.68480680      12.98634841
Ga      10.10893362      15.70466417       9.73802338
Ga      10.37929800      13.08492860      10.77063074
Ga      10.00536236       9.53305629      15.41573413
Ga       7.91880711      14.38407054      10.69425835
Ga       7.34767147      11.68523681      11.07035918
Ga       7.28386616      13.36057474      13.32393406
Ga      11.68471597      15.93432312      14.70009080
Ga      11.68469536      13.51153741      13.17297729
46
Properties=species:S:1:pos:R:3 config_type=qcd gap_pre_relax_energy=-121.55480904569797 gap_pred_energy=-124.03721083534555 gap_fmax_final=0.0009925867052498554 gap_converged=1 pbc="F F F"
Ga      11.60610452      12.91836386       7.24551589
Ga      11.88584137      10.83938688       9.09492672
Ga      14.11908882      12.58523266       8.18762314
Ga      12.73838529      14.96709347       8.66313365
Ga       9.37487655      11.61348217       8.21472204
Ga      10.60014253      13.59137322       9.75502698
Ga      14.55388785      10.05103600       9.00030608
Ga      16.18982455      12.05152951       9.96477008
Ga       9.62086714       9.62091239      10.08455282
Ga      10.98813062      16.20615757      10.54053682
Ga      15.23080779      14.54445271       9.82892907
Ga      12.66520422       8.51500551      10.31880719
Ga      12.80693357      14.31888022      11.43539426
Ga       8.87873375      14.76462165      11.56226453
Ga      10.71145471      12.69199332      12.33227917
Ga      13.68438791      16.81239813      10.50339732
Ga      13.55147407      11.85686344      11.01044255
Ga      15.46561566       8.35228375      10.95839508
Ga      10.29463802      16.49695564      13.22174956
Ga      16.94381715      10.41683831      12.09582875
Ga       8.38515103      12.15791009      10.68846733
Ga      16.97140287      13.23304031      12.39041715
Ga      10.29428289       7.84094407      12.05985150
Ga      15.32694965      15.57097308      12.33711059
Ga      13.59176903       7.19233548      12.59242976
Ga       8.89826392      10.37325500      12.71489650
Ga      14.36979482      13.08589393      13.32036445
Ga      12.75609424      17.69267560      12.90222986
Ga      11.95584881      14.24242253      14.00363711
Ga      11.57409163      10.27494980      12.02618403
Ga       8.03646404      12.87205458      13.33942841
Ga      16.25772854      14.43801143      14.81717163
Ga      15.95274199      11.13949975      14.63865980
Ga       8.85392442      11.82310389      15.70523236
Ga      11.56598672       7.24402791      14.41731596
Ga      12.53534171      11.53211552      14.24544325
Ga      14.22055523       9.98210840      12.83237676
Ga      10.39414319       9.70850400      14.79061350
Ga      14.01764797      16.10605389      14.71758711
Ga      11.48809073      16.47610863      15.76642011
Ga       8.64296941      15.05771656      14.83316990
Ga      13.45812072      13.96963816      16.41232266
Ga      11.35957633      11.33410959      16.77932681
Ga      13.40715695       9.01478323      15.39816288
Ga      14.05577498      11.31096565      16.65247440
Ga      10.56482098      13.95684745      16.44501337
47
Properties=species:S:1:pos:R:3 config_type=qcd gap_pre_relax_energy=-123.98202024946679 gap_pred_energy=-127.14143970888207 gap_fmax_final=0.0009920561320617219 gap_converged=1 pbc="F F F"
Ga      13.53266931      12.64223150       7.98071967
Ga      15.51893789      11.80461639       9.65780506
Ga      12.31948907      14.81646187       9.25581768
Ga      13.66444097      16.82367473      10.52742745
Ga      11.19491621      12.24106213       9.50662817
Ga       9.84233873      14.36690452      10.54761481
Ga      15.36278184      14.63528661       9.90529011
Ga      13.19348156      10.25543777      10.26024837
Ga      17.87076181      12.43176853      10.83018643
Ga      10.58461699      17.08512292      10.90559439
Ga      10.40704537      10.08387646      10.80501499
Ga      13.43874928      12.90052471      11.00974191
Ga      15.62706921      12.62362016      12.52584070
Ga      15.68309285       9.81627292      11.59444179
Ga       8.66749743      12.07664309      11.74671558
Ga      13.02262132      18.26146871      12.74322574
Ga      12.13142619      15.13952801      12.07209222
Ga      11.20642702      12.61060183      12.44441204
Ga       9.05148473      15.07693489      13.06311140
Ga      16.04274231      17.32840514      11.87787619
Ga      17.17759468      14.86460997      11.99896677
Ga      12.93478494       8.12795683      11.89070969
Ga      13.48672391      10.99959879      13.07792623
Ga      14.53698100      15.19881067      13.13505731
Ga      10.83854149      16.99283273      13.82228453
Ga      15.00623241      17.58771318      14.51633529
Ga      17.69315831      10.83631407      13.12034479
Ga      10.40582275       8.25381576      12.85706658
Ga      17.08237697      15.80018462      14.64687129
Ga      14.59779342       8.72670120      13.96139248
Ga      11.91915476      14.42376131      14.57144467
Ga       9.24292226      10.46515686      13.96425474
Ga      14.20729361      13.05648420      14.73330019
Ga      11.99560037       8.84064615      15.05367287
Ga      18.10852553      13.28537217      14.10045446
Ga      11.68275769      11.76165392      14.84330408
Ga       9.10070844      13.02593962      14.97187896
Ga      15.04080352      15.72279240      16.54507265
Ga       9.91001774      15.52434171      16.09904372
Ga      12.54820236      17.52508015      15.89279247
Ga      15.97205478      10.83953579      15.33822348
Ga      13.49561057      10.50859575      16.54640716
Ga      16.52960837      13.47362741      16.25341082
Ga      10.17703535      10.32153275      16.63820997
Ga      11.26597333      12.75459601      17.43784274
Ga      14.22686791      12.91741145      17.50590897
Ga      12.48376679      15.17399492      17.24752172
47
Properties=species:S:1:pos:R:3 config_type=qcd gap_pre_relax_energy=-123.95474199198733 gap_pred_energy=-126.8221536798541 gap_fmax_final=0.0009434456743772757 gap_converged=1 pbc="F F F"
Ga      11.66270517      13.32951248      16.46593815
Ga       9.20353068      12.85316407      15.07515910
Ga      12.61757980      10.58794884      15.97422248
Ga       8.22756351      13.60930642      12.68400898
Ga      10.56450997      14.90410726      13.71301114
Ga       7.24434080      10.87663141      14.23548257
Ga       9.36309149      15.60418079      11.22677914
Ga      13.26771625      14.47702688      14.34785379
Ga       9.92819595      10.47181408      16.16493016
Ga      14.60129329      12.28892080      15.33905074
Ga      10.14147252      14.76606005       8.74722425
Ga      10.91985683      17.40737202      12.59548106
Ga      11.67912169      12.24599207      13.91615152
Ga       9.68181312      11.09954211      12.86272464
Ga       8.27363726      13.35029403       9.96697407
Ga      10.80919516      13.22795325      11.38244052
Ga      14.30129357       9.30028084      14.21556967
Ga       7.26100895      11.31424773      11.45911328
Ga       9.11643531       8.71506133      14.21703804
Ga      11.38862057      16.97608569       9.87564095
Ga      15.72671236      14.19472651      12.91465864
Ga      11.75295714       8.30937206      14.70925108
Ga      12.91441615      15.65791233      11.88459619
Ga      13.47573216      10.03638149      11.59025696
Ga       7.85494168       8.64181861      11.77074729
Ga      13.43710663      12.78601073      12.03878672
Ga       9.86752450      10.92153076      10.20336293
Ga      15.67592306      11.35724414      13.04971754
Ga      10.13273635       6.41860248      12.96078320
Ga      14.91214212      14.58446367      10.33054313
Ga      13.08351322      15.37054463       8.60181963
Ga      13.14899599       7.45904159      12.58698813
Ga       7.45658372      10.30754622       8.86316978
Ga      10.82030583       8.92282350      11.94084380
Ga      16.04979177       8.92835655      11.73510374
Ga       9.21357980      12.17336289       7.72526958
Ga      12.47111237      11.74170133       9.86474457
Ga      11.81344065      13.22089277       7.46852535
Ga       9.40697202       8.29832842       9.48898892
Ga      10.28945371       9.73452785       7.22742612
Ga      15.82321708      11.96929199      10.42387024
Ga      11.54404654       6.70732299      10.43212606
Ga      14.18764489       7.74768875      10.02040176
Ga      14.45709791      12.84421164       8.15619379
Ga      11.99045423       9.20739600       9.34123118
Ga      15.06365207      10.02509264       8.69314792
Ga      12.87531576      10.72665694       7.21100310
48
Properties=species:S:1:pos:R:3 config_type=qcd gap_pre_relax_energy=-127.28791092804617 gap_pred_energy=-129.78744674275995 gap_fmax_final=0.0009535128372493866 gap_converged=1 pbc="F F F"
Ga      15.14577412       8.76763438      10.73453450
Ga      16.49026987      11.15971919      10.60636685
Ga      15.95625539      12.55507414      12.88678465
Ga      12.96549304       7.64355250       9.52723900
Ga      13.46932271       7.39358382      12.34873023
Ga      14.97910773       9.92327537      13.27285217
Ga      15.72266333      14.27766127      10.69082149
Ga      12.84666345       8.94291425      14.68616848
Ga      14.99704033       9.79200596       8.16144985
Ga      12.64460117       9.94983401      11.41605807
Ga      13.67201756      12.39658521      11.31862985
Ga      11.30651221       6.89896474      13.87348693
Ga      10.89073545       7.79411021      11.28890808
Ga      14.06433996      14.52713615      13.63072366
Ga      13.15523539      12.07088208       6.63781542
Ga      12.17028587      11.41266663       9.18997010
Ga      12.48295394       9.32274431       7.33862399
Ga      14.78780631      12.50838511       8.77567049
Ga      10.47482251       9.67497668      13.12038955
Ga      13.66125916      15.82203432      11.23342942
Ga       9.20815664       6.58480626      15.56398281
Ga      12.18889434      11.76103400      13.40578874
Ga      11.93396844      11.18534693      16.08855012
Ga      14.41729992      11.86088116      15.16532438
Ga       9.82312804       9.23552365      15.72883244
Ga      11.38703437      16.46841229      13.38912402
Ga      10.04189407      10.36000122      10.51940562
Ga      12.77989137      14.53278391       8.89603697
Ga       8.69081773       7.49312796      13.07081393
Ga      11.98005620      13.93477799      15.40865222
Ga      10.37045615       8.07317141       8.62634478
Ga      10.76983928      13.15348270       7.39595389
Ga      11.60787544      13.99780207      12.15001497
Ga      10.12622217      13.07398578      10.08813816
Ga       9.35472188      11.92257559      15.34568676
Ga      10.22363985      10.55461683       6.53651493
Ga       9.64262186      12.18273870      12.49800142
Ga       8.18182534       8.16732086      10.53296946
Ga      11.06990567      16.14357069      10.50714787
Ga       7.73179954      10.05733868      13.20952232
Ga       8.27995850       9.86074146       8.40210094
Ga       9.46799446      15.33114463       8.50232945
Ga       9.55757676      14.43626700      14.15030440
Ga       8.01732019      12.49466727       7.74376760
Ga       8.74442433      15.52844559      11.79040260
Ga       7.18035221      13.05023714      13.29526757
Ga       7.37425836      11.29340848      10.74916575
Ga       7.46910550      13.93224751      10.00540118
48
Properties=species:S:1:pos:R:3 config_type=qcd gap_pre_relax_energy=-126.27013490816607 gap_pred_energy=-129.52239356232357 gap_fmax_final=0.0008095171152663436 gap_converged=1 pbc="F F F"
Ga      16.09004627      10.91141105       7.87562599
Ga      16.41235284      11.99091116      10.42097801
Ga      14.77440931      13.29615517       8.53793043
Ga      15.57498512      14.15871820      11.78036386
Ga      15.23278115       9.44386322      10.09215188
Ga      13.33985253      10.69271340       7.68100654
Ga      14.61594122       7.41493523      11.79616662
Ga      15.68684121      10.60653777      12.66086419
Ga      13.04109231       7.72097976       9.36153615
Ga      13.63896186      11.71552006      10.50386150
Ga      13.71352286      16.28718305      12.57988710
Ga      16.06093905      12.86281449      14.23860655
Ga      13.73661942      15.36636434       9.94221289
Ga      12.09576447      13.15197068       8.67423385
Ga      14.06488686       8.89686898      14.15105754
Ga      11.98813914       6.84259754      12.40277289
Ga      10.38395140       8.38092001      10.70763548
Ga      11.55598811       7.75824146      14.92173664
Ga      10.86080753       8.52666729       7.89346650
Ga      12.77072656       9.43386796      11.53289885
Ga      12.78708632      13.72414588      11.90211634
Ga      13.84361026      14.40652906      14.58219144
Ga      11.43288284      15.83155107       8.50643734
Ga      11.39090392      10.61386800       9.56550722
Ga       9.34358493       7.51797790      13.17942120
Ga       9.71907923      13.83426490       7.47373111
Ga      10.10393684      11.09677005       7.08612811
Ga      11.68423793      10.28384676      15.98398207
Ga      14.15494329      11.34237926      15.55411493
Ga      12.84038472      11.39903727      13.17698133
Ga      11.25515037      16.09261198      11.23472358
Ga       8.65986847      10.03727439       9.28709365
Ga      11.36372082      15.21618964      13.80779369
Ga      10.73382881       9.86091098      13.26260824
Ga       9.00250722      15.32951348       9.72584167
Ga       7.70352727       8.38611737      11.21398626
Ga       9.64405228      12.56173795      10.02191605
Ga       7.37780605      12.59661695       8.35031203
Ga       9.37028457      11.40992988      15.17815750
Ga       9.11837130       8.73723427      15.78803670
Ga      11.76982609      12.95301413      15.48074446
Ga       9.04207485      14.93576087      12.42224762
Ga       7.18909028      13.66679787      10.90795591
Ga      10.50379839      12.63619623      12.88693229
Ga       6.98421456      10.99541196      11.17040801
Ga       7.81306946       9.85555145      13.55042788
Ga       9.23220030      14.10949987      15.06655420
Ga       7.73291249      12.54558276      13.31421868
49
Properties=species:S:1:pos:R:3 config_type=qcd gap_pre_relax_energy=-129.42687886737326 gap_pred_energy=-132.21813603317557 gap_fmax_final=0.0009629644168811536 gap_converged=1 pbc="F F F"
Ga      12.33797675      12.55657386       8.95099192
Ga      14.09998576      14.55936572       8.19813911
Ga      15.72840034      16.19929349      10.66262659
Ga      14.89550402      11.47102855       9.27596232
Ga      11.11589944      14.92454543       9.89141365
Ga      16.31859416      13.69972473       9.81305201
Ga      13.24566355      16.69151085       9.75977878
Ga      15.10807562       9.49482189      11.28574917
Ga      12.31905774       9.78605508       9.71950318
Ga      10.13628111      11.64327271      10.20706948
Ga      11.44383170      17.11349791      11.79261251
Ga      10.36722221      12.88693709      12.80637564
Ga      13.71267085      14.10808126      10.89543743
Ga      12.66992539       8.96347828      12.45804175
Ga      17.39745760      14.57368092      12.21688459
Ga      16.84761565      17.30447479      12.96909444
Ga      15.32528230      12.58782414      12.31761043
Ga       8.74518145      13.91295005      10.80842302
Ga      17.67270705      11.62771071      11.15339272
Ga      12.11733216      14.69455574      12.92673249
Ga      14.12923098      17.87034694      12.35240580
Ga      10.06647204       9.68957139      12.14345031
Ga       7.99763894      11.53577158      12.14449055
Ga      12.64262722      11.76393204      11.66467931
Ga      14.79089209      15.21099773      13.12184834
Ga      12.23355849      12.68817280      14.74675613
Ga       9.47764899      15.59663429      12.89820658
Ga      16.68333074      10.20244717      13.38402595
Ga       9.40741553      11.00546237      14.57160716
Ga       7.75472745      13.65146500      13.87166636
Ga      14.02113530      11.01191827      13.87030191
Ga      11.62744288       9.47726804      14.99782781
Ga      11.57027495      17.45445253      14.49869625
Ga      17.59531286      12.67553779      14.10338966
Ga      14.69621190       8.41873846      14.39503303
Ga      14.84506221      17.28889420      15.02617870
Ga      16.95403826      15.31213484      14.87391581
Ga      13.09389263      15.17583378      15.26837648
Ga      15.01252071      13.29369813      15.15683228
Ga      10.68820952      11.92542207      16.79837855
Ga      10.28559609      15.09899497      15.58895545
Ga      16.10255652      10.97935704      15.93777030
Ga      13.48853915      10.63101381      16.53117752
Ga      12.45309026      17.05687165      17.19589396
Ga      17.45006717      13.40229319      16.80398492
Ga      15.14783417      15.32359036      17.07039508
Ga      12.03401000      14.31119963      17.64490369
Ga      15.01922509      12.74537626      17.91796366
Ga      12.61894526      11.89539271      18.80416948
49
Properties=species:S:1:pos:R:3 config_type=qcd gap_pre_relax_energy=-129.31184798845544 gap_pred_energy=-132.56234157460364 gap_fmax_final=0.000931209114269882 gap_converged=1 pbc="F F F"
Ga       9.44339341      12.59661323       7.96055179
Ga       9.46738972      15.65461100       9.37868543
Ga       7.86782263      13.56622888      10.20364068
Ga       6.59394436      11.40710544       9.24098674
Ga      11.52723590      14.32880878       8.07924306
Ga       8.17936410      10.18580225       7.46689042
Ga      10.92237619      10.00897490       7.51145390
Ga       7.27945791       8.09090535       9.23337230
Ga      10.53587452      13.37968345      10.63827457
Ga       8.76394436      14.80863056      12.56502449
Ga       6.84040560       9.78609144      11.39643616
Ga       9.04525961      11.50532441      11.89494768
Ga      12.86542036      16.28523454       9.52040041
Ga       9.44826528       9.69191647       9.86861293
Ga       9.38585853       7.60537750       7.39524024
Ga      12.49800097      12.08018119       6.58909744
Ga      12.09337952      11.84032962       9.27127550
Ga      14.32653601      14.14977247       8.50445426
Ga       8.07870110      12.73480462      14.49942161
Ga       9.43359405       6.94472856      10.69985647
Ga      14.55293069      15.42955517      11.51236186
Ga      10.94642976      12.98166629      13.25439841
Ga       6.40844415      12.42697907      12.29686188
Ga      11.20095544      15.95145602      11.70324240
Ga      12.92628061      13.09387422      11.57585294
Ga      12.93102712      15.01942075      13.63600983
Ga      11.50242689       7.68968895       9.11711959
Ga       7.74659962       9.96107528      14.07407510
Ga      11.12953202       9.58631198      11.78171574
Ga      13.49369474       9.19672607       7.91938768
Ga      10.43646297      15.15034960      14.89113773
Ga      10.41411611      10.45680283      14.21439037
Ga      15.55577120      12.84406957      10.72349964
Ga       7.71834357       7.54689000      12.74420614
Ga      10.39303305      12.55088404      15.98827969
Ga      14.80390417      11.50123817       8.36698280
Ga      13.05732319      10.92781173      13.32461005
Ga      14.08386861       7.74943641      10.15797607
Ga      13.65354394      10.48016454      10.82166017
Ga      12.00022677       7.01183637      11.83583423
Ga      10.19949444       7.70119015      13.87098830
Ga      15.02441820      13.06260106      13.50712310
Ga      13.06476626      12.95492547      15.42083572
Ga      12.83287137       8.31331534      14.20711455
Ga      12.37044458      10.36192847      16.08333390
Ga      16.17674964       9.61189048       9.90218664
Ga      15.89181126      10.68744884      12.48734682
Ga      15.03777403      10.19500550      15.17249133
Ga      15.04255618       8.09635768      12.68313592
50
Properties=species:S:1:pos:R:3 config_type=qcd gap_pre_relax_energy=-132.0555214552169 gap_pred_energy=-135.52619001903292 gap_fmax_final=0.000911012639513086 gap_converged=1 pbc="F F F"
Ga      12.56664864      13.32724571       7.27986982
Ga      13.24158916      10.84654421       6.38972428
Ga      14.01929804      14.38862486       9.40509421
Ga      14.78582614      11.94734055       8.35736315
Ga      16.01270551      12.91259389      10.63313633
Ga      10.63528548      11.45437340       6.71581137
Ga      11.53174880       8.87109744       7.22231466
Ga      10.39426971      10.30208659       9.54043252
Ga      13.95768644       9.25271197       8.41331320
Ga      11.83662456      15.67240258       8.40517411
Ga      14.78826679       7.61679877      10.47783339
Ga      14.34414429      14.37419154      12.14445313
Ga      15.21433368      10.35691740      10.55666175
Ga      14.95338945      11.75311796      12.91805372
Ga       8.86437679       9.42848904       7.46089867
Ga       7.96807307      12.02521664       6.94963564
Ga       9.88717754      13.91837928       7.59929341
Ga      12.55930378       9.43656057      10.82662220
Ga      12.43106105      11.91336178       9.70339771
Ga       9.88195560       6.90270146       8.11387898
Ga      12.39255213       7.08925169       9.23264465
Ga       9.65030096      15.40155827       9.96471940
Ga       9.89691114      12.66888144      10.48385688
Ga      12.64818498       6.91237022      12.02562784
Ga      12.12483405      15.64447105      11.07996947
Ga      12.03911524      12.84191031      12.21176148
Ga       8.40600781       8.32049299       9.98254166
Ga      14.44073835       9.03590101      12.80532036
Ga       7.66139253      13.61909855       9.18905256
Ga      10.16102951       6.40553438      10.76875021
Ga      12.12168262      10.59769796      13.43477367
Ga       9.88111539      14.41962007      12.58050913
Ga       7.78830067      10.95698717       9.46203343
Ga      12.26535657      15.14237243      13.78033869
Ga      10.20036320       9.22476756      12.14763822
Ga       7.40560969      15.02312143      11.56011245
Ga      13.68043514      12.99343063      14.93863869
Ga       7.51047018      12.31540400      11.78287521
Ga      14.16712974      10.23589474      15.24850984
Ga       9.73582519      11.69540654      13.20871687
Ga      12.53375856       8.00641049      14.52138619
Ga       6.42844290       9.78448841      11.33291012
Ga       7.87399654       7.84351131      12.68558028
Ga      10.29851286       6.70983794      13.43816391
Ga      10.96469946      13.20989809      15.32426641
Ga       7.81524223      13.55344909      14.36622103
Ga      11.64087212      10.65989549      16.29978526
Ga       7.28316150      10.38360179      13.81926735
Ga       9.90351361       8.88668145      15.07790379
Ga       8.88884554      11.39946282      15.81532766
50
Properties=species:S:1:pos:R:3 config_type=qcd gap_pre_relax_energy=-131.83301299868967 gap_pred_energy=-134.71522556347398 gap_fmax_final=0.0009085952042996347 gap_converged=1 pbc="F F F"
Ga      12.48296243      13.79078159       9.46390519
Ga      14.17912110      16.61533705       9.61798348
Ga      16.92421751      10.71729069       9.89711415
Ga      17.85735170      13.27172145      10.27169497
Ga      14.82807253      12.24544465       9.12956941
Ga      10.13523353      13.38796355      10.88725718
Ga      11.41960686      16.28211715       9.62854635
Ga      15.72073610      17.38875838      11.84297026
Ga      18.19154298      10.58211305      12.32623875
Ga      12.86130861      11.40574709      10.74027759
Ga      10.39397574      15.89497571      12.14715276
Ga      16.76644008      15.71497480      10.03780328
Ga      14.62069709      14.29770969      11.10668696
Ga      18.82114101      15.85836156      11.89464215
Ga      14.93424311       9.71253586      11.51750267
Ga      18.62898717      13.25279459      12.98170831
Ga      12.41693981      17.92939570      11.53500223
Ga      15.97963970      12.25081789      12.05984199
Ga       9.53545945      13.64813776      13.65890700
Ga      11.00543069      11.51699876      12.79037520
Ga      12.39458777      13.93247266      12.45264810
Ga      12.60103402       9.27070792      13.18556737
Ga      16.46642772      14.87297557      12.91670869
Ga      11.33389482      17.79687952      14.06938943
Ga      14.08129153      15.70492190      13.49241093
Ga      13.74401646      11.77395512      13.46555600
Ga      15.77746545       9.77543420      14.21298645
Ga      13.94229831      18.44211108      13.69625249
Ga       9.14642853      16.29077000      14.64580962
Ga      16.75604797      12.31654416      14.70986946
Ga      16.28749982      17.65329966      14.86843240
Ga      11.73516767      15.15965887      14.56859759
Ga      13.49754732       9.81781712      15.75411187
Ga      18.44762455      15.11279737      15.11079521
Ga      15.67020137      14.83087815      15.44696141
Ga      14.25655914      12.44976833      15.91769788
Ga      11.21815202      11.36072378      15.52314594
Ga      13.73971949      16.80852919      15.97618413
Ga      16.18005851      10.96089653      17.21869559
Ga       9.59317348      14.10423454      16.24421962
Ga      11.10434709      16.53165974      16.72385463
Ga      17.43880265      13.47525202      17.13634271
Ga      12.28704350      13.96850982      16.85561830
Ga      16.39416543      16.56827978      17.44926528
Ga      13.04522834      11.09263571      18.14621064
Ga      14.94016439      13.83125270      18.13443870
Ga      10.54673028      12.34213216      18.07644885
Ga      13.29381602      16.00966777      18.46245972
Ga      10.46449505      15.20546766      19.09125564
Ga      12.62627118      13.48915714      19.62625256
51
Properties=species:S:1:pos:R:3 config_type=qcd gap_pre_relax_energy=-134.85393682836192 gap_pred_energy=-137.34283716235214 gap_fmax_final=0.0008278667882876355 gap_converged=1 pbc="F F F"
Ga      14.30858866      11.53856719      16.34106005
Ga       9.75717777       7.59991716      15.83824015
Ga      12.10023966       9.90206365      15.68905658
Ga       8.86021760      10.14756263      15.18752693
Ga      13.46077429      14.18325630      15.85655219
Ga       8.34300775       7.37798334      13.36712300
Ga      15.97712310      10.89870024      14.13618232
Ga      11.17103901      12.47872248      16.05322014
Ga      14.51677940       8.69342875      14.60660672
Ga      15.67371877      13.64056352      14.13958944
Ga      12.30133870      16.47702449      14.59858707
Ga       8.57766254      12.85229264      14.99576623
Ga      10.20398770      14.98560428      15.47727546
Ga      10.70675423       8.89460478      13.47998231
Ga      12.31601441       7.18079079      14.91148677
Ga       8.46721797       9.63555449      11.96153426
Ga      13.30393833      11.58624691      13.77091976
Ga      16.54381577      11.73992907      11.52525894
Ga      12.48568953      14.06347266      13.23939539
Ga      15.18575032       9.33881018      11.86568824
Ga      10.69866272       5.85698044      13.12960715
Ga      10.57524939      11.56861572      13.47232593
Ga      14.63116287      16.05571453      13.31477221
Ga      13.04547987       7.83914067      12.31563479
Ga       9.80332847      14.07263330      12.76743193
Ga      10.55680710       7.77075918      11.09799467
Ga      14.81014892      10.69460013       9.57030238
Ga      16.02565397      14.41445400      11.45918843
Ga      13.85597797      12.65869540      11.43354542
Ga       9.56025122      16.77821870      13.49063602
Ga       7.29335994      11.90711682      12.81928208
Ga       7.45313211      11.22855730       9.86798559
Ga      11.63825628      14.22111178      10.67837023
Ga      11.76153987      17.04445446      11.91044232
Ga      12.24323027      11.92938213       9.35848531
Ga      12.19111317      10.43239430      11.58290053
Ga       7.78276784      13.77290133      10.83552651
Ga      12.80360817       8.62356972       9.65036065
Ga      13.84337852      15.90734101      10.62279166
Ga      13.99913930      12.09835438       7.15958260
Ga      15.30648182      13.42471151       9.03876535
Ga       9.96151079      11.99080459      10.95472298
Ga       9.43120000      15.94827832      10.76310488
Ga      11.28128917      12.65287914       6.80691866
Ga       9.61855193      13.80406076       8.68162183
Ga      12.86539269      14.44319152       8.23236812
Ga       9.71417928       9.68509151       9.45844816
Ga      11.50118701      16.62000491       9.05239206
Ga      12.62557063      10.71799437       5.24321055
Ga      11.38998279       9.92311026       7.57011630
Ga      14.10617034       9.33438218       7.25471275
51
Properties=species:S:1:pos:R:3 config_type=qcd gap_pre_relax_energy=-134.7037902030549 gap_pred_energy=-137.35102249413043 gap_fmax_final=0.000974844033534363 gap_converged=1 pbc="F F F"
Ga       8.41171569      13.86936094      13.30983156
Ga      11.96945871      14.04070914      15.69516226
Ga      10.00464257      15.76532641      14.41670210
Ga       9.49526649      12.77946667      15.76384142
Ga       6.74414824      11.62589590      12.88431903
Ga      14.83516818      13.30225465      15.69162118
Ga      13.36243019      15.84229997      14.21245530
Ga      12.34829136      11.78279837      17.28735315
Ga      11.47804100      16.47880923      12.21977139
Ga       9.73563943      14.83135250      10.97856846
Ga      11.19535900      13.72110272      13.03078529
Ga      10.22684919      10.17939293      16.61435909
Ga       7.92425841      10.49502201      15.12760822
Ga       8.00617573      12.76910745      10.77378695
Ga      14.84615053      16.66382348      12.01395027
Ga      13.62368882      12.78820664      13.27869867
Ga      15.98619488      14.22836910      12.66725031
Ga      13.16422093      14.50234544      11.22508671
Ga      14.32426857      10.54785411      15.65765252
Ga      10.21362357       9.16317101      14.07082040
Ga      11.78618570      11.40186564      14.51207998
Ga      12.91329727      18.07572910      10.56290853
Ga       9.57222079      11.39826304      12.81829616
Ga      12.38934002       8.63916741      15.95344581
Ga      11.67257848      15.84516336       9.34987079
Ga      14.50070437      16.16203484       9.27620182
Ga       7.75387437       9.07564040      12.70342574
Ga       8.24009979      10.09430123      10.17052623
Ga      14.72603655       7.96224336      14.57670416
Ga      16.12679443      11.69260048      13.77973854
Ga      11.40836563       9.80844833      11.56807039
Ga       7.77400303      12.44021681       8.08874250
Ga      12.29541623       7.73112585      13.22085265
Ga      13.85358792      10.08758532      12.91560046
Ga      10.78336932      12.20371112      10.59987696
Ga      10.17038314      13.86753390       8.38741476
Ga      13.42974409      11.68970185      10.88811874
Ga      16.29266483      11.37309661      10.97520651
Ga      13.33300076      14.17245333       7.87319590
Ga       9.80388054       7.52595193      11.87387785
Ga      15.37322818      13.64407586       9.87161529
Ga      10.20651040       8.38254379       9.32380139
Ga       9.90809878      10.73251221       8.00048271
Ga      16.53145514       9.20674138      12.74538886
Ga      14.66268632       7.50970686      11.77321621
Ga       9.59699538      12.58969378       5.97398652
Ga      12.40130535       7.25722388      10.38649921
Ga      12.29001823      10.16054093       9.03756606
Ga      12.11037045      12.06280124       6.97937284
Ga      14.91665754       9.32433249       9.71429239
Ga      14.44408121      11.66887072       8.34254547
52
Properties=species:S:1:pos:R:3 config_type=qcd gap_pre_relax_energy=-137.33731755281784 gap_pred_energy=-140.68083464310288 gap_fmax_final=0.0008549957632207666 gap_converged=1 pbc="F F F"
Ga      14.09569678      15.63431292      15.07648700
Ga      15.54565672      14.29791615      13.31160531
Ga      12.14065369      17.83170842      14.02433269
Ga      12.20191614      16.87998420      16.58999466
Ga      13.09371751      15.91521471       9.29063824
Ga      12.39009596      18.01197147      11.18210625
Ga      16.44222614      11.64160874      13.81479305
Ga      16.52381821      12.78156067      11.28414512
Ga      13.52764224      15.96451808      12.56007616
Ga      14.15388283      14.08939282      10.82820545
Ga      14.75419594      13.03309136      15.56662865
Ga      14.41352455      11.61219322       9.94666151
Ga      16.27921173      10.11251794      11.43300649
Ga      11.71978707      13.25984680      12.88918134
Ga      16.27175852       8.82813582      13.80347565
Ga      14.01401906      12.07137178      12.73557190
Ga      12.70656694      13.18549990       8.53072512
Ga      10.74535841      14.99496706       7.41362555
Ga      11.04925738      15.28765424      14.67566813
Ga      12.49458337      14.12405676      16.69512767
Ga      10.54238225      16.21874928      12.28628038
Ga      10.48272280      16.81752995       9.53766624
Ga      14.69293699      10.31778898      15.42420841
Ga      14.99734302       8.98845078       9.31947091
Ga      11.23225616      14.30736374      10.55965176
Ga      13.25006712       9.84449580      11.57302787
Ga       8.50559168      14.96050139       9.95664797
Ga      12.68643725       8.71896829      16.46738634
Ga      12.16701218      10.69785903      14.00326653
Ga       9.83746280      12.82112191       8.68333029
Ga      12.67537183      11.56272049      16.65208732
Ga      14.84661902       7.61596320      11.67713494
Ga      13.40383635      10.45917995       7.67352704
Ga      11.63251333      10.99277875       9.79203024
Ga      10.52978587      12.71563589      15.25525975
Ga      10.54717102       9.70425657      11.90882909
Ga       9.08543317      14.00460673      13.11505790
Ga       9.65847020      12.11400350      11.21850559
Ga      11.13312909      11.67211120       6.63078031
Ga      13.56926254       8.18176317      13.97256215
Ga      10.86081069       8.25952874      14.25807926
Ga       7.25417925      12.44871753       9.77604096
Ga      12.78849338       7.46095425       9.16347435
Ga       8.83862047      10.65477084      14.01719137
Ga       7.16514067      12.10655830      12.48251926
Ga      10.38517317      10.16176766      16.16508681
Ga       8.59821210      10.39806194       8.48905796
Ga      11.98202591       7.35301736      11.80351315
Ga      10.94249965       9.08690787       7.92857691
Ga       9.69654418       7.69758191      10.06877268
Ga       7.95208100       9.83165823      11.10915617
Ga       8.78391364       7.55417168      12.66683211
52
Properties=species:S:1:pos:R:3 config_type=qcd gap_pre_relax_energy=-137.15802299628828 gap_pred_energy=-140.53736375910697 gap_fmax_final=0.0008778329170140664 gap_converged=1 pbc="F F F"
Ga       9.44671787      14.66849626       7.83612283
Ga      12.10646971      14.31413625       7.09307825
Ga      14.47642078      13.18160200       6.39788903
Ga       9.50773686      12.01815595       6.85609634
Ga       7.86599523      11.95505688       9.10019740
Ga      12.03130711      10.99735143       6.59857008
Ga      14.99124995      14.58196840       8.86577436
Ga       7.29806132      13.24190409      12.13654721
Ga       9.13884608      14.40560468      10.45019229
Ga      16.71880109      11.98919178       7.39619987
Ga      10.43201418       9.91714189       8.68627527
Ga      10.80854777      12.63711376       9.13081576
Ga      12.19572767      14.93746215       9.89022333
Ga      13.40542259      12.37489102       8.84324593
Ga      14.54398448      10.28851655       7.34671734
Ga       9.56533254      11.70861932      11.32819666
Ga       8.13004776      15.80494535      12.95172159
Ga       8.69934734       8.75966350      10.30682568
Ga       6.91641095      10.77612913      11.33782034
Ga      16.21423409      12.22438702      10.00166101
Ga      12.92197262       8.65925156       8.74877711
Ga      10.72711237      16.13139389      11.85864792
Ga      14.50372050      15.31655805      11.46163705
Ga       6.86035575       8.25573295      12.36245652
Ga      11.27201185       8.00746179      10.76012805
Ga      13.84930242      12.61414273      11.44561689
Ga       7.98813845      10.32256339      13.94863027
Ga      15.95116610       9.51108842       9.66044647
Ga      12.09696043      10.73985644      10.65425362
Ga      10.00223775      13.72116642      12.90417609
Ga       9.20838804       7.22544145      13.21733458
Ga       8.13293680      13.61242915      14.81677905
Ga      15.09849650      15.07400911      14.19427698
Ga      13.97475278       8.66183065      11.32558357
Ga      10.41555459       9.66184687      12.67821504
Ga      10.37884961      16.11151417      14.69491665
Ga      16.32374251      13.29800214      12.47865369
Ga       9.30940329      11.44898102      16.06191769
Ga      12.29822376       7.66965330      13.20748150
Ga      15.71607780      10.61109114      12.24695274
Ga      12.56227422      14.43674343      13.12433583
Ga      11.87378432      11.90637805      13.03565610
Ga      10.10457902       8.96131737      15.32382189
Ga      13.98477881       9.65789667      13.90156461
Ga      10.97072649       6.35428579      15.16428615
Ga      11.00907821      13.42047890      15.33919620
Ga      11.96239671      10.87957457      15.43960036
Ga      12.85520971      15.40139652      15.72723323
Ga      12.77006312       8.24551724      15.94343745
Ga      14.80288360      12.27270037      14.54603200
Ga      13.32774903      12.86716610      16.77329370
Ga      14.42791179      10.33370722      16.57400475
53
Properties=species:S:1:pos:R:3 config_type=qcd gap_pre_relax_energy=-140.21879676214473 gap_pred_energy=-143.46094466589744 gap_fmax_final=0.0009420894728619595 gap_converged=1 pbc="F F F"
Ga      13.00382554      13.89562676       8.54749670
Ga      15.17376022      12.10738866       8.91295137
Ga      16.26941370      10.19296545      10.53718047
Ga      11.99979595      11.59089603       9.45169079
Ga      15.16248161      14.68467890      10.12037990
Ga       9.39415372      16.78569083      10.18170194
Ga      13.60380664       9.52678716      10.34867224
Ga      17.69421017      12.62003371      11.21857279
Ga      10.61880785      14.19370385       9.92423210
Ga      12.58519394      16.43508822       9.42445911
Ga      10.83988709       9.49792877      10.95626623
Ga      17.21243942      16.04392765      11.03298718
Ga      12.94417921      14.12211069      11.41558175
Ga      14.76032399      12.27551654      11.63243073
Ga       9.76066293      12.06844784      11.38720207
Ga      14.80019213      17.48624072      11.78282655
Ga      18.25382103      14.54741995      13.11243837
Ga      17.88179262      10.24380774      12.83884677
Ga      12.41467806      11.50529866      12.14533997
Ga      15.41842108      14.69708541      12.78906122
Ga      15.54896561       8.70859439      12.78386756
Ga       9.26655244      17.75635976      12.82352531
Ga       8.97106855      14.59043748      12.07602231
Ga      12.18406641      18.39612634      11.25793382
Ga      11.28704575      15.97363469      11.99336868
Ga      12.32113535      17.68951210      13.87094910
Ga      12.45460719      14.87550514      14.01142464
Ga      12.73477816       8.83895386      12.96300778
Ga      10.15475543      17.98727968      15.50986611
Ga      10.35986636      10.33006684      13.51944923
Ga       9.22041513      12.78314406      13.99658527
Ga       9.84186008      15.48419684      14.44551584
Ga      16.34113712      12.42737092      13.77502405
Ga      14.52425197      16.42242049      14.65420021
Ga      14.19837238      10.91364203      14.13537216
Ga      12.02031220      12.31301540      14.70385243
Ga      12.38097175      16.43105138      16.37987465
Ga      18.95514775      12.23778715      14.46728514
Ga      17.23646191      14.96669482      15.63320829
Ga      16.56535092       9.98145244      15.24018116
Ga      14.36806147       8.13806933      15.14405165
Ga      16.92391975      16.99284758      13.62937927
Ga      12.09321609       9.63603339      15.56759639
Ga      14.42157583      13.52553625      15.05452914
Ga       9.91376625      16.10162187      17.50251823
Ga       9.76993361      11.05626383      16.08516076
Ga      10.40195321      13.73065110      16.34145310
Ga      16.96292708      12.38294309      16.59049072
Ga      14.89870430      15.27925532      17.13327274
Ga      14.43732392      10.17294557      16.97900709
Ga      12.35035303      14.40285437      18.14120717
Ga      12.03816708      11.71056381      17.45198729
Ga      14.52368987      12.70508599      17.84107537
53
Properties=species:S:1:pos:R:3 config_type=qcd gap_pre_relax_energy=-140.29462841791405 gap_pred_energy=-143.20315649678906 gap_fmax_final=0.0008803970559396346 gap_converged=1 pbc="F F F"
Ga      17.72135102      14.37967738      13.46650621
Ga      18.33712246      14.22188432      10.74643121
Ga      18.57749433      11.72655300      13.11630225
Ga      16.10043180      12.42254054      14.53032245
Ga      16.25905183      15.93497139      11.58257990
Ga      17.48386502      11.60907989      10.50159876
Ga      16.73310957       9.84452007      15.28103945
Ga      15.75215978      13.09718808      11.99626014
Ga      15.16415888      15.11456714      14.00403696
Ga      15.98194318      13.62105726       9.12363508
Ga      14.42793461      10.99188513      16.23888995
Ga      16.53668560       9.90664636      12.51069020
Ga      13.71265254      16.05406944      16.15195442
Ga      13.84508480      17.47821061      13.20425581
Ga      15.44793384      10.30178951       9.40197388
Ga      13.79381679      12.11809555       8.17851885
Ga      13.88501266      11.38937321      13.40158207
Ga      14.89246374      16.16965677       9.15968876
Ga      12.73363438       8.85076769      16.26893845
Ga      13.66307376      13.37885507      15.36119454
Ga      13.48265128      12.25063843      10.84417574
Ga      13.79718742      14.81594893      11.37902896
Ga      14.46498470       8.80052667      14.08929646
Ga      11.52004501      17.17031190      14.89051200
Ga      12.44680183      15.00240036      13.58487505
Ga      12.70117903      14.58946101       8.63663684
Ga      12.50638471      17.06032992      10.20357474
Ga      14.01076071       9.05468739      11.39687704
Ga      12.49006566       6.99470196      13.42100255
Ga      11.33173457      12.33622851      14.07655800
Ga      11.85793042       9.66162651      13.70067290
Ga      11.92099022      12.07519789      16.97108186
Ga      11.31403500      13.73984431      11.64925733
Ga      10.33493005      10.23680615      15.96354175
Ga       9.18847689      15.80564242      14.57419185
Ga      10.18333335       7.64211405      14.79354493
Ga      11.02795749      12.44976981       8.56347312
Ga      11.30962180      11.04484006      11.65639078
Ga      10.74669325      16.88806544      12.24505433
Ga      11.14197513      14.48531476      15.87862348
Ga      12.72662543       9.67345661       9.11712896
Ga      10.80000162       8.27054111      11.51490837
Ga       9.10713487      12.40435735      12.48089686
Ga      10.31547192      15.43284641       9.76095624
Ga       9.03691797      12.64970505      15.63188425
Ga       8.95226363       9.86014112      13.66928271
Ga       8.76942887      15.10063996      11.94630810
Ga       8.76292570      13.15538076       9.76293951
Ga       7.33471669      13.99088367      13.98956695
Ga      10.09209521       9.97786882       9.40390600
Ga       8.05823505      10.25477597      11.09803166
Ga       6.68508763      11.34309258      13.54857221
Ga       6.57286400      13.21095344      11.37133685
54
Properties=species:S:1:pos:R:3 config_type=qcd gap_pre_relax_energy=-143.64864039266632 gap_pred_energy=-146.34641764201075 gap_fmax_final=0.0009183895732818492 gap_converged=1 pbc="F F F"
Ga      12.93571626      12.69382243       8.04251904
Ga      14.13713795      15.31033424       8.51504983
Ga      11.26313320      14.97436606       8.67497536
Ga      15.06718453      11.45651056       9.44998923
Ga      16.27145495      14.07983809       9.92353919
Ga      11.13928428      12.23540414      10.17440522
Ga      12.61429456      10.06721131       9.12373489
Ga      13.00333530      16.29600520      10.90750576
Ga      15.71984448      16.83167948      10.34580229
Ga      10.21316869      16.70868002      10.74557707
Ga      13.47826355      13.61339765      10.57691862
Ga      17.50546125      11.72123031      10.81704306
Ga       9.01213491      14.09203216      10.27302567
Ga      15.73941908       9.73127459      11.71430890
Ga      15.00284965      15.07892337      12.33996877
Ga      15.27694124      12.51556137      12.08388990
Ga       8.69065241      11.46553095      11.35439473
Ga      11.24550887      14.40915079      11.84619636
Ga      10.56642403       9.28253535      11.01810304
Ga      13.28456783       8.34611573      11.38244031
Ga      17.68803806      13.97585476      12.48068239
Ga      14.69315625      18.27103529      12.64203969
Ga      10.93610424      11.87930725      12.88788165
Ga      11.79610921      18.23004208      12.57617673
Ga      13.16874692      11.08358324      11.61867906
Ga       8.69943586      13.72593788      13.07002404
Ga      17.13295658      16.72770450      12.89625498
Ga       9.36143263       9.74437106      13.61295850
Ga      14.50221408      10.98565151      14.02565945
Ga      12.18007420       9.56469405      13.67954468
Ga      17.35919933      11.28824467      13.58742857
Ga      14.66920176       8.24405083      13.88124674
Ga       9.90340697      16.34928340      13.54351031
Ga      11.20542816      13.96664065      14.39849880
Ga       9.37191852      12.00071875      15.33440399
Ga      15.63569621      13.45497918      14.47143773
Ga      17.78954135      15.04157594      15.10924902
Ga      13.20881936      18.12619359      15.12687126
Ga      12.77005486      15.87469712      13.60933777
Ga      16.28462177       9.79708394      15.74995974
Ga      13.40297185      14.25070818      15.74069763
Ga      15.19589771      16.13512103      14.86556229
Ga      12.26954715      11.78135022      15.29487599
Ga       8.97681931      14.76081542      15.66544040
Ga      10.74560842       9.64247256      16.11199382
Ga      13.56642527       9.06148225      16.43354759
Ga      17.46185082      12.36056261      16.21279874
Ga      11.32004543      16.24537396      16.10062402
Ga      10.99150646      13.55772116      17.20739553
Ga      16.11672974      14.61699358      17.43704892
Ga      14.68735859      11.97496850      16.57882363
Ga      13.86609909      16.43994220      17.33946546
Ga      13.53799683      13.75916357      18.44348545
Ga      12.36151893      11.19538022      17.98031716
54
Properties=species:S:1:pos:R:3 config_type=qcd gap_pre_relax_energy=-143.18427121131995 gap_pred_energy=-145.94320242629485 gap_fmax_final=0.0008512019823846135 gap_converged=1 pbc="F F F"
Ga      15.06524940       9.95144098      12.08578787
Ga      13.58302759      12.06234144      11.05236769
Ga      13.24197739      12.08912843      16.57177245
Ga       7.66812937      12.61557728      10.42476452
Ga      14.95634758      14.18176074      15.68388762
Ga      15.38009269       9.80392550      14.71158530
Ga      12.08655014      13.84868512      12.49961112
Ga      12.66429861       9.60834803      15.43498732
Ga      10.46147891      15.73645441      13.99450852
Ga      16.42009689      12.03793012      11.07548508
Ga       8.44725353      10.72406499      14.61305543
Ga      10.13553195       8.95263887      13.27660611
Ga       8.96841802      14.33212964      12.19106846
Ga      12.23289336      13.06735987       8.76099116
Ga      16.43087531      14.79548666      10.60518419
Ga       9.11847999      10.64449964       9.21625947
Ga      11.94621863      10.52775931       9.52233701
Ga       9.46860205      13.31586212       8.41802553
Ga      13.45907162      11.70804857      13.74431485
Ga      15.01731146      12.98642508       8.86634437
Ga      10.76979770      11.37480975       7.09832305
Ga      10.44637751      12.39116297      10.93112336
Ga       9.02268389      13.43167228      14.88158177
Ga       7.06965757      12.55545159      13.18011002
Ga      14.01802953       7.93572987      10.65350498
Ga      14.85244452      13.78979160      12.75275206
Ga      16.76247793      12.15069872      13.86428377
Ga      13.30917322      15.72329039      14.21939880
Ga       8.47679494      10.50383329      11.87103901
Ga      14.89379406      16.56380227      12.07875550
Ga       7.48751670      15.65763149      14.08786745
Ga      13.57957086      14.74602159      10.40903136
Ga      16.63248079      15.50335117      13.93294984
Ga      11.71367637      13.67234172      15.13352410
Ga       8.11975812      15.32222530       9.73824660
Ga      13.61434867      11.21906265       7.28175024
Ga      10.58384714      11.43334350      16.23676983
Ga      12.16040229      16.63692106      11.89613244
Ga      13.87590710       7.89066242      13.49607256
Ga      10.07953173       8.54169872      10.61641868
Ga      15.13379885      10.23742896       9.38163149
Ga      10.86554510      14.93135986      10.20728722
Ga       9.46041355      16.98288632      11.68455962
Ga      10.77037928      11.59674437      13.42136429
Ga      12.30199689       9.82078989      12.04142048
Ga      13.48004244       8.54828323       8.09258039
Ga       9.86825589       8.80127024      16.04812846
Ga      10.60468841       8.67580193       7.95344299
Ga      11.86126682       6.68429987       9.37755981
Ga      11.56895933       7.08733310      14.82389505
Ga      11.76010057       7.00338558      12.07083877
Ga      12.16532744       9.38719074       5.78357293
Ga       6.18186919      14.68414085      11.68153698
Ga      15.97852915      11.74706391      16.54495000
54
Properties=species:S:1:pos:R:3 config_type=qcd gap_pre_relax_energy=-142.69099464312367 gap_pred_energy=-146.26309973043982 gap_fmax_final=0.0007908328543153374 gap_converged=1 pbc="F F F"
Ga      17.64286505      12.50887534      15.00194918
Ga      13.95249859      16.20414229      10.36899752
Ga      14.50109669       9.57375675       9.61798758
Ga      11.20792362      16.17435595       9.97891986
Ga       7.77199798      10.41096741      11.60262031
Ga      12.74546260      14.50026348       8.48696773
Ga      12.97909719      10.82840351      13.28785010
Ga      15.37487189      16.93050935      16.02257739
Ga      14.12385108       8.24707098      13.93003696
Ga       7.90379555      11.95885877      13.85694301
Ga       7.76808388      10.21677022      16.03154101
Ga       8.96478577       9.29587144      13.76345577
Ga      16.32149967      14.94854515      11.34179879
Ga       9.03667817      15.92404124      11.60744469
Ga      11.71616728      17.86649489      12.20520235
Ga      11.41028689       8.55845495      14.03001815
Ga      12.00811293       9.43374965       8.44385023
Ga      15.77251147      10.23368539      14.75974640
Ga      13.34005165      14.57998926      17.30199016
Ga      10.18460942      13.57232483      13.48518852
Ga      14.05717702      13.49677660      10.73863726
Ga       7.97518450      13.36811727      11.45560021
Ga      10.16325765       8.83008093      11.04514213
Ga      10.78953577      14.60840330      16.06171428
Ga      12.81336903       8.51352854      11.53805838
Ga      12.74572538      13.37164938      14.37642239
Ga      11.89136498      12.13845972      16.79210009
Ga      18.26196728      15.13481889      15.68614067
Ga      15.67507694       9.34581523      12.01323652
Ga      17.93123509      10.30628988      13.12606248
Ga      12.37900716      11.15115353      10.63070781
Ga      16.04962776      14.17663664      16.94109517
Ga      16.85373116      16.51234329      13.63135570
Ga      10.47972496       9.90285081      16.21845532
Ga      14.07966492      11.99794143       8.44376754
Ga      19.11188963      14.97645595      13.07055472
Ga      12.22056668      15.11688308      12.41249675
Ga       9.26006027      11.05375778       9.41316514
Ga       9.30760227      12.48848681      16.12572539
Ga      11.35118350      12.20191319       8.16736946
Ga      14.31871418      16.99436989      12.90237812
Ga       9.51502809      14.29856054       8.73961444
Ga      17.83119397      12.82794942      12.18935030
Ga      10.20904095      16.36739741      14.04614240
Ga      12.78719265      16.22075217      15.00348955
Ga      14.53650508      12.19720938      15.85927788
Ga      10.36807541      11.27043433      12.34952298
Ga      16.12229414      11.70160405      10.45463935
Ga       7.92946856      14.71743897      14.52656773
Ga      15.06247393      14.62887261      14.43273808
Ga      11.07137870      13.40354508      10.84824652
Ga      13.14929284       9.87248095      15.91084200
Ga      15.14389731      12.37009882      13.03567921
Ga      15.76175727      14.39930565       8.61813068
55
Properties=species:S:1:pos:R:3 config_type=qcd gap_pre_relax_energy=-145.63448534692333 gap_pred_energy=-149.27100663208267 gap_fmax_final=0.0008250396600249671 gap_converged=1 pbc="F F F"
Ga      10.35099577      10.38650203      16.04963016
Ga      15.60916692      14.21095036      11.29973636
Ga      14.48071603       9.43320295      16.74309400
Ga      11.63236242      12.44094231       9.13812244
Ga      15.12593985      13.79092217      13.91721094
Ga      13.97282932      15.29706819       7.14068491
Ga      12.04579443      11.31227272      13.36139311
Ga       9.33226547      11.49206920      11.27830107
Ga      13.14188424      14.90079468      10.64742741
Ga      13.99574507      12.09813005      18.64611245
Ga      11.31565013      12.70321592      18.11625124
Ga      13.04415820      15.13845881      13.39164894
Ga      10.42968349      16.40804341      10.52021353
Ga       8.61448340      14.51536825      12.57875577
Ga      13.43829596      14.04318254      15.95547343
Ga      10.44951839      16.54892553      13.23971215
Ga      14.36303078      12.93141297       8.46448072
Ga      17.95141538      12.67873173      11.65459516
Ga      16.05123709      11.18470614      10.36236603
Ga      13.74427656      12.43792115      11.67436454
Ga      17.53841571      12.47491078      14.30606633
Ga      14.62290914      11.07577511      13.96210094
Ga      12.82125021      11.49613283      15.92745294
Ga       9.39263140      13.88350376       9.95708917
Ga      15.49486242      12.27573501      16.24547777
Ga      13.35291980      17.25227251       9.11931491
Ga       9.09465842      12.78125473      16.48247259
Ga      15.76967203      15.93042631       9.15780733
Ga      12.67485893      17.48353786      11.76507833
Ga       9.88633138      15.12660885      17.82130725
Ga      15.41015996      17.00505097      11.77676649
Ga      13.29783089      17.75915253      14.36545572
Ga      12.56117903      15.20709697      18.34780897
Ga      11.38097450       9.71671133      11.09836061
Ga      16.99036699      10.25514193      12.65030637
Ga      16.97816368      14.71941318      15.95691560
Ga      12.14326418      10.04838132      18.21182674
Ga      16.94172147      10.12133910      15.46809536
Ga      15.26405610      14.42954624      18.05512662
Ga      11.50529471      15.08578639       8.36696236
Ga      18.16769736      15.56533204      10.60521552
Ga       9.00360178      15.22782400      15.20405922
Ga      11.22031124      13.53113976      12.02313139
Ga       9.90630682       9.62510114      13.45097817
Ga      11.63189446      15.99209765      15.73548123
Ga      11.14776217      13.43500296      14.68336203
Ga       8.73065567      12.10546243      13.84879382
Ga      14.30550387      16.67996636      16.75144966
Ga      14.02014308       9.11195859      11.84686809
Ga      13.54602437      10.57671451       9.62023707
Ga      15.81102447      16.64603097      14.44139774
Ga      15.27409217       8.43089341      14.17218109
Ga      12.43347825       8.61728376      14.13354604
Ga      17.56330460      14.98298422      13.17077145
Ga      17.05535102      13.41973058       9.11928191
55
Properties=species:S:1:pos:R:3 config_type=qcd gap_pre_relax_energy=-145.29848815472337 gap_pred_energy=-148.92807295535104 gap_fmax_final=0.0009843155310401298 gap_converged=1 pbc="F F F"
Ga      10.88744952      10.88992795      14.03780371
Ga      10.09787891       8.88344792      12.14747729
Ga      12.06844695      11.94987869       8.86023365
Ga      11.91078215       9.80559745      10.34719900
Ga      12.55795170       9.13647711      12.78696759
Ga      12.38731124      12.87395148      13.36980320
Ga      13.68049434      12.03903640      11.09313758
Ga      11.62575785      13.80922522      10.96048884
Ga       9.69561500      13.17075353      12.78248729
Ga       9.92021647      11.74765922      10.48685011
Ga      14.69648852       9.09181770       6.91748418
Ga      15.12972504      12.58428410      13.39889541
Ga       6.79179829      12.41949429      14.47067005
Ga       9.77493029       9.56130413      16.31278680
Ga      15.03322681      11.73870895       6.49519347
Ga      15.23387343      10.05112852      12.29940743
Ga      12.06852033      10.95826579      16.64204887
Ga      11.42553123      13.61262175      15.94477445
Ga       9.85908670       9.75895980       7.88009751
Ga      13.53096238      15.51446652       9.06740541
Ga      11.43353593      15.38489319      13.22001782
Ga      11.64004592      14.98106011       6.62721084
Ga       8.92055533       6.38776089      11.73276315
Ga       7.76419056       9.30124063      10.45415374
Ga      14.06404719      10.19733758      14.73112468
Ga       7.24598522      12.66582182      11.10610677
Ga      12.64797193       7.93140495       8.39600793
Ga      14.95233412      13.04664897       8.96317431
Ga       7.48383001       8.29935097      13.05037378
Ga      14.00876790      12.71398710      15.84467798
Ga      13.90895034      15.01300876      14.34489708
Ga       9.12131328      15.60794989      11.44695107
Ga       7.25345972       9.88827035      15.25733888
Ga      12.10794162       6.44762633      10.96468554
Ga      10.22807074      14.78097975       8.91172075
Ga       7.87598658      11.42316262       8.73443154
Ga       9.91722709      12.55266457       7.21208968
Ga       9.07743250      12.24834803      15.93871844
Ga      10.09983369       7.69854099       9.57719566
Ga       7.23373980      14.62346156      12.99839453
Ga       9.11022755       7.22001838      15.00270289
Ga      14.22445166       8.07291212      10.75144538
Ga      16.58923936      12.25607221      11.07701408
Ga      12.13867047       8.36881635      15.54999128
Ga      14.23588350       7.11245887      13.45531406
Ga      11.52878060      17.20637007       8.14575777
Ga      11.62153244      16.58598188      10.80874853
Ga       9.22896932      14.93183748      14.85933254
Ga      11.31021360       6.63451227      13.53951694
Ga      14.95651562      10.25838700       9.37308534
Ga      12.40997475      12.52338491       6.00752700
Ga       8.48597097      10.89688736      12.87205840
Ga      14.34827874      14.44162980       6.70268134
Ga      12.10348935       9.97041146       6.53992503
Ga      14.37667047      14.75992930      11.53178843
