3
Properties=species:S:1:pos:R:3 config_type=qcd gap_pre_relax_energy=-18.33229532385346 gap_pred_energy=-18.358754352439778 gap_fmax_final=0.0005688139708706595 gap_converged=1 pbc="F F F"
Hf      14.89696322      15.48784897      13.58689764
Hf      14.04330746      13.96381813      15.50646763
Hf      16.05972932      15.54833290      15.90663473
4
Properties=species:S:1:pos:R:3 config_type=qcd gap_pre_relax_energy=-27.08089221342504 gap_pred_energy=-27.082350036605586 gap_fmax_final=0.0005868072404284368 gap_converged=1 pbc="F F F"
Hf      14.39515715      13.71897972      14.13452751
Hf      14.08309124      15.22778661      16.36495546
Hf      14.95152884      16.37123626      14.06559719
Hf      16.57022276      14.68199742      15.43491984
5
Properties=species:S:1:pos:R:3 config_type=qcd gap_pre_relax_energy=-35.322425904658786 gap_pred_energy=-35.35207050058223 gap_fmax_final=0.0009903694193939304 gap_converged=1 pbc="F F F"
Hf       8.00513047       8.61048784       6.88267314
Hf       7.27638835       8.26702563       9.51594657
Hf       8.41900041      10.63995438       8.70177013
Hf       9.94052408       8.34453020       8.82346417
Hf       8.39579971       6.17484495       8.11298900
6
Properties=species:S:1:pos:R:3 config_type=qcd gap_pre_relax_energy=-43.54912047202506 gap_pred_energy=-43.606633466398144 gap_fmax_final=0.0008654602901567857 gap_converged=1 pbc="F F F"
Hf      11.27461189       8.56706003       8.07295218
Hf      10.04322234      10.31777618       9.81141269
Hf       9.17777674       7.68429882       9.66681980
Hf       8.69488293       9.45146496       7.54502656
Hf       6.79478082       7.55028760       8.24581487
Hf       7.27498973       9.68937688       9.91823836
7
Properties=species:S:1:pos:R:3 config_type=qcd gap_pre_relax_energy=-52.77195383570391 gap_pred_energy=-52.78981304943246 gap_fmax_final=0.00031774410608823576 gap_converged=1 pbc="F F F"
Hf       6.56330083       6.11741123       8.01518127
Hf       8.76693765       6.51185094       9.73549482
Hf       8.46741523      10.13668340       6.97153125
Hf       8.87883666       7.37327024       7.07794099
Hf       9.94368439       8.99583807       9.09055350
Hf       7.16890760       8.67456250       8.96978232
Hf       6.37820364       8.35766961       6.30680187
8
Properties=species:S:1:pos:R:3 config_type=qcd gap_pre_relax_energy=-60.86743567780473 gap_pred_energy=-61.01078022799766 gap_fmax_final=0.0007234808498386171 gap_converged=1 pbc="F F F"
Hf       6.18361551       9.38574483       9.38797868
Hf       9.87041131       6.61415584       7.82567390
Hf       7.51459525       8.08662401       7.11210901
Hf       8.55412627      10.31729097       8.45863826
Hf      10.71210629       8.82365714       9.44952295
Hf       8.58471385       9.93921066      11.14320470
Hf       8.20131002       7.62023023       9.79172226
Hf      10.18500704       9.01897187       6.63703579
9
Properties=species:S:1:pos:R:3 config_type=qcd gap_pre_relax_energy=-69.08379343455043 gap_pred_energy=-69.32319527471297 gap_fmax_final=0.0008310105454670907 gap_converged=1 pbc="F F F"
Hf      11.41499659       7.88777602       7.97695120
Hf       9.84834568       9.82391602       9.04788231
Hf       8.89447695       7.03674286       7.84348770
Hf       7.83100960      11.46638577       8.28456900
Hf       9.29904561       9.50035859       6.41198658
Hf       7.05170788       6.94252047       9.98554935
Hf       6.96612711       8.96216588       8.00891513
Hf       7.63113649       9.60562196      10.66242856
Hf       9.76432008       7.47567842      10.47939616
10
Properties=species:S:1:pos:R:3 config_type=qcd gap_pre_relax_energy=-77.40447300759344 gap_pred_energy=-77.73133506090562 gap_fmax_final=0.000753770303254253 gap_converged=1 pbc="F F F"
Hf       6.96113452      11.33326313       7.81880320
Hf       7.42348796      10.31635667      10.63528002
Hf      11.46454735       8.81697980       8.11493174
Hf       9.44790335      10.83745975       8.67557984
Hf      10.95504328       6.58302149      10.09741902
Hf       9.26535878       7.21077439       8.11873476
Hf       7.07657835       8.73385857       8.44647535
Hf       8.05243755       7.19515525      10.71444541
Hf       8.89169847       9.50337796       6.36749742
Hf      10.04227390       9.05021650      10.59129675
11
Properties=species:S:1:pos:R:3 config_type=qcd gap_pre_relax_energy=-86.97111078649759 gap_pred_energy=-87.05351821281195 gap_fmax_final=0.0006825229628857891 gap_converged=1 pbc="F F F"
Hf      11.14403598       9.57152799       9.41145347
Hf       6.24037539       8.15360771       7.21342036
Hf       6.56187594      10.98194158       7.89567243
Hf       7.57830698       6.62808916       9.17937539
Hf       8.78816174       6.65578118       6.62639973
Hf      10.41256497       6.83310633       8.98190121
Hf      11.25230007       8.22440147       6.81498594
Hf       9.03125669       8.42633123      10.89701664
Hf       8.59626816      11.06937866       9.99850363
Hf       6.46718504       9.15258984       9.89096184
Hf       8.77612606       9.15170185       7.93876636
11
Properties=species:S:1:pos:R:3 config_type=qcd gap_pre_relax_energy=-86.44819848380739 gap_pred_energy=-87.05351811954037 gap_fmax_final=0.0008278123186202607 gap_converged=1 pbc="F F F"
Hf       6.70847317       7.99004536       7.27948703
Hf       9.30176556       8.71815115       8.11430112
Hf       9.74499372       7.54517851      10.86555994
Hf       8.00088825      10.36027357       6.14823526
Hf      11.41185459       9.60083438       9.76353815
Hf      11.35709441       6.83455772       8.80827826
Hf       8.53152527       6.07494202       8.72437781
Hf       8.83252451      10.23979344      10.72316617
Hf       6.92182848      10.51091917       8.62803428
Hf       9.58884437      11.51593652       8.31867209
Hf       7.05615968       8.06532015      10.08230190
12
Properties=species:S:1:pos:R:3 config_type=qcd gap_pre_relax_energy=-95.8801130761397 gap_pred_energy=-96.17695552302663 gap_fmax_final=0.000559652685780554 gap_converged=1 pbc="F F F"
Hf       8.05721307       8.94564376       6.38006657
Hf      10.82726093       8.86147261       7.09293333
Hf      11.21695114      10.43676459       9.46269126
Hf       7.09291977       9.29202798      11.30463158
Hf       8.76892936       6.71654597      10.83277725
Hf       9.36474099       6.50242761       7.78920763
Hf      11.23895770       7.57210861       9.66854304
Hf       9.25873912      11.27190691       7.53466927
Hf       6.65304111      10.66943144       8.55283690
Hf       8.70104546      11.47228378      10.38317114
Hf       9.92486935       9.18571063      11.70200198
Hf       8.67528601       8.85363011       9.07642407
12
Properties=species:S:1:pos:R:3 config_type=qcd gap_pre_relax_energy=-95.33888002067843 gap_pred_energy=-96.17695556494233 gap_fmax_final=0.0005959197024282949 gap_converged=1 pbc="F F F"
Hf      13.57498351      13.43043727      13.37776246
Hf      16.30974186      12.65420855      13.70519053
Hf      13.25648732      16.32107363      13.47007002
Hf      15.44702219      15.14323403      12.05478045
Hf      14.56291643      12.55160442      15.96948700
Hf      15.52852086      15.06401152      14.82020264
Hf      12.68871562      14.72030081      15.78617107
Hf      17.15501550      13.62389081      16.53525216
Hf      15.75912792      17.65136315      13.86478837
Hf      14.04768846      17.22868721      16.11883708
Hf      14.85503259      14.89892562      17.66356132
Hf      16.81474774      16.71226298      16.63389689
13
Properties=species:S:1:pos:R:3 config_type=qcd gap_pre_relax_energy=-105.72981913779886 gap_pred_energy=-106.14410048787046 gap_fmax_final=0.000766489601585121 gap_converged=1 pbc="F F F"
Hf       8.53230903       8.53230068       8.53230782
Hf       8.53342026      10.01330420      10.93193162
Hf       8.53566286       7.04829487      10.93012258
Hf       8.52892012      10.01620296       6.13442392
Hf       8.53107364       7.05116574       6.13266591
Hf      10.01300441      10.93211632       8.53223887
Hf      10.01661493       6.13464804       8.52946217
Hf       7.04800644      10.92992916       8.53513747
Hf       7.05156664       6.13242347       8.53218840
Hf      10.93241412       8.53328941      10.01255140
Hf      10.92963134       8.53491293       7.04749844
Hf       6.13496388       8.52959881      10.01707687
Hf       6.13207184       8.53147291       7.05205403
13
Properties=species:S:1:pos:R:3 config_type=qcd gap_pre_relax_energy=-103.93020510179763 gap_pred_energy=-104.25764819001812 gap_fmax_final=0.0009300035837363196 gap_converged=1 pbc="F F F"
Hf      11.79996350       9.77582643       8.53453510
Hf      10.70961866       7.08588006       8.92840652
Hf      11.07653555       8.81750959      11.08117602
Hf      10.22372825       8.56991686       6.50139040
Hf      10.28632906      11.51202756      10.21357818
Hf       9.82522379      11.33640461       7.21294029
Hf       8.85390745       9.46559219       9.03978244
Hf       8.92834051       9.89529732      12.23293438
Hf       8.19722299       6.90276663       7.69219632
Hf       7.57352900       9.45833583       6.48549651
Hf       8.20745486       7.39648856      10.76362538
Hf       6.62419507       9.90727745      10.95733216
Hf       6.15101561       8.33374117       8.81367059
14
Properties=species:S:1:pos:R:3 config_type=qcd gap_pre_relax_energy=-113.96949978879194 gap_pred_energy=-114.35706694119193 gap_fmax_final=0.0009656134752972957 gap_converged=1 pbc="F F F"
Hf       8.73260114       7.01456895      11.04912255
Hf       9.06753103       6.27564926       8.28264320
Hf       6.65159304       7.68771397       8.97626198
Hf      11.31513276       7.36234336       9.84657843
Hf      10.90455674       8.01498240       7.00326478
Hf       7.07217984       9.25618635      11.25363506
Hf       9.15796440       9.09773139       9.10830410
Hf       8.02082784       8.42812073       6.56500318
Hf      10.23668650       9.73302389      11.52053678
Hf      11.88148235       9.99588961       8.85626821
Hf       8.05496501      11.69822590      11.05994380
Hf       9.80050174      10.66907736       6.78333376
Hf       7.11181927      10.74361483       8.40794062
Hf       9.95270958      11.98342326       9.24771478
14
Properties=species:S:1:pos:R:3 config_type=qcd gap_pre_relax_energy=-114.2421343994253 gap_pred_energy=-114.35706680160568 gap_fmax_final=0.000797452323728021 gap_converged=1 pbc="F F F"
Hf       9.24018494       9.26516279       9.25001496
Hf      12.18045330       8.69159599       9.18938267
Hf       6.38595893       9.23299640       8.53798153
Hf      10.69618835      11.50769637       8.76287320
Hf       7.64211127      11.64785583       9.48770843
Hf      10.32754890       6.67498873       8.62069752
Hf       7.70471677       6.90114348       9.76342950
Hf       9.33515275      11.07197291      11.63837110
Hf      11.83309146      10.31877869      11.23842803
Hf      10.05848122       7.94678928      11.48120390
Hf       7.21735975       9.27671918      11.29820510
Hf       8.37749670      10.65482660       6.89743105
Hf      10.75267772       9.04624827       6.81043058
Hf       8.20060995       7.71525748       6.97587441
15
Properties=species:S:1:pos:R:3 config_type=qcd gap_pre_relax_energy=-123.51921182315024 gap_pred_energy=-123.93252293858684 gap_fmax_final=0.0007986473816900306 gap_converged=1 pbc="F F F"
Hf       6.91354624       8.41555849       6.72361467
Hf       7.33521243      11.14303858       7.59843732
Hf       7.61680253       6.55555210       9.13715549
Hf       5.91669113       9.17972977       9.18436554
Hf       8.93192887       8.93193804       8.93192663
Hf       7.57410923      11.24832520      10.34882643
Hf       9.32107213       7.06960825       6.56613193
Hf       9.30070667       9.92477986       6.08668277
Hf      10.73178879       6.48786186       8.86923044
Hf      10.24701790      11.30834721       8.72659930
Hf       9.73502451       7.25205756      11.32987573
Hf       9.77850392      10.13540112      11.58749388
Hf      11.74412194       8.91722476      10.07580213
Hf      11.50517841       8.81176332       7.32543541
Hf       7.32735782       8.59787637      11.48748484
15
Properties=species:S:1:pos:R:3 config_type=qcd gap_pre_relax_energy=-122.12897103877286 gap_pred_energy=-122.32684170329387 gap_fmax_final=0.000791440880343615 gap_converged=1 pbc="F F F"
Hf      10.07665594      10.41083772       7.50256867
Hf      12.70829429      10.61631277       7.60247665
Hf      11.25910179      12.81478360       8.96856798
Hf       8.57365150       8.92322387       9.27873983
Hf      11.74439964       8.43044407       9.33852248
Hf       8.32694374      11.81976777       9.15725760
Hf      13.49900630      10.79664309      10.13052588
Hf      10.54582168      10.61891425      10.57326058
Hf       9.46014839      13.18857442      11.34066146
Hf       9.86919014       7.84423852      11.46281684
Hf      12.26884486      12.59886758      11.81903582
Hf       8.03191397      10.47752766      11.82455213
Hf      12.29849220       9.44070399      12.38729536
Hf      10.30172741      11.64054155      13.50404079
Hf       9.73566746       9.07847846      13.80953726
16
Properties=species:S:1:pos:R:3 config_type=qcd gap_pre_relax_energy=-132.62193219690312 gap_pred_energy=-132.78435317763487 gap_fmax_final=0.0008320259502882051 gap_converged=1 pbc="F F F"
Hf       8.40378059      10.59577252      12.61862930
Hf      11.16857650      10.91790098      12.47192642
Hf       7.16362460      11.52710704      10.22083865
Hf       9.08389685      12.48376741       8.44118929
Hf      10.17418098       8.01430871       7.29901313
Hf       9.93163053       8.10927208      12.05862745
Hf      10.56213533      10.75906725       7.00671194
Hf       7.81913840       9.69599636       7.97411059
Hf       9.87694766       9.87705138       9.87685532
Hf       8.63925592       7.09150548       9.43502671
Hf      12.55820590       9.26445036       8.25235268
Hf       7.16119716       8.81623663      10.86966685
Hf      11.41426815       7.08271651       9.69674701
Hf       9.54760144      12.77741964      11.17402005
Hf      11.88015310      11.82566956       9.59798604
Hf      12.64659883       9.19295006      11.03749053
17
Properties=species:S:1:pos:R:3 config_type=qcd gap_pre_relax_energy=-141.28956408030348 gap_pred_energy=-141.7734134113768 gap_fmax_final=0.0009985205681464315 gap_converged=1 pbc="F F F"
Hf      10.08061794       7.48077733      12.00060060
Hf      12.40163307       8.00078528      10.71637031
Hf      13.11934953      10.62054361      10.15527206
Hf       8.41664879       9.56699670      12.75716993
Hf       7.66030521       7.86559313      10.70136925
Hf      11.35448489      10.14589007      12.53743410
Hf      12.36295496       8.91905824       8.09934269
Hf      10.05637881       7.22605288       9.00920710
Hf      11.49787540      12.65360906      10.89284195
Hf       9.97519332       9.97511377       9.97527392
Hf       9.11613044      12.12007120      12.21036676
Hf       7.62273094       8.76067613       8.15114600
Hf      11.28834257      11.72190766       8.04616804
Hf       9.07779966      13.03859427       9.59337879
Hf       7.20109057      10.80648679      10.30741115
Hf       8.34074386      11.38047813       7.58991457
Hf      10.00437258       9.29401829       6.83338532
18
Properties=species:S:1:pos:R:3 config_type=qcd gap_pre_relax_energy=-148.7259641551339 gap_pred_energy=-149.62317262328784 gap_fmax_final=0.0007836865193759382 gap_converged=1 pbc="F F F"
Hf      10.85346443      11.01649464       6.62019822
Hf      12.52656696      10.98266182       8.76861703
Hf       8.44061804      12.27468969       6.76331164
Hf      10.08893512      12.49234740       9.06140222
Hf       8.48561013       9.46797033       7.14314321
Hf      11.37104188       8.34787854       7.72138285
Hf      11.58403926      11.12660148      11.54085205
Hf      12.92027855       8.76993348      10.22854628
Hf       9.75193041       9.59553016       9.92203877
Hf       9.37139923       9.89520814      13.12137519
Hf       7.23100589      11.40621036       9.20654029
Hf      11.10116685       6.68420111      10.13518467
Hf       8.80572915      12.11615398      11.54735947
Hf       8.92120933       6.96838168       8.52962375
Hf      11.35810160       8.24095297      12.42707327
Hf       7.03086964       9.93193069      11.69230916
Hf       6.83966058       8.53571860       9.34845733
Hf       8.60665490       7.43541690      11.51086653
18
Properties=species:S:1:pos:R:3 config_type=qcd gap_pre_relax_energy=-148.8425569400651 gap_pred_energy=-149.91735823787639 gap_fmax_final=0.0006262063184810632 gap_converged=1 pbc="F F F"
Hf      12.66031379       9.27857682      10.74068360
Hf      12.58120098      10.68601991       8.49449021
Hf      10.85356734       9.98562908       6.47455541
Hf      11.61197415       7.81805363       8.33306218
Hf       9.16047685       7.90260769       6.76857745
Hf      10.43289153      12.31061853       7.94605659
Hf      10.90636503      11.71764808      10.80123582
Hf      10.62469694       9.46535930      12.58331416
Hf      11.05925009       7.06347397      11.06306139
Hf       9.49243504       9.49646665       9.49086004
Hf       8.76334292       6.64998229       9.36430740
Hf       8.61771406       7.62089338      12.20415618
Hf       6.76842427       8.31049438       7.95343626
Hf       8.33824487      12.44703499       9.64480656
Hf       8.10491117      10.76311481       7.09295844
Hf       8.05787750      10.54957929      11.83241753
Hf       6.52016875       8.20059851      10.68869258
Hf       6.34776610      10.63547011       9.42494961
19
Properties=species:S:1:pos:R:3 config_type=qcd gap_pre_relax_energy=-157.66109616401266 gap_pred_energy=-157.85848990446826 gap_fmax_final=0.0008994643782442931 gap_converged=1 pbc="F F F"
Hf       9.08468845       7.93645387      12.65216927
Hf      11.86400973       8.49023319      12.35237698
Hf       7.59343676      10.48124340      12.71722468
Hf      12.27782562      11.35361808      12.23207775
Hf       9.60583691      12.69449023      12.43959149
Hf      12.67798940       9.63054247       9.75695293
Hf      11.12107762      12.42121974       9.67698337
Hf      10.45291338       7.17211303      10.06728492
Hf       7.85893509      11.83825846       9.98720191
Hf       7.56792308       8.62350907      10.20643023
Hf       9.30068921      12.10083330       7.37889540
Hf       7.35323079      10.03409177       7.61460823
Hf      11.93966824      10.92939536       7.15421028
Hf       8.71084225       7.41567881       7.56383487
Hf      11.65402895       7.94898851       7.28178025
Hf      10.23094971      10.24871165      14.00132535
Hf       9.90565190      10.27243879      11.23723808
Hf       9.98068215       9.60971526       8.63913028
Hf       9.65406576       9.63290999       5.87512874
19
Properties=species:S:1:pos:R:3 config_type=qcd gap_pre_relax_energy=-157.43168285103792 gap_pred_energy=-157.6357131567027 gap_fmax_final=0.000825785685676224 gap_converged=1 pbc="F F F"
Hf      14.51095250      13.01470475      11.04352924
Hf      12.56279191      13.55015662       9.03468287
Hf      13.95916837      11.01174472       8.92197248
Hf      13.40395813      12.04981955      13.48503650
Hf      14.46914739      10.10213070      11.62010697
Hf      10.96910882      11.04618544       8.22096568
Hf      11.40464788      13.99657135      11.96163159
Hf       9.81455601      13.40622626       9.55937926
Hf      12.18092762      11.55107993      10.99054199
Hf       8.46803137      12.52675781      12.02114834
Hf      10.63802439      11.93747194      13.91610892
Hf       8.03710296      11.28444221       9.12629998
Hf       9.92896249      10.42427884      11.03617756
Hf      11.89928917       9.38702394      13.14246713
Hf       9.22954743       8.64398964       9.01770703
Hf      12.16336927       8.73426925      10.04416993
Hf       8.87822838       9.78420076      13.57646351
Hf       7.36467519       9.43648042      11.18786292
Hf       9.73949068       7.73444580      11.71572804
20
Properties=species:S:1:pos:R:3 config_type=qcd gap_pre_relax_energy=-167.4161613268913 gap_pred_energy=-167.51516323608502 gap_fmax_final=0.0009942078222307147 gap_converged=1 pbc="F F F"
Hf       8.93260708       9.09192756      12.55061222
Hf       8.88275344      13.11036967       8.37335724
Hf       6.79285816       7.61948170       8.50233346
Hf       8.12350784      11.84573717      11.10585307
Hf       9.13209377       8.44339423       9.84218619
Hf       9.92566584      11.04765037       6.64106700
Hf       6.53621929       9.39575300      10.76511612
Hf      10.80379111      11.35111969      12.36715969
Hf      10.24620886      10.93494307       9.53622245
Hf       9.49988775       8.17375434       7.08685162
Hf      10.21434542       6.45698480      11.52329508
Hf      10.65747920      13.51986756      10.57415622
Hf      12.86680229      11.56977538      10.35779599
Hf       7.47740676      10.49622458       8.19381317
Hf       7.38475798       6.75574122      11.26552505
Hf      11.90157872       8.88173734      11.18398471
Hf       8.93296312       5.78070134       8.94805214
Hf      11.78117908      12.70051830       7.96949369
Hf      11.49081984       6.96204850       8.98184235
Hf      12.20034324       9.64553895       8.01455132
20
Properties=species:S:1:pos:R:3 config_type=qcd gap_pre_relax_energy=-167.35135749561925 gap_pred_energy=-167.6347115772935 gap_fmax_final=0.000611164133589047 gap_converged=1 pbc="F F F"
Hf      10.45617614      11.35858399       7.50678013
Hf       9.59679369      13.00112976       9.75204073
Hf       7.42581983      11.22259515       8.51238084
Hf      11.84641920      11.00595884      10.36275219
Hf       9.10974635      10.30972080      10.60070733
Hf      11.02889202       8.86398278       5.84709469
Hf      12.70943011       9.36716280       8.11618028
Hf       7.30439979      12.34543524      11.34596730
Hf       8.28415359       9.58371733       6.26397191
Hf      10.01003259      12.21291290      12.47859036
Hf       9.44854010       6.04417382       9.29333278
Hf      10.76119993       9.46160621      12.78134271
Hf       7.19893682       8.03925993       8.68266160
Hf      11.61961557       7.82289817      10.53289434
Hf       8.58910216       7.68676681      11.53844596
Hf       9.93554273       8.73559287       8.44459398
Hf      11.74100327       6.69997155       7.69930489
Hf       6.33587753       9.67815236      10.92907955
Hf       9.03525153       6.83225346       6.56690871
Hf       8.01622143      10.18127962      13.19812411
21
Properties=species:S:1:pos:R:3 config_type=qcd gap_pre_relax_energy=-176.33795285067416 gap_pred_energy=-176.46038348714453 gap_fmax_final=0.0009506669295693453 gap_converged=1 pbc="F F F"
Hf      11.33294233       6.52895271      10.16505256
Hf      10.72718562       6.77898819       7.20602522
Hf      13.11241335       8.00259213       8.24602289
Hf       8.06004369       7.21607333       8.58672172
Hf      10.68706688       8.47749025      12.33792264
Hf      12.93521703       8.97087616      10.83545241
Hf      11.58970154       9.48669241       6.37044970
Hf       8.60699671       7.17992871      11.37877065
Hf       8.87447786       8.81686427       6.46415503
Hf      10.54557016       8.92867545       9.01469240
Hf      12.43295076      11.02491953       8.77422433
Hf       8.68333571      10.28339826      10.23002065
Hf       6.77362808      10.05234502       8.14147139
Hf       6.32409521       8.46528368      10.58011045
Hf       9.56078609      11.45617249       7.31470394
Hf      11.24742939      11.17808299      11.65552941
Hf       7.88888009       9.67252392      12.81508286
Hf      10.28502281      12.85886418       9.69927355
Hf       6.11050569      11.20462538      10.99791680
Hf       7.56369183      12.74047695       9.11824344
Hf       8.50441633      12.52253113      11.91451507
21
Properties=species:S:1:pos:R:3 config_type=qcd gap_pre_relax_energy=-176.58155515683808 gap_pred_energy=-176.8081898527071 gap_fmax_final=0.0008950530111945461 gap_converged=1 pbc="F F F"
Hf       9.12831408      11.15427845       6.11413436
Hf       9.43369480       8.40704517       7.37311661
Hf      11.72028396      10.29432660       6.84680280
Hf       7.08721172      10.23564798       7.84157942
Hf      10.90297370      12.98959777       7.56549397
Hf       8.06201380      12.95367560       8.17552927
Hf      12.58294797      11.37066540       9.44559640
Hf       9.92791295       6.51552000       9.56256282
Hf      12.18429574       8.29030440       8.94138806
Hf       9.72401581      10.81010729       8.86799101
Hf       9.04524881       6.85881891      12.23077175
Hf      10.03163134      13.15096139      10.43757483
Hf       7.57313206       8.23209668       9.93148384
Hf       7.34181822      11.30472202      10.57109979
Hf      10.19772146       9.17641602      10.97532555
Hf      11.78515457      11.57377781      12.22961145
Hf      11.81936379       6.89381504      11.63513555
Hf      13.12533908       9.32329225      11.55949621
Hf       9.20731164      11.54111002      12.78310304
Hf       7.76505900       9.25563109      12.71054795
Hf      10.76507010       9.07870475      13.61216996
22
Properties=species:S:1:pos:R:3 config_type=qcd gap_pre_relax_energy=-185.3569881418739 gap_pred_energy=-185.63536935262846 gap_fmax_final=0.0008862331624382646 gap_converged=1 pbc="F F F"
Hf      13.37865150      11.30482866       9.57304987
Hf      11.92593318      12.98210311       7.71375575
Hf      12.58915742      14.18719453      10.20549011
Hf      12.77339630      12.45792449      12.45476226
Hf      14.40153297       9.94477368      11.85067728
Hf      10.16144046      14.82550705       9.01725318
Hf      12.92557790      10.20795643      14.27001670
Hf      10.09991233      14.11996356      11.99856774
Hf       9.16956255      12.48249939       7.57027257
Hf      10.50905439      12.09480444      10.14796343
Hf       7.92569978      13.47781135       9.92705501
Hf      11.06037218      10.17379250       8.01230703
Hf      11.45519774       9.82409129      11.73802607
Hf      13.16923315       7.69490784      12.91494621
Hf       8.08838964      11.91029074      12.11482054
Hf      10.69253480       8.51071648      14.24448727
Hf       8.12489824      10.55297341       9.50830834
Hf      10.28976636      11.47460551      13.85274449
Hf       9.79991973       8.21419123       9.63318720
Hf      12.77676901       8.20064248       9.91822332
Hf       8.67675057       9.09309268      12.20297151
Hf      10.72158022       6.98065955      11.84644456
22
Properties=species:S:1:pos:R:3 config_type=qcd gap_pre_relax_energy=-185.4554431916807 gap_pred_energy=-185.6681602142757 gap_fmax_final=0.0008703596820696363 gap_converged=1 pbc="F F F"
Hf       9.09130306       7.40481852       9.85119377
Hf       7.86691471      11.79231467      11.37696887
Hf       8.04995653      10.15262615       8.81797336
Hf       7.68527627       9.07531671      11.57487791
Hf       9.61945925      13.13563916       9.64227363
Hf       9.73059034      13.61541742      12.80345315
Hf       9.43086905      10.51578331      13.44629430
Hf      10.47836063      11.33224315       7.56618870
Hf      10.28809217      10.02799239      10.42719919
Hf      10.46030975       8.57398910       7.83760748
Hf      11.66699831      14.83355400      10.82973664
Hf      12.58325989      12.80691760       8.93531833
Hf      11.78412038      12.07219652      11.70046892
Hf      10.07818445       7.81515847      12.44825479
Hf      12.59399564      14.29357178      13.42570001
Hf      12.76143145       9.96512838       8.38991509
Hf      11.54688559      12.00644960      14.64297665
Hf      14.23933780      13.51602272      11.18528665
Hf      12.11042732       7.87279527      10.31070847
Hf      12.34396336       9.48398203      13.08707998
Hf      14.07070688      10.47417517      10.84928147
Hf      14.10518907      11.81953976      13.43687454
23
Properties=species:S:1:pos:R:3 config_type=qcd gap_pre_relax_energy=-194.6955730475394 gap_pred_energy=-195.03933596510078 gap_fmax_final=0.0009306170766200036 gap_converged=1 pbc="F F F"
Hf      13.74734563      11.28254029      11.37046937
Hf      13.01755048       9.13780871       9.50295489
Hf      13.11008375      11.94900127       8.68998619
Hf      12.47909499       9.10875294      12.39752815
Hf      11.29345811       7.47817101       7.87225832
Hf      12.32566671      13.60071710      10.84287169
Hf      11.10014710       7.13374857      10.79004781
Hf       9.65994495       8.99834851      12.74336866
Hf      11.35035214      11.78712242      13.13325606
Hf      11.18185748      10.26606571       7.32954870
Hf       9.11288652       8.99765028       9.52184576
Hf      10.89937936      11.02471444      10.49536355
Hf       9.16966278       6.08599623       8.84176177
Hf       9.66158581      13.64358927      11.38256075
Hf       8.25597301       6.83644143      11.41809651
Hf       8.46525306      11.50609762      12.55301285
Hf       6.86219731       9.41065278      11.26252727
Hf      10.41943136      13.10644521       8.57125925
Hf       6.46763193       9.92637657       8.37379466
Hf       8.58760093       8.30319160       6.87888703
Hf       7.75871729      12.06443532       9.85764532
Hf       6.70370526       7.31958981       9.10820957
Hf       8.57210487      11.23417370       7.26437663
23
Properties=species:S:1:pos:R:3 config_type=qcd gap_pre_relax_energy=-194.00530125097427 gap_pred_energy=-194.41385966094367 gap_fmax_final=0.0009625977625867177 gap_converged=1 pbc="F F F"
Hf      10.11301489       7.41381032       9.52901602
Hf       8.71829293      11.84593119      12.66463744
Hf       8.36669197       9.15349311       8.48367307
Hf      13.80810626      10.73955755       9.82243776
Hf      10.36584758      10.30534833      10.33950509
Hf      11.35898505       9.62425254       7.82952458
Hf      11.89168390      12.66987053       8.73469902
Hf       8.34111557       8.84067789      11.56659780
Hf      14.88234559      11.76951837      12.47246822
Hf      13.12976192      14.09079990      13.36456330
Hf      14.14062843      13.52934676      10.52119362
Hf      13.14851064      11.31955878      14.61974973
Hf      10.16418613      14.45199236      12.80463465
Hf      11.00361097       7.72543579      12.11118003
Hf      10.76779232      12.65364056      14.69821103
Hf      11.83887283      14.88689111      10.73055204
Hf       9.33780457      13.49527955      10.17812951
Hf       9.29151353      11.70653779       7.90038753
Hf      12.71531059       8.16990176       9.99162246
Hf       7.51521252      11.24533864      10.10010424
Hf      10.58229311       9.90210909      13.81726140
Hf      11.97955941      11.99471498      11.99642718
Hf      13.38923890       9.31637273      12.57380390
24
Properties=species:S:1:pos:R:3 config_type=qcd gap_pre_relax_energy=-203.13084329238012 gap_pred_energy=-203.543397744388 gap_fmax_final=0.0008528300832629287 gap_converged=1 pbc="F F F"
Hf      10.04140544      12.15696454      12.22443853
Hf      11.69582418      10.02544111      13.38904844
Hf       9.02667617       9.33609370      12.83810639
Hf      11.05345089      13.40629827       9.89312026
Hf       7.29299166      11.58420555      12.07834609
Hf      12.76634566      11.49708277      11.08484770
Hf      11.40078969       7.16840881      12.52698306
Hf       8.15614004      13.60551748      10.03819169
Hf       8.95750036      10.97682281       9.51648886
Hf      13.75450808       8.90414707      11.99808015
Hf       6.95223189       9.03900775      10.65459535
Hf       9.84662495      13.10545006       7.49952753
Hf      11.10064122       9.05967658      10.48795308
Hf       7.28097927      12.35144927       7.36686640
Hf      13.88001201       9.52904242       9.25446440
Hf       8.77221366       6.97228967      11.29932983
Hf      11.93153685      11.24071439       8.10950277
Hf      13.27499375       6.95278120      10.09485001
Hf       5.97344826      11.61814365       9.69339218
Hf       9.44958859      10.23985812       6.76811404
Hf       8.79469838       7.81304779       8.48249795
Hf      10.76257769       6.12046226       9.69024862
Hf       6.75171073       9.66376161       7.82030828
Hf      11.67609544       8.22631792       7.78368321
24
Properties=species:S:1:pos:R:3 config_type=qcd gap_pre_relax_energy=-202.7531292645247 gap_pred_energy=-203.40799747762114 gap_fmax_final=0.0009993228917510777 gap_converged=1 pbc="F F F"
Hf      11.49296598       9.49142740       8.72364982
Hf       9.72971699       9.04895278      11.04538205
Hf       9.36496286      11.34396181       8.98493899
Hf      12.36599436      12.13151345       8.49848055
Hf      12.38575995       7.92471677      10.68384598
Hf      14.35632964       9.70555818       9.28158339
Hf       7.50857377      10.81730855      11.15858672
Hf      10.18415155      12.03362647      11.84103736
Hf       7.90835244      13.48229013      10.29272605
Hf      11.71709723       8.96811502      13.29595966
Hf       8.82958809      10.36725107      13.71794567
Hf      14.45665092       8.60896403      12.23936596
Hf      14.91466441      12.59519642       9.62728518
Hf       7.50562020      12.97391990      12.95040928
Hf      12.89973232      11.05236467      11.24879301
Hf      10.34724547      14.03868616       9.30458545
Hf      15.90582299      10.81440541      11.54951928
Hf      14.08023740      10.92474875      13.91685257
Hf       9.84993253      14.82682530      12.13441531
Hf      11.37151463      11.22860810      14.86234981
Hf      14.88086455      13.25125142      12.36630353
Hf      12.29886964      13.59918898      13.59208930
Hf      12.69517797      14.20539149      10.75804720
Hf       9.61628669      13.23184032      14.59196045
25
Properties=species:S:1:pos:R:3 config_type=qcd gap_pre_relax_energy=-211.99254303463462 gap_pred_energy=-212.09565584491813 gap_fmax_final=0.0009325432254076862 gap_converged=1 pbc="F F F"
Hf      11.07659745      10.59773421      13.95239461
Hf      12.65535743       9.36098001      11.70892531
Hf      11.25980632      12.40540330      11.52512651
Hf      10.82561885      13.37560339       8.78325303
Hf       8.37777257      13.24195406      10.53978032
Hf      13.44693592       8.05293357       9.23187487
Hf       8.79681334      12.10792538      13.17175254
Hf      10.69798480       7.82646097      13.35574219
Hf       8.36607679       9.36944225      13.87440965
Hf      11.32358406       6.56443439      10.82501570
Hf      12.48297799      10.97197189       9.04736352
Hf      10.68939111       8.66993013       9.11742818
Hf       8.37376336       7.44241319      11.53372533
Hf      12.36674515       8.98633700       6.77559988
Hf       9.14212340      11.05484431       8.99669478
Hf      10.57029261      11.30745109       6.57680732
Hf      11.59906198       6.41607685       7.76874718
Hf       8.34803078      13.23638895       7.46804666
Hf       9.81561072       9.92443723      11.56885737
Hf       6.97451200      10.48944448      11.45279393
Hf       9.02399687       6.33765355       8.88698527
Hf       9.45898560       8.29340912       6.60725590
Hf       6.38560540      11.67101129       8.85835568
Hf       7.65725039      10.61821211       6.54630605
Hf       7.35570656       8.74814871       8.89735968
25
Properties=species:S:1:pos:R:3 config_type=qcd gap_pre_relax_energy=-211.50992115612726 gap_pred_energy=-211.75027000113434 gap_fmax_final=0.0007554623112469701 gap_converged=1 pbc="F F F"
Hf      11.40328163      12.55455759      13.20496772
Hf       8.43319512      12.07132007      12.94044917
Hf      10.90818661      13.94399610      10.52006176
Hf      13.13513633      10.34697029      12.70311100
Hf      11.28151037      11.21096746      10.66915992
Hf       8.04327870      12.83608656      10.15909330
Hf      11.78453290       8.14559535      11.31698070
Hf       8.83168669      10.00897046      11.06775457
Hf      13.50349142      12.77314222      11.27829510
Hf       7.32441218       9.26008948      13.23685921
Hf      10.32594853       9.77764939      13.57846754
Hf      12.75818487      12.66130839       8.58805794
Hf      10.58810278       7.49007092       6.62142831
Hf       7.91682630       7.83361328       7.54002423
Hf       9.26878252       9.99487965       6.19731319
Hf      12.55635717       7.55954478       8.58111977
Hf      12.16862801      10.12691175       7.05198559
Hf       7.31949924      10.55375331       8.44411529
Hf       9.76520284       6.54289683       9.43078039
Hf      10.17528752       9.21218554       8.75924752
Hf      13.71377586      10.08334497       9.75094432
Hf       6.99860687       8.04346801      10.36920647
Hf       9.14572922       7.35025847      12.24986666
Hf       9.95158657      12.21232175       8.04100550
Hf       6.22709238      10.93441997      11.22802746
26
Properties=species:S:1:pos:R:3 config_type=qcd gap_pre_relax_energy=-220.65425746178644 gap_pred_energy=-220.91862563214653 gap_fmax_final=0.0008240200704321503 gap_converged=1 pbc="F F F"
Hf       6.88476845       9.11724233       8.27342271
Hf       8.41183391       6.87610930       8.11654711
Hf       9.03957329       9.05491649       6.09957812
Hf       8.02386041      11.62565756       8.18252871
Hf       6.21519754      10.71302663      10.73042651
Hf      11.02629755       6.97442786       7.32197614
Hf       7.40047839       7.69768475      10.73936698
Hf      10.04424675       9.34845781       8.56234697
Hf      10.50404152      11.61991280       6.66330780
Hf      10.47129112       7.00951840      10.26125967
Hf       7.96294610      13.12724791      10.58686753
Hf      12.02169992       9.37293902       6.37755402
Hf       8.86686055      10.21367093      11.09316967
Hf      12.95592977       8.42973938       9.08167584
Hf       7.20609644       9.28263545      13.19371880
Hf      10.54069480      13.09389111       9.17229504
Hf      13.07007210      11.43902576       8.24331899
Hf       9.46408832       7.70008992      12.80920357
Hf       7.67929261      12.00261083      13.06132724
Hf      11.57270874      10.72286178      10.57798285
Hf      13.04404449      13.07089884      10.76734762
Hf      10.39376774      12.96844954      12.24218819
Hf      12.26274834       8.58345335      12.28079452
Hf      10.06986952      10.33954074      13.78077420
Hf      14.28435926      10.41953232      10.86236102
Hf      12.75474075      11.36796756      13.09016855
26
Properties=species:S:1:pos:R:3 config_type=qcd gap_pre_relax_energy=-220.64322101609065 gap_pred_energy=-220.9278575435968 gap_fmax_final=0.000977328986051011 gap_converged=1 pbc="F F F"
Hf       9.24875068       7.18385190       7.80973871
Hf       7.22796257       8.98567972       8.64444701
Hf      11.26891960       6.79281496       9.65346538
Hf       8.66662299       7.40794034      10.81063563
Hf       9.07501917       9.75585713       6.59801992
Hf      11.78138414       8.67942464       7.33205025
Hf       8.64013684       8.60823395      13.51714481
Hf       7.57921997      10.17714719      11.26440349
Hf      10.01544646       9.49831191       9.27486585
Hf      11.29192727       7.43847543      12.61996392
Hf      13.01656635       8.87255763      10.40520831
Hf       8.26887180      11.84115380       8.61612780
Hf      10.90449073      11.93126619       7.35492832
Hf      10.95063357       9.64421156      14.76500435
Hf      13.26466822       9.61956774      13.16998026
Hf      10.59603982      10.01485469      12.04108861
Hf      13.33234036      10.93153709       8.44136067
Hf       8.92498451      11.58870427      13.73149298
Hf       8.09536119      12.99606174      11.17443019
Hf      11.05434256      12.10792677      10.32663684
Hf      12.02223352      12.23492531      13.60023241
Hf      13.85039621      11.76164279      11.16124067
Hf      10.05071345      14.06118106      12.52412887
Hf      12.89089050      13.63862827       8.80471092
Hf      10.10919908      14.51243379       9.55809636
Hf      12.53073784      14.37346948      11.45845686
27
Properties=species:S:1:pos:R:3 config_type=qcd gap_pre_relax_energy=-229.98242827716197 gap_pred_energy=-230.1951742569296 gap_fmax_final=0.0008742205071913382 gap_converged=1 pbc="F F F"
Hf      13.71920448       8.89724777      12.55638945
Hf      11.99994577       6.70287781      12.07704781
Hf      11.09490299       8.77320910      13.94806681
Hf       8.25721197       9.38722750      13.80039814
Hf      13.43224405       7.98696435       9.73914856
Hf      12.35149360      11.39180137      13.13747402
Hf       9.07792734       7.51013449      11.83488924
Hf       9.93637118      11.41930374      14.69180218
Hf      13.76666222      11.04189458      10.52991014
Hf      11.29080070       9.22471331      11.05635786
Hf      10.74501572       6.71875452       9.60820352
Hf      12.04258775      13.27745522      11.05950166
Hf       7.43617016      12.01924850      13.61372920
Hf       9.66554556      13.80777762      12.84473800
Hf       9.45148972      11.34015881      11.64880524
Hf      10.87890067      11.02324838       8.83335708
Hf      11.40095243       8.48837070       7.41297674
Hf       8.70498356       8.75779510       9.12795121
Hf       9.70078037      13.82339557       9.70296457
Hf      13.68232527      10.23645903       7.84504356
Hf       6.91683343      10.12919072      11.33427316
Hf       7.27444227      13.19882800      11.16267878
Hf      12.64734237      13.04043238       8.16687867
Hf       9.16674789      10.21335620       6.60236487
Hf      11.78968783      11.11778071       6.08057256
Hf       7.84834117      11.65152130       8.78840342
Hf       9.86630590      12.96606960       6.94128988
27
Properties=species:S:1:pos:R:3 config_type=qcd gap_pre_relax_energy=-229.72397478283526 gap_pred_energy=-230.18872738138506 gap_fmax_final=0.0009635842327795829 gap_converged=1 pbc="F F F"
Hf      10.55311066      13.75438623       7.59950749
Hf      12.63411499      14.47221134       9.23121543
Hf      14.23027168      12.60817474      10.26830849
Hf      13.09013392      12.03707616       7.49877579
Hf      10.22910753      11.11456370       6.93748844
Hf       8.46420276      12.27591959       9.07285356
Hf       9.99038828      14.54766484      10.45557906
Hf      12.46121050      14.04086795      12.18936830
Hf      11.81929465       8.97928110       8.02260181
Hf      13.83273063       9.85881079       9.94245594
Hf      11.37034767      11.77111117       9.52253041
Hf       7.82329246      13.16478371      11.83902384
Hf       8.81932081       9.27856362       8.70808822
Hf      10.25688060       6.74444783       9.30318117
Hf      13.40327393      11.22105569      12.69644423
Hf      13.34540748       8.34413277      12.51487357
Hf       8.72601314      11.54861741      14.19287774
Hf       9.79860447      14.26009822      13.44885318
Hf       7.69670048      10.37122601      11.36271435
Hf      12.83617173       7.11191675      10.14162349
Hf      10.43885810      11.81052229      12.10796975
Hf       8.25355941       7.52951413      10.99363512
Hf      11.59709348      12.46585550      14.62677196
Hf      10.81173075       9.10163648      10.91998995
Hf       8.79248932       8.67723238      13.39148713
Hf      11.32006495       9.60801485      14.12335456
Hf      10.83304015       6.72972927      12.31584155
28
Properties=species:S:1:pos:R:3 config_type=qcd gap_pre_relax_energy=-239.15223571313575 gap_pred_energy=-239.4495355241788 gap_fmax_final=0.0007915422721313631 gap_converged=1 pbc="F F F"
Hf      10.05162608      10.06846977       6.07961301
Hf      12.54595031       9.97174905       7.46518587
Hf      11.02258035      12.56638148       7.42134578
Hf      13.65920185      12.30110180       9.19090909
Hf      14.72878234       9.52711431       9.30397664
Hf      10.15706981       7.97407827       8.09947416
Hf       8.11155027      11.93031688       6.67208831
Hf      12.79179757       7.57412326       9.15195298
Hf       7.63550776       9.21624212       7.31992246
Hf      14.83136412      10.92877055      11.65536785
Hf       9.49999198      10.69675422       8.96003840
Hf       8.55284176      13.58130624       8.77581066
Hf      10.86306104      13.21386530      10.35238078
Hf      12.18138853      10.28433787      10.46494418
Hf      13.03053245      12.93625135      12.01371886
Hf      13.62078448       8.25567271      11.82852436
Hf       6.72379286      11.28582355       9.20822157
Hf       8.03148966      12.86368148      11.54554479
Hf      12.72189449      10.64573105      13.64440155
Hf      10.54704062       7.55631684      11.01871333
Hf       9.69621037      10.44735558      11.98838703
Hf      10.41479465      12.79364724      13.47467725
Hf       7.82192001       8.41463066      10.12988214
Hf      11.28601862       8.18660386      13.61716270
Hf       6.63117356      10.30361911      11.88757626
Hf      10.15836639      10.25525694      14.96816056
Hf       7.87406388      11.38273507      14.04003446
Hf       8.37775769       8.40661696      13.29053847
28
Properties=species:S:1:pos:R:3 config_type=qcd gap_pre_relax_energy=-238.69158424972753 gap_pred_energy=-238.97850690938273 gap_fmax_final=0.0009402003241122372 gap_converged=1 pbc="F F F"
Hf      15.91719328      10.69980221       9.96792330
Hf      15.23315021       9.39578413      12.28218201
Hf      15.53500137      12.38694711      12.34609687
Hf      13.70905744       8.72042096       9.89980227
Hf      13.83610305      11.12283768       8.12709311
Hf      14.96866579      13.30580125       9.51791837
Hf      12.68885459       7.91847897      12.72234195
Hf      13.28746763      11.45705363      11.00362563
Hf      13.41997394      10.51236416      14.13404495
Hf      11.27794048      10.07361644       8.87776164
Hf      10.99595571       7.64205158      10.34107545
Hf      13.30599581      14.58806368      11.46593711
Hf      10.95327038       9.09885986      14.77834709
Hf      11.88321745      13.36416849       9.00991723
Hf      10.84883767      15.84393091      10.76248714
Hf      13.23913091      13.32222520      13.92006043
Hf       8.57317976       9.36783818      10.60405582
Hf      10.94109809      10.11271135      12.01809740
Hf       8.92246128      14.34925032       9.44429794
Hf      10.87960167      15.00993926      13.62096316
Hf      10.53495496      13.03740324      11.62526853
Hf       9.65163086       7.70784091      12.76084571
Hf       9.15682579      11.75773395       8.96626172
Hf      10.87756764      11.96898394      14.70036831
Hf       8.43580065      15.13826718      12.04255925
Hf       8.50480127      10.31347817      13.52358530
Hf       7.68008770      12.32029476      11.32652251
Hf       8.49718869      13.21886655      13.96557384
29
Properties=species:S:1:pos:R:3 config_type=qcd gap_pre_relax_energy=-247.71001533461438 gap_pred_energy=-248.01810644788165 gap_fmax_final=0.0009957903616320141 gap_converged=1 pbc="F F F"
Hf      12.42881665       8.98855385       7.91773843
Hf      13.74912839       8.23460119      10.48778891
Hf       9.57448264       8.85690676       8.47962376
Hf       9.79761664      10.80770305      12.32958982
Hf      15.21166310      13.13495627      13.08464396
Hf      12.98663424      12.24212428       8.03661875
Hf       7.69071493       9.35383783      13.87238693
Hf      12.40471188       9.10779106      12.96808408
Hf       9.88855782       7.87484716      13.26932259
Hf       6.86465227      11.16627045      11.90937466
Hf      14.76622836      10.55808455      11.97190219
Hf      14.20787978      15.35302216      11.70863717
Hf      10.55288804      13.25433866      14.09416695
Hf       8.71425822      13.46423060      11.76330502
Hf      13.02122196      11.61104203      14.35092080
Hf      12.89712981      14.81486565       9.39039827
Hf      10.26757456      10.22521749      15.04554599
Hf      13.01305458      14.57636758      14.09870293
Hf       8.19347751       8.69697867      11.02997833
Hf      11.24674794      15.35509344      11.80002933
Hf       8.02703225      12.08165100      14.30749946
Hf       8.37731752      11.31661620       9.50804761
Hf      10.46347977      13.39345024       9.41941543
Hf      12.55723777      12.86169447      11.74857731
Hf      15.04010229      12.97429691      10.15532762
Hf      11.76373777      10.50019778      10.10732915
Hf      11.02113279       7.66749861      10.59800719
Hf      14.76534381      10.29762225       9.06120857
Hf      10.47045607      11.19341918       7.44910813
29
Properties=species:S:1:pos:R:3 config_type=qcd gap_pre_relax_energy=-247.67065027530433 gap_pred_energy=-248.08461421554296 gap_fmax_final=0.0009571397776988029 gap_converged=1 pbc="F F F"
Hf      11.21034739      11.93659318       6.57004515
Hf      13.46517150      11.89593122       8.57861692
Hf      11.20759888      13.50826143       9.35714860
Hf       8.77176314      13.33821251       7.62453514
Hf      13.50261589      12.76242478      11.21519184
Hf       8.33283212      11.00798209       6.10874594
Hf      10.33712503       9.10178134       6.15321079
Hf      12.56043463       9.30420251       7.88621587
Hf      12.93411866      10.83420732      13.18588785
Hf       9.66727177      10.83282483       8.55444372
Hf      14.18715966       9.83168896      10.64320415
Hf      11.64032064      10.77986849      10.64706046
Hf      10.80294858      12.84868726      12.53515185
Hf       8.40151482      13.17816238      10.54396535
Hf       8.08970261      12.23676872      13.47577496
Hf      12.96743693       7.20993247       9.75030644
Hf      10.19924385       8.33000636       9.89223093
Hf       6.83783440      11.21155470       8.70047319
Hf      10.68285758       6.60383754       7.86350177
Hf       8.82749197      10.45093611      11.43302501
Hf       7.98547163       8.41002448       7.65043276
Hf       6.16335989      11.43436730      11.53779462
Hf      10.14873793      10.10532958      13.90680408
Hf      12.00470638       8.16914693      12.32399146
Hf       7.13789873       9.53362653      13.43849985
Hf      10.85046323       5.77972752      10.80114255
Hf       8.30695454       6.24773903       9.68141882
Hf       6.81408773       8.64734218      10.51427125
Hf       8.95913061       7.46543298      12.42350938
30
Properties=species:S:1:pos:R:3 config_type=qcd gap_pre_relax_energy=-256.5710758866525 gap_pred_energy=-256.7894978312956 gap_fmax_final=0.000967726066746961 gap_converged=1 pbc="F F F"
Hf      14.32484660       9.78001399      12.31160569
Hf      14.72062823       8.85739138       9.55581692
Hf      13.38951946      13.03317687      12.45766422
Hf      13.75262132      11.48738564       9.91214051
Hf      13.17064177      14.24944082       9.79772302
Hf      13.98479621       6.93490609      11.47538113
Hf      11.68631352      10.74294090      13.27122947
Hf      11.57361170      15.32337238      11.85162099
Hf      12.28848463       7.93892757      13.41377849
Hf      12.81010223       6.85959693       8.91866778
Hf      12.38180341       9.61935569       7.86483630
Hf      11.55183464      12.50685368       7.99427750
Hf      12.00290949       9.07734380      10.70073316
Hf      10.71395083      13.41674405      13.65959174
Hf      11.01063111      12.52867783      10.85561801
Hf       8.79314896      14.27218800      11.57893670
Hf      10.47714773      14.97553122       9.28276717
Hf      10.11764697       7.68639036       8.69974034
Hf       9.52650615      10.38901113       7.31898001
Hf       9.61598166       8.57823134      12.58083884
Hf      11.06427985       6.37088179      11.22437771
Hf       8.62781690      12.86888397       8.93232620
Hf       8.76728621      11.52983694      12.71336761
Hf       8.58984421       9.99744687      10.04830467
Hf       7.47804935       8.29688696       7.89933051
Hf       7.84772963       7.23797882      10.60945434
Hf       6.87187491       9.39903405      12.37825797
Hf       6.69504107      11.02071786       8.02151033
Hf       6.51130602      11.88627430      10.81782653
Hf       5.68990880       9.17084235       9.88955970
30
Properties=species:S:1:pos:R:3 config_type=qcd gap_pre_relax_energy=-256.7970227643986 gap_pred_energy=-257.10757688411144 gap_fmax_final=0.0008397234084035784 gap_converged=1 pbc="F F F"
Hf      14.33600309       9.12785328       9.01010957
Hf      12.44644735      10.72842034       7.29748438
Hf      10.07037394      12.43750751       6.37704972
Hf      13.71106382      12.04337818       9.74722578
Hf      11.83320283       7.82986020       7.99839368
Hf      12.19852857      13.63816235       7.81881685
Hf      14.39917488       9.83229713      11.75470512
Hf       9.45339479       9.70104152       6.96894348
Hf       8.90937261       6.98555200       7.75412628
Hf      12.94679778       7.29665139      10.96828841
Hf       9.50208685      14.41542433       8.32748025
Hf      12.03217488       9.80605793      10.36025519
Hf       7.72847359      11.90408847       8.13037150
Hf      10.56691255       6.03877660       9.80715615
Hf      10.37225280      11.85688030       9.15683111
Hf      10.00291204       7.20868693      12.31734939
Hf      11.39484337      14.14498397      10.61312305
Hf       6.90864671       8.91313753       8.66563885
Hf       9.40276554       8.85943770       9.86088312
Hf       7.84670911       6.54327511      10.35321601
Hf      12.57725466      12.06332319      12.59429484
Hf       9.85725731      10.91639491      12.00396715
Hf      12.04411804       9.20093820      13.42702730
Hf       8.37552993      13.51278495      10.84222635
Hf       6.90307493      11.08957854      10.74077980
Hf       9.17866613       9.15244563      14.34349844
Hf       7.42386960       8.78153775      12.15160582
Hf      10.05323769      13.65355236      13.16332988
Hf      10.58419865      11.46993540      14.72046212
Hf       7.80258222      11.70996251      13.58728661
31
Properties=species:S:1:pos:R:3 config_type=qcd gap_pre_relax_energy=-265.5542681998784 gap_pred_energy=-266.02798333666846 gap_fmax_final=0.0009269136145723071 gap_converged=1 pbc="F F F"
Hf      13.24106093       9.09700013      12.57477327
Hf      13.58267976       7.24358543      10.33769779
Hf      11.26300147       6.56018218      12.06754876
Hf      10.77809635       8.93366782      13.82824866
Hf      13.91498961      11.83409318      12.00631077
Hf      11.81032358      11.74228034      14.10494950
Hf      13.90851189      10.06756425       9.74512056
Hf      11.34070979       6.22986223       9.08587828
Hf      11.17221468       8.76613377      10.52259622
Hf      12.63188173       8.41142941       7.63739021
Hf       8.38967189       8.08712062      12.57640814
Hf      10.91136820      11.46595666      11.52470403
Hf      12.21407961      13.95415768      12.14496236
Hf       8.75349035      10.94545699      13.59646074
Hf       8.70025352       6.83366561       9.96260155
Hf       9.69477909      13.61730724      13.10910258
Hf       6.25046533      10.29388845      12.26366563
Hf      13.04932411      11.25698874       7.13525874
Hf      10.56158129      10.74166653       8.57547192
Hf       8.35443142       9.91938424      10.25144247
Hf       6.13450813       8.12897900      10.62350802
Hf      12.74826407      12.89102865       9.44658694
Hf       9.70840706       8.00825752       7.31466014
Hf       7.60069602      12.65461294      11.33308119
Hf       6.95074376       8.33525038       8.03539085
Hf      10.08304550      13.90096696      10.05759674
Hf      10.89082445      10.18029335       5.79307723
Hf       5.92550371      10.80826606       9.32821904
Hf      10.54037372      12.89417170       6.95488480
Hf       7.97616362      12.84170320       8.50002068
Hf       8.19863878      10.63516216       6.84246561
31
Properties=species:S:1:pos:R:3 config_type=qcd gap_pre_relax_energy=-265.81614845857604 gap_pred_energy=-266.21810760989354 gap_fmax_final=0.0008948353376337579 gap_converged=1 pbc="F F F"
Hf      14.51373550      11.36189458      14.91039970
Hf      13.75006242      14.16233166      14.42394575
Hf      12.20608755       9.75323954      15.49802480
Hf      11.79749129      12.64212682      15.88517747
Hf      15.63602749      10.29684907      12.31990894
Hf      11.19480159      15.23966937      14.64375400
Hf       8.52124572      12.13802497      12.09763158
Hf      12.86442182      10.57022022      12.71360887
Hf      14.53821629      13.07326295      11.85369576
Hf       9.78551979      10.43578356      14.05319458
Hf      12.69551480      15.38064384      11.98612755
Hf      11.36309224       8.06242685      13.26846849
Hf      14.27014273       8.55368015      14.07008822
Hf      11.40808831      12.92628668      13.06731564
Hf       9.12444423      13.32115452      14.66129271
Hf      10.97472076       7.32232964      10.56733666
Hf      13.67537901       8.26657771      11.17821119
Hf       8.54912117       8.67443494      11.74852391
Hf      14.21353598      10.97516707       9.90080905
Hf       9.60157486      14.98198596      12.15489217
Hf      11.05429526      15.61529206       9.69587113
Hf      10.56057166      10.23058575      10.83835177
Hf       9.28831684       8.59549124       8.85620691
Hf      11.74332573      12.77528623      10.10001873
Hf       7.85734419      10.78425162       9.70026747
Hf      12.16974688       9.16726146       8.59388662
Hf      12.93754390      11.84626107       7.52714814
Hf      13.70946720      14.32053687       9.07890773
Hf       8.95953908      13.54636189       9.45610763
Hf      10.06954473      11.23368670       7.80728055
Hf      11.17191746      13.95173152       7.54838279
32
Properties=species:S:1:pos:R:3 config_type=qcd gap_pre_relax_energy=-274.95307155619133 gap_pred_energy=-275.1831537716787 gap_fmax_final=0.0009689187529052674 gap_converged=1 pbc="F F F"
Hf       6.26183316       9.50686888      11.65238213
Hf       8.96898231       6.72093555       8.68174726
Hf       6.59061738       8.41603530       9.01393438
Hf       7.17896747       6.74422307      11.12531196
Hf       6.22728807      12.45424418      11.90319854
Hf       6.57896735      11.38377527       9.19077208
Hf       7.55594401      10.93750609      13.78254530
Hf      11.80179386       7.39933379       9.75049072
Hf       9.22418518       8.73406329      10.57624976
Hf       8.65666013       9.57792529       7.59227456
Hf       9.85853515       6.12923733      11.48281428
Hf      10.31410757      10.78591674      13.69456276
Hf       7.81862255      13.96395473      10.20808916
Hf       8.79531525      11.43090304      11.00773253
Hf       8.53820492       8.17290451      13.30201974
Hf       8.90420028      13.41301565      12.94809984
Hf      11.53056285       8.22153296      12.64903629
Hf      12.06122208      10.98115834      11.24104109
Hf      10.69465959      13.70458254      10.43035437
Hf       9.20299909      12.51223172       8.08464695
Hf      11.38647101      10.32134015       8.64239976
Hf      10.61210267      11.01429665       6.01005727
Hf      13.86542209       8.52837725       8.29920313
Hf      13.17790792      10.35961517      13.76613361
Hf      11.34052800       8.22290979       6.82549776
Hf      12.25345899      13.11022558      13.01177252
Hf      14.12869409       8.99596430      11.22343282
Hf      13.45514504      13.58484119      10.37115242
Hf      12.22124281      12.91426387       7.75073022
Hf      13.29935703      10.50476767       6.46276515
Hf      14.76151453      11.76369785      11.97568314
Hf      14.47171690      11.22658157       9.08109783
32
Properties=species:S:1:pos:R:3 config_type=qcd gap_pre_relax_energy=-274.3037574615523 gap_pred_energy=-274.8363481794853 gap_fmax_final=0.0008436834543701916 gap_converged=1 pbc="F F F"
Hf      11.27742345      14.71065506      10.57337620
Hf      10.83150986      14.41491731      13.49349224
Hf       8.71016608      15.37789114      11.92733135
Hf      12.42131734      12.19131895      12.48706812
Hf       8.61048398      14.58458821       9.35151081
Hf      12.89751791      12.28543972       9.62597924
Hf      10.64199318      13.29065254       7.82492823
Hf      14.61191657      10.21559503      11.64975295
Hf      14.91587583      10.39919525       8.70226045
Hf       9.53790467      12.64203940      11.54586101
Hf      10.35241612      11.65480435      14.48742689
Hf       6.81511633      13.14648139      11.23894550
Hf       8.12130075      13.55921508      13.93996983
Hf      12.49335166       9.46618760      13.86900863
Hf      12.42362131      10.81872400       7.13742737
Hf      15.02955654       7.85489898       9.88284648
Hf      13.64584592       8.11956378       7.49112816
Hf      10.34294869       9.78369607      12.01272606
Hf      12.51168635       9.25945165       9.93939889
Hf       9.71258439       8.80828067      14.59532456
Hf       7.67633790      12.12908870       8.26800464
Hf       7.71636510      10.76094392      13.39043065
Hf      12.35723147       6.48843275       9.69358183
Hf       9.61061647      10.94524720       6.36620598
Hf      13.65746216       7.48901528      12.17587118
Hf       7.35637994      10.17280284      10.53401855
Hf       8.01950475       9.24432804       7.87604669
Hf      10.87910695       7.01961945      12.54604358
Hf      10.77485116       8.33721610       7.41125039
Hf      10.06943154      10.82777021       9.15798773
Hf       8.11702969       7.99883986      12.47314577
Hf       9.47892644       7.62088000       9.94943054
33
Properties=species:S:1:pos:R:3 config_type=qcd gap_pre_relax_energy=-283.85669171868693 gap_pred_energy=-284.1683864091277 gap_fmax_final=0.0007919525055099421 gap_converged=1 pbc="F F F"
Hf      13.17439289      11.94737674       8.53830001
Hf      11.68679646      10.22667074       6.56002083
Hf      10.25754091      13.05956520       8.23220326
Hf      13.97724464       9.17790827       8.12830366
Hf       8.86667491      11.12185382       6.16770714
Hf       9.95364174      14.96415995      10.60293931
Hf      14.90307102      10.36985868      10.33498418
Hf      12.54535099      14.59029241       9.47370530
Hf       9.45373454       8.39249851       6.35491187
Hf      11.68191310       7.60734874       7.99050219
Hf      14.17576732      12.94561297      11.37397371
Hf       7.35554242      12.10342028       8.27242009
Hf      11.38202197      12.48845162      11.12427443
Hf       9.64184241      10.21129266       8.67678628
Hf      12.28215601      15.05613825      12.22584381
Hf      13.83489524       7.79273788      10.94372559
Hf      12.60691648      12.84123267      13.86153921
Hf       9.88258493      13.70356751      13.24170655
Hf       8.46692003      12.47594892      10.86091590
Hf      11.97481568       9.66261075      10.32630802
Hf      13.53692545      10.21985301      12.81711220
Hf       7.08525198       9.26456586       7.80930473
Hf       8.97968893       7.06952536       8.92829394
Hf       9.01367702       9.23524273      11.37268079
Hf      10.61506982      10.79613149      13.63166260
Hf       6.36282259      10.46774853      10.59765541
Hf      11.18862940       6.54395922      10.62660037
Hf       7.66400735      11.06629284      13.28526941
Hf      11.48797001       7.99526145      12.95632533
Hf       6.57870428       7.62257204      10.22395194
Hf       8.88576879       8.58234438      14.22994170
Hf       6.51982409       8.50274574      12.78617421
Hf       8.63244562       6.54981982      12.09856511
33
Properties=species:S:1:pos:R:3 config_type=qcd gap_pre_relax_energy=-283.69548471186505 gap_pred_energy=-284.1240040358511 gap_fmax_final=0.0009059730836442927 gap_converged=1 pbc="F F F"
Hf      11.33926601       8.96043394       6.36467667
Hf      11.40272687       7.90689669       9.10806720
Hf       8.85157138       9.29633248       7.87747312
Hf      11.01469438       6.47710073      11.67443694
Hf       8.61763376       7.88594269      10.56045271
Hf      13.69884758       9.58949489       7.88418817
Hf       9.78636828      11.33463876       5.97375175
Hf      12.58213026      11.51855213       5.97437787
Hf      13.42720224       7.88092910      11.39864449
Hf      11.24720671      10.90212620       8.49280788
Hf      12.01936108       8.04965696      14.04298198
Hf       9.15973334       7.59592179      13.45021348
Hf       7.09111140      10.32240040       9.89052278
Hf      10.82496758       9.26752627      11.76768934
Hf      13.40852051      10.64204531      10.56598383
Hf       8.19084181      12.32669198       8.20970071
Hf       9.66609553      11.79649781      10.79533774
Hf      14.20762328      10.13845552      13.31664524
Hf      13.71369327      12.49372984       8.36121235
Hf      11.81544874      11.86208848      12.90618306
Hf       9.26158051      14.52344946       9.66358450
Hf      12.46946000      10.51509520      15.63073416
Hf       7.76133433      10.01492525      12.59143465
Hf       9.81662509      10.10981409      14.78182226
Hf       7.25962428      12.97052011      11.13829639
Hf      11.01712496      13.57333899       7.50053430
Hf      14.43618266      12.87597846      12.03300777
Hf      12.07278490      13.92732158      10.44285065
Hf       8.48581253      12.45128745      13.80926099
Hf       9.87753028      14.38224260      12.43468967
Hf      13.89900654      12.69215686      14.81115502
Hf      10.99544862      13.08388368      15.27494941
Hf      12.62376119      14.67384425      13.31365283
34
Properties=species:S:1:pos:R:3 config_type=qcd gap_pre_relax_energy=-292.5583436315539 gap_pred_energy=-293.1955842589591 gap_fmax_final=0.00097683918471164 gap_converged=1 pbc="F F F"
Hf      11.77827287       8.66979366       6.59271640
Hf       9.91292778      10.77231463       7.30228006
Hf      13.51406287      10.28562638       8.47519327
Hf      12.23774267      12.50168837       7.01742458
Hf      11.05306621       6.16072225       7.77724314
Hf      13.38027638       7.44276070       8.65831270
Hf       8.97010080       8.03448809       7.16529973
Hf       7.16041421      11.35296158       8.05174765
Hf      14.11976475      13.16314655       9.10943819
Hf       9.39948816      13.49443416       7.80158908
Hf      10.78193383       8.74117769       9.30997756
Hf      11.61215615      12.15810693       9.82213367
Hf      13.21113168       8.84930377      11.17943018
Hf      11.89629535      14.85741230       8.55504827
Hf      11.61084359       6.32929545      10.69887477
Hf       8.91916810       6.43355432       9.56809354
Hf       8.86908741      11.53759534      10.38018867
Hf      12.66230561      14.44450216      11.25189081
Hf       7.56242941       8.93941641       9.68862751
Hf       9.43586073       8.80136822      14.72825521
Hf      11.90589970       7.68033195      13.64329903
Hf      13.84529648      11.80055873      11.77719360
Hf      13.89730969       9.81040510      13.81925649
Hf       6.10500725      11.35051865      10.74290855
Hf       9.66618985      14.71836360      10.46972860
Hf      11.13731844      10.36693480      12.85283941
Hf       7.04279664      13.75955651       9.54342817
Hf      10.45893735      13.27251665      12.75104759
Hf       7.58461240      13.29605277      12.28617961
Hf       7.89299744      10.45425283      12.98983999
Hf      12.56815928      12.28777006      14.47892151
Hf       9.41850684       7.99157144      11.95251360
Hf      11.84903490       9.80816174      15.72732173
Hf       9.75975468      11.65248573      15.05090666
34
Properties=species:S:1:pos:R:3 config_type=qcd gap_pre_relax_energy=-292.39450944839894 gap_pred_energy=-292.8260485337595 gap_fmax_final=0.0009861353070933973 gap_converged=1 pbc="F F F"
Hf       8.02504698       6.45365047      10.76160996
Hf      10.64295983       5.97052940      10.15620086
Hf      10.03282065       7.38420291      12.81108599
Hf       8.91456572       7.18177881       7.99411433
Hf       7.59641106       8.92700917      12.43376153
Hf       6.67051313       8.48569341       9.54115178
Hf       6.82519999      11.23348817      10.50697206
Hf       9.65029582      10.00856152      14.80275507
Hf       9.56493406       8.72882875      10.11944107
Hf      12.81265307       7.44240295      11.43410930
Hf      12.21760957       8.80400813      13.95499850
Hf      10.64204059       9.73416646       7.27530717
Hf       7.72812703      11.64680449      13.25947418
Hf      10.32261742      10.46002728      12.31224406
Hf      12.24920046       7.62507476       8.43638424
Hf       7.86656681      10.40006441       7.75784925
Hf       9.62436372      11.74560064       9.70901725
Hf       7.58405703      13.30925082       8.58916699
Hf      12.31155884      10.04416668      10.12492124
Hf       9.78065647      12.57185561       6.99621774
Hf      12.49400361      11.62147487      14.24344882
Hf      10.05753280      13.16415728      13.86608347
Hf      14.30763280      10.01623926      12.30417234
Hf      14.76808222       8.76045878       9.70149271
Hf       8.32026576      13.80744008      11.37707737
Hf      13.57236300      10.17104023       7.58322900
Hf      11.89570535      12.74156521      11.47591800
Hf      10.28821567      14.56927037       9.16721528
Hf      12.71858514      14.53423034      13.49318615
Hf      14.67003765      12.90369348      12.49990459
Hf      14.67084079      11.79428765       9.84575302
Hf      10.69767289      15.41901169      11.88490118
Hf      12.43701341      12.82446923       8.31995605
Hf      13.36061294      14.83625896      10.58164174
35
Properties=species:S:1:pos:R:3 config_type=qcd gap_pre_relax_energy=-301.643577532198 gap_pred_energy=-302.0554469257304 gap_fmax_final=0.0009309263976442091 gap_converged=1 pbc="F F F"
Hf       8.49498140      14.38176291      12.62148522
Hf      11.27145594      14.27369368      11.87749168
Hf       8.96657136      14.15325394       9.81211442
Hf       6.28858027      13.04561522      11.11710757
Hf       7.23031770      12.38459206      13.92201542
Hf      11.64622903      14.60779024       8.92866564
Hf      10.25959410      12.13007068      13.86122460
Hf      13.72760619      13.62822603      10.47015286
Hf       7.32482646      12.36787928       8.32839444
Hf      12.94710377      11.77793429      12.70853562
Hf       8.58234988      11.59827736      11.53893655
Hf      10.02982500      12.55177874       7.44435353
Hf       5.97393286      10.45151910      12.43600594
Hf       8.54925837       9.74358879      14.00408584
Hf      11.39372560      12.01045920      10.10624955
Hf      13.11863424      12.35909774       7.83081598
Hf       6.26969519      10.13954313       9.55330344
Hf      14.43742770      10.87246144      10.20642011
Hf       7.47565866       8.21093797      11.54712143
Hf      13.90358613       9.11223089      12.37457694
Hf      10.77876437       9.48656193      11.82014518
Hf      11.67342825       9.19248484      14.31988475
Hf       7.48653955       7.68098666       8.66699777
Hf       8.11083713       9.93406375       6.83742084
Hf      14.38543487       9.79066256       7.56177149
Hf      11.39841679      10.05016805       6.70660207
Hf      12.10983965       9.00792975       9.33274127
Hf       9.20312294       9.96206357       9.27498879
Hf       9.70288995       7.21667616      13.30665413
Hf      12.25720762       6.93783846      11.99957128
Hf      14.50890822       7.73220741       9.72143719
Hf      10.10229773       7.53695206       7.50957380
Hf       9.68538426       6.64045884      10.43546029
Hf      13.02497185       7.50959631       7.08711074
Hf      12.18320796       6.02324791       9.23319462
35
Properties=species:S:1:pos:R:3 config_type=qcd gap_pre_relax_energy=-300.7765067127467 gap_pred_energy=-301.829406974415 gap_fmax_final=0.0007061527708018296 gap_converged=1 pbc="F F F"
Hf       7.34619055      12.38106948       7.86108181
Hf      10.06952769      13.04956553       7.04741307
Hf       9.24273475      10.24591828       7.21453400
Hf      10.44497244       7.70426623       6.78730648
Hf      12.02223567      10.08003624       6.16342732
Hf       8.54696237      14.70033262       8.85791136
Hf       7.02539508      13.06350221      10.68197227
Hf       9.00121349       8.00144364       9.26366307
Hf       7.03445703      10.25602801       9.85105863
Hf      11.40279353      14.54695695       9.30926513
Hf      13.20402534       7.49732400       7.00630155
Hf       9.50070970      11.96693509       9.66742909
Hf      12.57153108      12.09703094       8.35037324
Hf      11.75600390       9.32219504       8.95350188
Hf      11.56846955       6.40825067       9.15232288
Hf      14.41781518       9.87966750       7.76242154
Hf       6.81575550       7.72095949      11.12104780
Hf      14.07928746       7.79116319       9.71746521
Hf      14.03962324      13.50430926      10.42393691
Hf       9.49186337      14.55585515      11.59085079
Hf       9.33651535       6.41881281      11.81753901
Hf       6.48722308      10.10546723      12.77258394
Hf       9.18442309       9.33433743      12.02447901
Hf      11.72057687      11.82764089      11.52691307
Hf      11.83200138       7.90866304      11.63465012
Hf      12.35449708      14.80132222      12.04634973
Hf      14.32614338      10.67969374      10.56068070
Hf       7.51495211       7.52341213      13.79962266
Hf       8.74381874      12.11473657      12.92077179
Hf      13.56855627       9.60223561      13.08318345
Hf      11.04803828      13.51822463      13.99595225
Hf       8.48098539       9.90683408      14.85140143
Hf      13.76214010      12.48599580      13.23440010
Hf      10.33872294       7.80849417      14.18418690
Hf      11.22269221      10.69417332      14.26685499
36
Properties=species:S:1:pos:R:3 config_type=qcd gap_pre_relax_energy=-310.9038044182322 gap_pred_energy=-311.4013475128944 gap_fmax_final=0.0008883339366879984 gap_converged=1 pbc="F F F"
Hf       8.84037949       8.19792518      14.44198241
Hf      10.28461724      10.81735869      14.55655189
Hf       7.16205949      10.28233495      13.30471983
Hf       8.66473213      12.79112671      12.82951006
Hf      11.64672083       8.09076906      14.34593003
Hf      10.98827063      13.69032969      14.33843233
Hf       9.99793673       6.30563896      12.72518699
Hf      13.20268460      11.83930083      14.24573521
Hf       7.55021608       7.66252583      11.82856866
Hf      13.31894897       9.57081366      12.49534486
Hf       6.24953341      12.32802252      11.30198523
Hf       8.42649097      10.55181665      10.64864966
Hf       5.64544063       9.64914483      10.83801404
Hf      11.46576627      12.08728383      12.05757284
Hf      12.54513985       7.03912131      11.56017060
Hf      10.65290176      14.86783129      11.60954940
Hf      10.33058340       9.09661224      12.09508666
Hf      13.27432803      14.28797919      12.80404586
Hf      13.15195019      14.29495072       9.90024556
Hf       6.69555663      11.26015388       8.59416646
Hf      14.33286117      11.94525654      11.40426853
Hf      11.11530222      12.24286217       9.20891064
Hf      14.04345520      11.56867985       8.46865482
Hf      12.03755275       9.37670282       9.44279615
Hf      14.74682541       8.79338642       9.99259892
Hf       7.31271513       8.40831442       8.97628095
Hf      10.58042474      15.05623648       8.68856665
Hf      10.04099827       7.10683673       9.76717377
Hf       9.32718450      10.10187989       7.83224700
Hf       8.45167604      13.45426687       9.80706203
Hf      12.97019687       6.73169001       8.76503374
Hf      11.79876986      10.87154920       6.58360890
Hf      12.41064028      13.67174666       7.10759742
Hf      13.89493482       8.89899590       7.25749889
Hf       9.52105827      12.96096745       7.01629265
Hf      11.18910745       7.96754888       7.02792063
36
Properties=species:S:1:pos:R:3 config_type=qcd gap_pre_relax_energy=-310.25210759789786 gap_pred_energy=-310.8656050175507 gap_fmax_final=0.0006684397498909149 gap_converged=1 pbc="F F F"
Hf       6.97385875       9.93297488      12.86294372
Hf       6.73338973       9.06501423      10.04467949
Hf       8.98439558       8.13823650      14.04071857
Hf       7.62862984       7.19950841      11.80607787
Hf       7.69772168      13.15891161      13.14324384
Hf       9.52707123      11.02043505      14.23210753
Hf       7.19522733      11.76060251      10.46374933
Hf      10.78707356      13.79193772      13.98646520
Hf       9.46435386       9.51167536      11.51729052
Hf      10.42552657       6.78432314      11.91222037
Hf      11.78011159       8.90720630      13.61667086
Hf       9.13407128       7.62037999       9.27947266
Hf       9.65129529      13.24988196      11.06470932
Hf       8.67029721      13.31705347       8.25019723
Hf      13.99302175       7.64547152      12.03898636
Hf      11.96050575       8.22309476       9.85785191
Hf       8.31734446      10.29400019       7.90492049
Hf       7.21709882      14.64580629      10.67038216
Hf      13.79785456      10.26203179      10.93585319
Hf      14.58618701      10.19885155      13.72715928
Hf      10.86003797       9.04566888       7.26813992
Hf       9.64811877      15.79910087       9.67630660
Hf      12.30752055      11.49761213      15.03101147
Hf       9.17613582      15.68608441      12.45854021
Hf      14.84601088       8.23980135       9.27977659
Hf      10.61762025      11.75570332       6.65337821
Hf      16.38060778       9.18062746      11.52779178
Hf      10.71989356      11.09848667       9.30648161
Hf      11.70814811      11.60487123      12.25895215
Hf      13.29142959      10.64140972       7.98918059
Hf      11.48759348      13.92444392       8.53007707
Hf      16.06535786      11.95563995      11.86554193
Hf      15.95875623      10.92554520       9.23078170
Hf      11.95632861      14.93836589      11.48386068
Hf      13.86357228      13.02177622      10.11139187
Hf      13.83449543      13.20412861      13.21975071
37
Properties=species:S:1:pos:R:3 config_type=qcd gap_pre_relax_energy=-319.33062140410027 gap_pred_energy=-320.2919535445922 gap_fmax_final=0.0009412291026238066 gap_converged=1 pbc="F F F"
Hf      11.32532994       6.42358308      12.69190678
Hf      13.57964776       8.16599639      11.75073341
Hf      11.19507308       9.07175259      13.87846533
Hf      12.00471920       6.30598524       9.89397875
Hf       8.65369254       7.78907363      12.97679980
Hf       9.31440174       5.99040549      10.75371875
Hf      13.50393883      10.81009467      14.30028746
Hf      15.50007535      10.67692598      12.13842413
Hf      10.70418388       8.60443790      10.94875907
Hf      12.44987047       8.92452504       8.58511030
Hf      12.93586835      10.90069019      11.10118482
Hf       8.58341529      10.70357034      14.34963197
Hf       9.84002574       7.49045990       8.37352073
Hf       7.52180102       8.26959326      10.23554730
Hf      10.95610782      11.19796771      15.79721964
Hf      14.11104674      13.21590129      12.82081280
Hf      12.49476864      13.37846040      15.31486963
Hf      15.08875786       9.69950208       9.57825295
Hf       8.97392043      10.82556924      11.30207446
Hf       8.69090953      10.23141434       8.35895624
Hf       6.57020022       9.82128775      12.54891249
Hf      11.01443823      10.36685592       6.42840961
Hf       9.51238399      13.64844773      14.79288467
Hf      11.06781363      12.19915921      12.98192460
Hf      14.95343589      12.57319176       9.96365662
Hf      13.73350858      11.31302706       7.45187058
Hf      11.69441367      15.08101701      13.36052473
Hf      11.15810229      11.91070485       8.86926857
Hf       6.41365023      11.08457684      10.10537497
Hf       7.28696967      12.69564696      12.54899157
Hf       9.16806161      12.60336132       6.79368074
Hf      12.13076765      14.07135351      10.72336110
Hf       8.39295208      13.13325666       9.58180227
Hf       9.43275558      14.58709460      11.90476904
Hf      11.81960851      13.07889424       6.11737758
Hf      13.33325248      14.13091856       8.13369161
Hf      10.54890405      14.68406976       8.20201748
37
Properties=species:S:1:pos:R:3 config_type=qcd gap_pre_relax_energy=-319.2130491889426 gap_pred_energy=-320.24419951038305 gap_fmax_final=0.0008921403146833009 gap_converged=1 pbc="F F F"
Hf      15.14270565      12.22798817      11.33934708
Hf      13.68560601       9.80418599      12.86634646
Hf      14.67564366       8.96403478      10.26634812
Hf      12.90817879      12.53059284      13.72413214
Hf      12.08032817      10.18976999      15.35622739
Hf      13.34502145       6.92292632      11.99137335
Hf      15.18383906      11.23798506       8.48458791
Hf      11.28029417       7.65940524      13.82719622
Hf      14.15137418      13.74344078       8.98393570
Hf      13.01864320      14.54455982      11.47734178
Hf      12.95938518       6.64304218       9.28049137
Hf      12.85428097      11.46411346      10.06963202
Hf      11.01638690      14.77670490      13.64463500
Hf      10.65783167      10.29656708      12.95062429
Hf      10.04093920      12.32823794      14.91870119
Hf      10.60148015       6.25725726      11.10840543
Hf      11.65376640       8.75328361      10.64377493
Hf       9.38459582       9.41230148      15.28503231
Hf      10.39939622      10.62907528       8.67065738
Hf      13.11466439       9.19380287       7.71537971
Hf      12.62838662      12.04421966       7.08862066
Hf      10.13133434      15.51476179      11.09340850
Hf       8.49780008       8.21258853      12.73574848
Hf      10.56260526       7.66964421       7.93566908
Hf      11.12153603      13.87664075       8.79443344
Hf       8.29934652      13.85176589      12.78316809
Hf       8.59279940      10.94850847      10.94331880
Hf      10.73586859      12.84301943      11.60402729
Hf       7.50344593      10.95855431      13.66279872
Hf       8.45434683       8.15532488       9.82727021
Hf      10.77379456      10.00054579       5.98524177
Hf       9.01841669      12.26919778       6.91442584
Hf       8.26140753      13.68795966       9.69553390
Hf       6.23747400       9.55582525      11.30572049
Hf       6.19748463      12.37655707      11.35869019
Hf       8.32167797       9.44512628       7.13758738
Hf       6.75209032      11.25466167       8.77434391
38
Properties=species:S:1:pos:R:3 config_type=qcd gap_pre_relax_energy=-328.2015233204996 gap_pred_energy=-328.7431917237755 gap_fmax_final=0.0008306107655840884 gap_converged=1 pbc="F F F"
Hf      15.45913735      12.09085543      13.36129744
Hf      14.46029360      14.05426010      11.32660219
Hf      16.02461192      11.74851364      10.62327251
Hf      15.23168228       9.31157646      12.41981832
Hf      13.11436059      13.75763776      13.87671297
Hf      13.72144167      12.49867057       8.80033185
Hf      12.13043866      15.71921449      11.85920048
Hf      13.17710238      10.12785937      14.28221109
Hf      11.30644032      14.46247715       9.16979765
Hf      13.39994200      11.38693574      11.63094114
Hf      14.54478843       9.71697422       9.23096590
Hf      10.46436792      14.86019672      13.91869781
Hf      13.12984257       7.09445446      13.49888699
Hf      10.65956790      12.38068973       7.14820913
Hf      14.43287618       7.18170055      10.74808421
Hf       9.33446201      15.28303072      11.08562179
Hf      12.02286469       8.73966533      11.65785230
Hf      11.14752213      13.08185501      11.75411315
Hf      10.70381563      11.88664595      14.52386149
Hf      11.43485543      10.65305863       9.41555817
Hf       8.92093251      12.28553273       9.83908151
Hf      12.72126473      10.25549427       6.99216740
Hf      10.40575388       8.77474067      14.43929434
Hf       8.03278842      10.48604870      14.35888064
Hf       8.29754740      13.16098089      13.23252415
Hf       9.64319356      10.44103274      12.05077268
Hf       7.97852321      11.50055345       7.09196179
Hf       8.22295036      14.28596539       8.17549519
Hf      12.05115774       5.92917324      10.91346908
Hf       6.78563042      14.05319113      10.85652936
Hf       9.95473397       9.40896304       7.37401364
Hf      10.24335263       6.54106772      12.77619858
Hf       6.67204780      11.15353361      11.76917372
Hf      12.37452424       7.78163313       8.62302854
Hf       6.19128311      12.17233932       8.98862296
Hf       7.97165189       8.29864984      12.44811081
Hf       7.66133882       9.60853083       9.49343373
Hf       9.74686587       7.60225152      10.02115958
38
Properties=species:S:1:pos:R:3 config_type=qcd gap_pre_relax_energy=-328.53103840583833 gap_pred_energy=-329.09219793512113 gap_fmax_final=0.0009585805456315882 gap_converged=1 pbc="F F F"
Hf      12.65708461      11.81066210       6.33058150
Hf      14.22971630      13.63950198       7.96515004
Hf      10.51157915      10.27769247       7.58193290
Hf      12.11651466      14.63573066       6.43150652
Hf      14.19187665      10.84229162       8.72103285
Hf       9.90506179      12.80971863       6.34936183
Hf       9.77287737       7.95849262       9.07969458
Hf      12.58964457       8.33926165       7.97655780
Hf       7.72776187      10.08552567       8.28218993
Hf      11.45497871      12.82463087       8.77098825
Hf      14.64411656      10.53757791      11.77516478
Hf      13.66369876      13.25272666      10.82021268
Hf       9.84548764      15.16711274       7.98956816
Hf      14.45190464       8.25334252      10.03566161
Hf      12.42466043      15.48332123       9.22900532
Hf      12.07460911       9.85015890      10.32723111
Hf      12.01261137       6.63483924      10.48458487
Hf       7.16828520       8.26601732      10.22327229
Hf       8.18713237      12.90129253       8.85271102
Hf       9.07576692      10.69883103      10.85365388
Hf      13.56447492       7.76365957      12.75589102
Hf       8.99245990       6.42500674      11.65105041
Hf      10.67630353       8.55423587      12.50705881
Hf       6.32747139      10.95506018      10.78186343
Hf      13.99862614      12.79917383      13.61129686
Hf      11.26813927      12.03243785      12.40892082
Hf      10.07368221      14.52816756      10.85666708
Hf       7.52933035       8.88041601      12.93595535
Hf       7.52905433      13.44896310      11.56651061
Hf      11.36640070       5.86260037      13.25351176
Hf      12.86557345      10.26378127      14.18450970
Hf      12.07025328      14.71433833      12.98057201
Hf       7.47144698      11.63946811      13.44941468
Hf      11.74422098       7.89572243      15.17982917
Hf       9.16066660       7.12828177      14.50571401
Hf       9.83628769      10.32744146      14.66098386
Hf       9.41015812      13.94398590      13.72593025
Hf      11.63334065      12.79179044      15.12751742
39
Properties=species:S:1:pos:R:3 config_type=qcd gap_pre_relax_energy=-337.4958428982397 gap_pred_energy=-338.06599090190963 gap_fmax_final=0.0007277845792407465 gap_converged=1 pbc="F F F"
Hf      14.36812971       9.89555394      11.01569205
Hf      14.66810831      12.87924181      10.03113478
Hf      13.83158353       7.43946355      12.52274010
Hf      13.91118048      12.11373195      12.69606349
Hf      13.30815928       9.91465803       8.23736730
Hf      13.23811915       7.39804431       9.66406332
Hf      13.17427970       9.84849065      14.12807584
Hf      13.30203246      12.75232083       7.44938933
Hf      12.56146287      14.35430366      11.97634828
Hf      12.72833843      14.82019584       9.16629498
Hf      12.02166436      12.05378180       9.97094596
Hf      11.33622263       6.15142770      11.68971399
Hf      11.63336070       9.06592373      11.73358690
Hf      11.63851260       7.45635269      14.23871305
Hf      11.62078893       7.83752130       6.66094856
Hf      10.64443685      11.90978398      12.47865059
Hf      11.19074278      10.97276893       6.53856026
Hf      10.52881243      13.86637072       7.55134498
Hf      11.08299571       5.78034386       8.76791300
Hf      11.82142217      12.68185820      14.81857814
Hf       8.81742676       9.80710719      11.17229276
Hf      10.01277864      14.49251455      10.37731283
Hf      10.46281720       8.67364442       8.94605682
Hf       8.55913355      12.35500121       6.22003790
Hf       8.76847217       9.42180694       6.41779825
Hf      10.23707065       9.95782186      14.68336940
Hf       8.70248817       6.65061271      10.39145410
Hf       9.23570208      11.50018464       8.86604402
Hf       8.95355537       6.74206944       7.41127482
Hf       8.94296723       7.67948351      13.20648000
Hf      10.03044919      14.57923937      13.31900569
Hf       8.92149625      12.52509622      14.72355515
Hf       7.91937802      12.97208391      11.87802139
Hf       7.13993415       8.59383918       8.81855975
Hf       7.56070334      13.66499497       8.68640351
Hf       7.36821668      10.39892526      13.46500237
Hf       6.56024474      11.13895305       7.60420169
Hf       6.52755095       8.28209373      11.65618781
Hf       6.31941433      11.02254289      10.47096937
39
Properties=species:S:1:pos:R:3 config_type=qcd gap_pre_relax_energy=-337.5816668059972 gap_pred_energy=-338.0756255294293 gap_fmax_final=0.0008762057123313103 gap_converged=1 pbc="F F F"
Hf      11.72557211      13.54835540      15.92533323
Hf      11.31884629      10.39597525      15.92749229
Hf      11.65001979      11.38711040      13.49619980
Hf      14.14653074      11.90768075      15.29080458
Hf      13.78640694       9.15517950      14.21316535
Hf      14.26610522      15.06513544      15.09082805
Hf      16.24776374      10.80726792      13.28814818
Hf      11.13931517       8.21998471      13.88800556
Hf      16.49746087      13.49029612      14.17548632
Hf      11.80372799      16.55958820      15.13287418
Hf       9.16550596      12.52988949      14.95978449
Hf       8.97715170       9.83261306      13.60385474
Hf       9.38258884      15.41728939      15.37123478
Hf      15.82569386      15.63390233      12.57524715
Hf      10.96425896      14.37918958      13.18736940
Hf       9.66168617       7.51493735      11.29940771
Hf       8.49191862      12.26754361      12.02521471
Hf      13.91419987      10.65507361      11.60800767
Hf      12.82376722       7.62261337      11.68149503
Hf      11.63884054       7.72928570       9.10165676
Hf      10.85843960       9.97144550      11.00102146
Hf      14.20142241       9.03209393       9.28690387
Hf       7.83649003       9.76693862      10.89412185
Hf       7.96546330      14.81324034      13.12268202
Hf      16.49048191      10.43453888      10.33106450
Hf      15.56761117       8.35175003      11.88586072
Hf      16.39564137      13.13070848      11.20858369
Hf      13.98866941      13.46369933      12.75362583
Hf       9.97680029      16.91897138      12.82670283
Hf       9.32913152       9.05200020       8.72849143
Hf      11.78640252      12.90198270      10.73816646
Hf      13.13812572      16.57016962      12.62482760
Hf      14.33405634      12.18905275       9.08728961
Hf       9.30939501      11.94841963       9.13317430
Hf      11.83527167      10.73598530       8.31257790
Hf      14.12377123      14.96331160      10.14866847
Hf      11.54131325      16.09789961      10.32481255
Hf       9.25004948      14.65511145      10.48207414
Hf      11.67047487      13.91014122       8.29411251
40
Properties=species:S:1:pos:R:3 config_type=qcd gap_pre_relax_energy=-346.51369823677965 gap_pred_energy=-347.35422711785975 gap_fmax_final=0.0007951653635864999 gap_converged=1 pbc="F F F"
Hf      10.16186537      12.40477726      15.46869834
Hf       7.42150354      11.63272496      14.88347273
Hf       8.41030568      14.00291800      13.62821004
Hf      12.04971594      10.06927728      15.63741150
Hf      13.10690508      12.38627249      15.04304153
Hf       9.35189654       9.48081202      15.01280170
Hf      11.43358599      14.05888761      13.26960130
Hf       6.64046547      12.16334022      12.20897980
Hf       9.38951830      11.54840126      12.73999462
Hf      11.79223481       7.90128335      13.83251514
Hf       7.15058547       9.31537410      13.06048687
Hf      14.38357676       9.92306678      13.93192304
Hf      10.70356743      15.65792949      10.74489292
Hf      13.38763878      15.30916775      11.35794555
Hf      12.22635591      10.81936294      12.58007219
Hf       8.58295958      13.68112769      10.71521649
Hf      14.37878174      12.89766919      12.62732183
Hf       9.03811849       7.03597192      13.51436064
Hf      11.87231128      13.01385169      10.45304030
Hf      10.11506850       8.98105983      11.55552702
Hf       7.86661571       7.19948821      11.05678334
Hf       7.38600016      10.02923245      10.19839206
Hf       9.84619633      11.16957806       9.06397233
Hf      12.63796232      15.13383517       8.65701985
Hf       7.42160711      12.48675989       8.32670921
Hf       9.89393952      14.23775453       8.21987811
Hf      14.65448963      13.29326963       9.66241468
Hf      15.10093684      10.57221129      11.02664450
Hf       7.93391516       9.94257314       7.28804445
Hf      13.29886587       8.08542821      11.39393376
Hf      10.69363668       6.33045564      11.21010160
Hf       9.44229654       7.99020253       8.83017802
Hf      12.37002078      12.33145201       7.38096986
Hf      12.72913562      10.19138668       9.33171449
Hf       9.46989087      12.09064847       6.32018397
Hf      10.80721646       9.53953031       6.70786074
Hf      15.25588985      11.06583334       8.04610729
Hf      14.94168390       8.44423240       8.99124887
Hf      12.27168464       7.44815879       8.57068714
Hf      13.60987614       9.36351426       6.68046296
40
Properties=species:S:1:pos:R:3 config_type=qcd gap_pre_relax_energy=-346.3596185349277 gap_pred_energy=-347.0694841396344 gap_fmax_final=0.0009728103234509332 gap_converged=1 pbc="F F F"
Hf      11.10750771      11.53372127      16.67928178
Hf      14.71690974       9.02054000      13.25265852
Hf      13.14543392      11.80321858       9.90654075
Hf      16.01786435      13.90403460      13.84410621
Hf      12.21118808      11.94956574       7.19942110
Hf      10.47417627      12.32241908      12.22578606
Hf      16.25753795      12.12425481       9.67040782
Hf      15.51210537      11.23316177      15.10681724
Hf      12.12781549       7.76514989      13.75521689
Hf       8.85759503      11.18456664      14.48380599
Hf      12.60921594       9.38759002       8.41617177
Hf       8.81627231      13.83858456      10.43021029
Hf      10.20640844      13.83929671      15.00450541
Hf       8.00423355      11.25833328      11.52182788
Hf      10.36876156       8.91214374      15.56664327
Hf      14.82348010      10.88669146       7.60967818
Hf       9.52115203      15.82074943      12.79109951
Hf       9.76964139       9.19239947      12.66055995
Hf      16.85215457      11.06052638      12.40937903
Hf      14.56766681      15.97283769      15.63924973
Hf      11.79367152      17.58412407      12.17060917
Hf      10.39318501      16.34392337      10.13789831
Hf      10.30316984      11.11894088       9.45303044
Hf      13.76494184      11.74051152      17.43923836
Hf      12.54156320      14.41789773      17.22223339
Hf      13.26610960      13.37807286      14.80323668
Hf      14.35894956      13.72636089       8.08611063
Hf      13.25105494      16.35516483      10.00123204
Hf      15.16976823       9.57792521      10.28434208
Hf      12.18130955      14.70819034      12.13836004
Hf      15.02400915      14.29651353      10.95087279
Hf      15.45207234      13.69844544      16.73532628
Hf      12.04471105      10.62912734      13.97775562
Hf      14.38069162      16.44921637      12.80594347
Hf      11.51395684      14.04283034       9.06719272
Hf       7.90925693      13.51278404      13.14610675
Hf      12.33820729       9.15912171      11.23082582
Hf      14.30443970      11.84290448      12.45680629
Hf      11.89368455      16.26823638      14.73762271
Hf      13.23556427       9.22736118      16.06932671
41
Properties=species:S:1:pos:R:3 config_type=qcd gap_pre_relax_energy=-355.6417340224013 gap_pred_energy=-356.40185875034456 gap_fmax_final=0.0009123880733950745 gap_converged=1 pbc="F F F"
Hf      14.47693142       8.30531643      13.03999361
Hf      15.24601467       8.10190983      10.19047856
Hf      12.85371361       6.94066204      10.91697627
Hf      16.23858523      10.43407145      11.51663667
Hf      14.84144180      11.38445089      13.97909591
Hf      12.64428333       9.89483314      14.99101840
Hf      11.43677530       8.08253240      13.17435208
Hf      16.34798672      13.26893549      12.35407226
Hf      12.65866740      12.61484737      15.44747568
Hf      12.96659157       8.68584799       8.37801041
Hf      13.02851466       9.72882811      11.11439492
Hf      15.38266016      10.50812681       8.57008189
Hf      10.50833702       8.29019812       9.87629848
Hf      13.89661517      14.25155700      13.33168138
Hf      16.87140250      12.74559506       9.74252598
Hf       8.96938786       7.09845572      12.04258690
Hf       8.87776853       8.56312555      14.54561249
Hf      14.10653830      12.42655675      10.53023896
Hf      10.01773795      11.36972368      14.84668493
Hf      12.07655335      11.93198760      12.74999903
Hf       9.23046458       9.91119423      12.06001350
Hf       7.14103867      11.04262322      14.23715163
Hf      15.01689885      15.00206078      10.32088314
Hf      15.03132219      13.34724254       7.83310973
Hf       8.21862529      13.81004855      14.86440225
Hf      10.38647856       9.96143331       7.50950385
Hf      12.85293236      11.52136937       7.13969691
Hf       6.65397264       8.55614712      12.74453164
Hf      10.88397910      14.41668561      13.96709519
Hf      11.28868837      11.74431065       9.68164532
Hf       7.60068981       8.68487079      10.04605125
Hf      12.01114451      14.90764394      11.28607267
Hf       8.91223381      12.77769627      12.26581978
Hf      12.43526111      14.28280611       8.44606070
Hf       6.18044480      13.57329791      13.00211913
Hf      10.20411530      12.71991534       7.29044126
Hf       8.37096696      11.47666047       9.22686160
Hf       8.33572844      15.43922329      12.42060470
Hf       6.29742710      11.09799194      11.33431071
Hf       9.65079982      14.32622164       9.70608422
Hf       6.93901501      13.86172930      10.36805985
41
Properties=species:S:1:pos:R:3 config_type=qcd gap_pre_relax_energy=-355.150674796436 gap_pred_energy=-356.0586583595751 gap_fmax_final=0.0009181376664364224 gap_converged=1 pbc="F F F"
Hf      13.62616987      12.70739461       7.72491888
Hf      10.07963523       8.92144319       8.19595117
Hf      11.02401225      13.32564318      11.44778502
Hf      12.09676668      15.19671891       8.29312609
Hf       8.96030423      10.78360257      15.45967140
Hf      11.07937082       8.44205770      11.23427102
Hf       9.87681323      15.31347720      12.87189308
Hf      13.82548521      12.00996565      15.03828534
Hf       9.16230584      11.51481791       6.56836030
Hf      12.27978540       5.79618650      11.08283550
Hf       6.62609785      11.00827820      10.95493689
Hf      15.58151332      13.01267492      12.83267765
Hf       8.45739919      12.43099446      13.12097517
Hf      13.96710920      13.78288591      10.46398022
Hf      10.86025364      13.05051490      14.82539654
Hf      12.28568244       6.73143368      13.56618917
Hf      10.88489236      12.54906367       8.69310463
Hf       8.20758205       9.23819390      13.04681973
Hf      11.96921637      10.67291578       6.72466418
Hf       7.19928682      12.45782677       8.46771088
Hf       9.12454234      14.47916839       7.60446722
Hf       8.04218087       8.13806574      10.40377641
Hf      13.26360757      11.44389575      12.26727290
Hf      12.88203645      10.40872652       9.49289946
Hf       8.10104356      13.86103869      10.67227406
Hf      10.09115910       6.28011266       9.49173570
Hf      15.52171558      11.13191415      10.64952127
Hf      11.35784734      13.42088691       6.06255858
Hf      14.05156606       8.44626483      11.55162773
Hf       9.63058645       6.37433872      12.44793107
Hf      10.85053602      10.48314821      13.44057189
Hf      13.03974212      14.41888163      13.34771104
Hf      12.26063123      16.04660743      11.18342747
Hf      10.27804713       8.19479762      15.03325772
Hf      11.57550165      10.55860988      16.28524339
Hf       9.88600967      15.93012952      10.02588023
Hf      13.34696068       9.08461446      14.60293004
Hf       9.28865832      10.90774082      10.46221210
Hf      15.66337789      10.29041996      13.39888595
Hf      12.59888945       7.56424055       8.92399197
Hf       7.35534576       9.84997518       8.29793819
42
Properties=species:S:1:pos:R:3 config_type=qcd gap_pre_relax_energy=-364.43105882807856 gap_pred_energy=-365.1422227847341 gap_fmax_final=0.0007642707445728075 gap_converged=1 pbc="F F F"
Hf      15.68040137      12.36354450      11.11248811
Hf      15.67526288       9.39334861       8.53554877
Hf      14.68604500       7.05794763       9.95275772
Hf      14.79591331       9.62353982      11.32244760
Hf      14.26258934      11.27860771      13.60668920
Hf      13.84181714       8.34118805      13.71195626
Hf      14.25624248       7.33200376       7.11785622
Hf      14.16187386      14.10593114      12.80434238
Hf      14.31456992      12.05169496       8.44504272
Hf      14.28872927      14.54415141      10.02311740
Hf      12.20760042       6.25176636       8.69355671
Hf      12.14279025       7.04551060      11.51811550
Hf      13.77626205      10.00496726       6.42874269
Hf      12.85061037       9.10361238       9.08097303
Hf      12.01891264      10.10904371      15.32301264
Hf      12.76738654      12.29645853      10.97804207
Hf      11.68414755      12.77870190      13.75184337
Hf      11.71369691       9.78335175      12.49590027
Hf      11.29908291       7.50262526      14.30094038
Hf      11.77282446      15.18578366      11.51744075
Hf      11.48251329       8.26328863       6.71830913
Hf       9.78314604      11.96532854      15.74394708
Hf      11.32147710      11.19826917       7.49220723
Hf       9.09963830       9.27376209      15.13956763
Hf       9.48126224      13.46889800      10.88425418
Hf       9.24953602       7.85984379      12.34091029
Hf      11.84881794      13.92749215       8.62753698
Hf       8.72748849      16.01759072      11.82571522
Hf      10.04727184      10.77399823      10.13711902
Hf       9.97940566       7.99691475       9.32316363
Hf       9.89948963      15.86927256       9.26787057
Hf       9.00632998      14.03123105      14.00178403
Hf       8.99501776      11.13173341      12.88746793
Hf       9.05715864      13.19693782       7.92331664
Hf       7.06584514      11.68254233      14.77212030
Hf       8.55947054      10.18929380       7.85493866
Hf       6.87915235       9.04835503      13.43010267
Hf       7.29898714      14.92496290       9.60710743
Hf       7.41241786       9.19709809      10.42592871
Hf       7.01311449      12.04281252       9.63564606
Hf       6.79587487      13.79327185      12.26857056
Hf       5.92625087      11.11974841      12.09802714
42
Properties=species:S:1:pos:R:3 config_type=qcd gap_pre_relax_energy=-364.52405923883435 gap_pred_energy=-365.3025314277822 gap_fmax_final=0.0008982158396378274 gap_converged=1 pbc="F F F"
Hf       7.05834578      14.13423209       9.96921249
Hf       6.38858663      11.36578364      10.64022888
Hf       6.59013915      13.36020477      12.66787078
Hf       8.35017588      11.97967987       8.35383967
Hf       8.66012283      15.25348788      12.04794374
Hf       9.95813481      14.50697762       9.40305101
Hf       7.62112606      10.72119194      13.35070283
Hf       7.06042260       8.11219602      12.15389118
Hf       8.49380717       9.50484583       9.81309367
Hf       8.96192895      12.44364717      11.26307397
Hf       9.06987223      13.26151646      14.29572742
Hf      10.79278147      10.14868336       6.96243994
Hf      11.91993634      16.32895727      10.59275148
Hf      10.64203420      12.98052985       7.02533365
Hf       8.82048434       6.65377249      10.49725202
Hf      11.81612032      12.68702986      15.25835929
Hf       8.26624931       8.27732798      14.76426013
Hf       8.96866198       6.14173055      13.22663285
Hf       9.89978447       8.77363283      12.27724087
Hf      11.38045463      14.58582610      13.00027866
Hf      11.14031469      11.15079777       9.44503452
Hf      10.09245263      10.37898809      15.17846996
Hf      11.26662381      11.63351079      12.73032826
Hf      10.95664066       7.95668236       9.12906612
Hf      12.56896883      14.99649339       7.96316802
Hf      14.00976276      15.58113416      12.45232880
Hf      12.90658865      13.57938033      10.48803583
Hf      13.19603199      11.96361279       7.36557971
Hf      11.47507739       6.24599467      11.89632849
Hf      14.61798060      16.02897716       9.77294719
Hf      12.81125371       9.46688241      11.29925506
Hf      13.92500318      12.73917377      13.26863039
Hf      11.23928045       7.56824246      14.52765804
Hf      13.00353987      10.01022622      14.51239558
Hf      13.41202830       9.16235084       8.27818140
Hf      15.20940955      13.71671022       8.41408121
Hf      13.49712296       6.82749664      10.05389785
Hf      14.87792438      11.26846509       9.90170193
Hf      15.79125825      13.76994316      11.18621448
Hf      14.07676351       7.51634161      12.91858293
Hf      15.31231150      10.22273218      12.71468827
Hf      15.48242541       8.58254252      10.52817365
43
Properties=species:S:1:pos:R:3 config_type=qcd gap_pre_relax_energy=-373.35151543470107 gap_pred_energy=-374.12948083167623 gap_fmax_final=0.0008690673795797157 gap_converged=1 pbc="F F F"
Hf      15.22879920      13.01082524      12.10402660
Hf      15.65975745      11.18764796      10.17543958
Hf      13.80183712      13.49623987       9.57233905
Hf      13.00523197      12.41617067       6.70633426
Hf      15.21734450      10.25088506      13.02169168
Hf      13.28651468      15.14327364      12.48489059
Hf      11.54881918      15.54501482      10.08400626
Hf      14.74058917       8.64632936      10.58719483
Hf      12.00510753      14.77779392       7.38353147
Hf      13.01461077      11.00656883      11.34265148
Hf      13.41649154      10.27343258       8.47616956
Hf      13.54327754      12.46730489      14.24910054
Hf      10.99746521      12.62216389       9.10626310
Hf      10.06130106      12.71900228       6.40036689
Hf      13.46190775       7.77182851      13.11279545
Hf      11.60461082      14.65612906      14.79280888
Hf      10.47253430      15.98013623      12.68681079
Hf      13.00499626       9.72071942      15.34199696
Hf      11.96098487       8.09745428      10.61993440
Hf      11.37796282      10.07610175       6.15636949
Hf      12.33495062       7.72463686       7.71866268
Hf      11.17019830      13.20090300      12.30808641
Hf       9.37247944      14.90414793       8.14879894
Hf      10.99868489       9.48249894      13.24328524
Hf      10.09723139       9.48358543      16.07988864
Hf       9.85404868       7.65869022       6.38196375
Hf      11.44838720       7.29598013      15.12588554
Hf      10.18508654       6.42142615       8.99345192
Hf      10.85280622      12.00162264      15.19295069
Hf      10.06683929       9.41916844       8.75625146
Hf      10.76527771       6.46120738      12.58278538
Hf       8.75216803      14.44718762      10.90673482
Hf       8.32855610      10.13645981       6.64087652
Hf       8.81844893      13.89445136      13.85039913
Hf       9.30355381      10.99952733      11.26889989
Hf       8.71834590       7.83899336      14.16540959
Hf       7.98286459      12.44181439       8.75956892
Hf       7.73803755       7.60835952       8.16624791
Hf       8.63458344       7.82800924      11.04534976
Hf       8.27193346      11.00974582      14.25406464
Hf       7.00319813       9.93152634       9.63396828
Hf       6.90555683      12.30888349      11.83025940
Hf       6.87850969       9.52804289      12.43337911
43
Properties=species:S:1:pos:R:3 config_type=qcd gap_pre_relax_energy=-373.6229037676317 gap_pred_energy=-374.5157025378673 gap_fmax_final=0.0009774689165720164 gap_converged=1 pbc="F F F"
Hf      12.12283226       7.77895523      15.11732840
Hf      10.94316953       6.41303019      12.85909721
Hf      12.92712296       8.39718597      12.35665647
Hf      15.08572318       9.41951396      10.82237819
Hf      13.15450776       7.15401683       9.74058152
Hf      12.33223987      10.90057694      15.08841676
Hf       9.29004173       6.98556965      15.05525628
Hf      14.93611701      10.06183398      13.74244281
Hf      10.24491511       7.23718399      10.06135418
Hf      10.33996735       9.27872984      13.57663187
Hf      14.24032522       9.05364581       7.98799147
Hf      10.06785288       9.32352556      16.40661800
Hf      12.04612508       9.84801135       9.75751251
Hf       8.13979380       7.17796483      12.28902407
Hf      14.45268735      12.77318489      14.28884806
Hf      14.72316134      11.76002165       9.12768473
Hf      11.57671946       8.14200778       7.57091352
Hf      11.69636224      13.87438050      14.44037195
Hf      15.84659877      12.18009782      11.87391970
Hf      13.13307162      11.45876778      12.02898153
Hf       7.64487068       9.34432494      14.55066834
Hf       9.18037512       9.81627841      11.05815907
Hf       9.37848216      11.85606665      15.19756574
Hf      12.25653871      10.96320009       7.08562962
Hf      13.81976440      14.40448956      11.99957956
Hf      14.92361932      14.82023897       9.14384248
Hf       6.34715918       9.38989593      11.85460040
Hf      13.88186604      13.38973669       6.86708999
Hf       7.47712321       8.25446348       9.52988682
Hf      12.42847273      13.60428523       9.44808822
Hf      10.42864977      12.24304549      12.52540411
Hf      10.80683528      15.11552071      11.77022405
Hf       9.92104119      12.38679072       9.65381328
Hf       8.86862898      14.27742829      13.69876941
Hf       9.31281970      10.19137648       7.97977841
Hf       7.48825799      11.85773877      12.74233987
Hf      12.76655250      16.42938074      10.16655336
Hf      10.87546569      13.53077467       6.82980910
Hf      12.65852208      15.78652713       7.47052668
Hf       7.09021640      11.28104566       9.69923464
Hf      10.03540042      15.38214888       8.87115529
Hf       8.04061471      14.14999753      10.82752302
Hf       8.11167188      13.34932309       7.88003200
44
Properties=species:S:1:pos:R:3 config_type=qcd gap_pre_relax_energy=-382.35699301709997 gap_pred_energy=-383.2035757401276 gap_fmax_final=0.0009361924538431961 gap_converged=1 pbc="F F F"
Hf      11.78797568      12.28188187      15.72289182
Hf      14.09675543      10.41162728      15.58055288
Hf      11.48326308       9.38834043      14.73315905
Hf      13.98715871       8.18700411      13.59390272
Hf       9.00701698      10.98790863      15.03165332
Hf       8.95744973       8.16155470      14.36080490
Hf      15.91902333      10.83951552      13.42916349
Hf       9.48328722      13.88622152      15.11299012
Hf      11.33545263       6.89945454      13.01133149
Hf      14.36272467      13.04517917      14.65826723
Hf      12.03215598      14.90643335      14.09705001
Hf      10.81468222      12.73580741      12.89617699
Hf      15.41019076       8.90336247      11.36651670
Hf      13.25130832      10.96841697      12.86372321
Hf       6.99248269       9.69616010      12.87385999
Hf      13.57672227       6.67784703      10.81096426
Hf       7.72889991      12.64351517      13.04337235
Hf       8.60757199       7.39187748      11.65493711
Hf       9.64724589      10.14048554      12.28532177
Hf      10.78484697       6.20318950      10.32749558
Hf      12.13041127       8.97364768      11.05326466
Hf      15.09557338      11.56656462      10.43710641
Hf       6.82048148       8.80653323      10.04443247
Hf       9.26435797      15.33721284      12.63819291
Hf      13.72152807      13.68516626      11.87644114
Hf       7.07618815      14.39562284      10.82613525
Hf      14.26293404       9.10256234       8.82306096
Hf       7.38634444      11.53575810      10.21753493
Hf       9.74030207      13.29462681      10.20846569
Hf       9.82025093       9.65139028       9.34254143
Hf      12.30346905      11.81110364       9.41958839
Hf       8.67937221       7.23007237       8.45870597
Hf      11.68564487      15.45798030      10.95173254
Hf      11.81364454       7.55190166       8.17953318
Hf      13.84519538      14.18496775       8.96114691
Hf       9.05195883      16.06376812       9.80138047
Hf      14.68502485      11.72726977       7.63854817
Hf       7.51950876       9.98169553       7.65870502
Hf      12.33634090      10.16416862       6.87731671
Hf       7.92964329      13.92718521       8.18752784
Hf       9.86829088      11.92720921       7.29322703
Hf      10.93798980      14.82457129       8.06883038
Hf       9.78559525       8.97004544       6.47378090
Hf      12.51550068      13.01495885       6.65043111
44
Properties=species:S:1:pos:R:3 config_type=qcd gap_pre_relax_energy=-381.8625637910826 gap_pred_energy=-382.69964066753437 gap_fmax_final=0.0007065360200388416 gap_converged=1 pbc="F F F"
Hf       9.22207181       5.62942501      11.55942726
Hf       7.53793580       8.03230808      11.13093195
Hf       8.67013683       9.37392248      15.71592686
Hf       8.73107749       6.32817515       8.95337318
Hf       7.26305483      10.02531885      13.31154448
Hf       8.94926509       7.40505847      13.74553665
Hf       8.49092546      12.20824708      14.99973428
Hf      10.73705799      11.00555531      16.28952652
Hf       7.60274117      12.89093095      12.34001409
Hf      11.41374271       5.79753552       9.76827564
Hf       8.45089165      13.02944893       8.74299389
Hf      11.44162783       8.37748294      15.27161158
Hf      11.66238347       6.74424072      12.70478816
Hf       8.17264956       9.00854008       8.49382830
Hf      10.35120908       8.34649469      10.43722438
Hf      10.26580039       9.96137138      13.28156135
Hf      10.71296131      12.89915016      12.75689688
Hf      10.72280564       7.79049206       7.61521344
Hf      11.04370704      13.81916263      15.50110725
Hf       8.89153931      14.84225820      13.88087461
Hf      13.71534643       8.91197858      13.14550302
Hf       8.83497825      10.90905660      10.75575062
Hf      13.31796732       7.84547919      10.54308239
Hf      12.35395493      10.74093411      11.15022320
Hf      10.29291521      10.71095880       7.76899461
Hf       9.40569841      14.83438975      10.99648902
Hf      12.76619562      11.35539111      14.37856647
Hf      11.53016906      15.69695361      13.23272088
Hf      11.30029759      13.02100398       9.20367170
Hf      13.06625870       9.71743901       8.37773367
Hf      10.04742005      15.48354303       8.29964547
Hf      10.22212766      13.37907922       6.48426934
Hf      15.09352716      10.10428802      10.61178906
Hf      13.87419867      14.16872666      14.40612623
Hf      13.67086503      13.47280277      11.61587573
Hf      12.62676265      12.02592296       6.54234724
Hf      15.42672920      11.68943530      13.19563262
Hf      12.24949835      15.71808261      10.21107718
Hf      14.16563499      16.30479875      12.33391283
Hf      14.27988911      12.51372341       8.78350404
Hf      12.73085534      14.75247405       7.42456223
Hf      16.45282236      12.65528065      10.62935416
Hf      16.20502412      14.47408066      12.66734440
Hf      15.19631994      15.15809912       9.90047383
45
Properties=species:S:1:pos:R:3 config_type=qcd gap_pre_relax_energy=-391.5635328890716 gap_pred_energy=-392.0854330151012 gap_fmax_final=0.0009900003336930497 gap_converged=1 pbc="F F F"
Hf      16.07277759       9.00591847      10.65419410
Hf      14.82566194       7.49381815      12.73010657
Hf      14.25264915       7.07895546       9.81905229
Hf      13.71805666       9.30078361      14.70703336
Hf      15.48658628      10.58136926      13.04404221
Hf      11.85970883       7.34141711      13.75363375
Hf      14.40070436       9.63021877       8.25672783
Hf      15.00135028      11.73685431      10.25073304
Hf      11.48497730       6.86858116      10.83778881
Hf      13.61044854      12.24764934      15.27799713
Hf      13.25512357       9.27604776      11.32899033
Hf      12.47466295      11.52907155      12.95401131
Hf      14.82000903      14.64466435       9.84786842
Hf      11.23851170      10.22084705      15.68870468
Hf      11.87721981       8.04727467       8.23010777
Hf      14.78818341      13.43460035      12.59468250
Hf       9.32435089       8.02366949      15.13670407
Hf      13.73078227      12.70654876       7.73814562
Hf      11.85906402      10.90835624       9.23300580
Hf      10.20958555       9.55083120      12.97548932
Hf       9.08568621       6.82475718      12.35650948
Hf      12.19073983      10.51788254       6.51746583
Hf      12.49946214      16.17922670      11.06796334
Hf       9.58319442       9.50287891       7.30647946
Hf       8.97552486       6.95526847       9.02985914
Hf       9.50468492       9.26726207      10.29029687
Hf      10.46145986      13.01113262      14.88152558
Hf      12.57841554      15.29854664       8.36917855
Hf       7.25160856       8.73088384      13.45538618
Hf      12.34898671      13.46505022      10.64899037
Hf      12.52302115      14.51987495      13.67000827
Hf      10.75342497      13.14635418       7.23820553
Hf       8.45478471      10.88363315      14.88162093
Hf       7.04290753       9.62605660       8.57353411
Hf       9.71453390      12.37069336      12.08344513
Hf       8.96973801      12.00688144       9.22549304
Hf       7.86866509      11.80265188       6.64268599
Hf       6.89125777       7.97993231      10.83933976
Hf       7.74457264      13.43793759      13.71876388
Hf       7.02981537      11.10876360      11.54382630
Hf      10.02364680      15.13784846       9.67374025
Hf       9.92177662      15.16994074      12.64013900
Hf       7.97187718      14.31154147       7.84403640
Hf       6.14979173      12.38456340       8.85789405
Hf       7.48873065      14.05168189      10.90331499
45
Properties=species:S:1:pos:R:3 config_type=qcd gap_pre_relax_energy=-391.7533651538935 gap_pred_energy=-392.5022851107711 gap_fmax_final=0.0009092315110359431 gap_converged=1 pbc="F F F"
Hf      16.07515877      10.29680575      10.77337148
Hf      15.50899078      11.97736349       8.58817368
Hf      14.00274780       6.88548796      10.19741226
Hf      16.05878922      13.18425159      11.06544032
Hf      13.91214080       9.46114020       8.74901478
Hf      13.14276663       5.99208683      12.70824447
Hf      11.35750605       5.63646288      10.56747727
Hf      14.59397161       8.66409285      12.73464197
Hf      15.29476742      11.67988658      13.36039916
Hf      11.55993303       7.51453815       8.43673597
Hf      14.03812685      14.30607261       9.43397882
Hf      13.54211818      11.73558168      10.70972315
Hf      12.72750740      12.21947608       7.73243635
Hf      11.84275382       9.67583224       6.57846777
Hf      14.16773782      10.01995398      15.44815500
Hf      11.10747560      10.25076433       9.29861839
Hf      10.25799244       6.44726312      13.00794584
Hf      12.30373670       7.94919509      14.66010326
Hf      13.54898961      14.27604647      12.49197564
Hf      11.88101196       8.30312265      11.53927786
Hf       9.18807461       7.87883021      10.41472427
Hf      12.44545571      10.69515813      13.32512260
Hf       9.97826685      11.89107741       6.22780345
Hf      10.83692085      14.45409570       7.53974196
Hf       9.83760357       9.17792555      13.97336212
Hf       9.42074167      10.98472546      11.61715577
Hf       9.09279152       9.26063936       7.47880128
Hf      10.92363446      13.11109968      13.45228309
Hf      10.71201634      15.82495314      12.39045657
Hf      11.37132553      10.63013702      16.01853529
Hf      13.24685293      12.81374581      15.46068381
Hf      11.35065378      13.88069268      10.39776196
Hf       8.33304151      13.95075992      11.93696351
Hf      11.87143809      15.35300929      14.93839424
Hf       9.14587520      12.43884472       8.96685917
Hf       7.42297768       9.22648669      12.50187555
Hf       8.37132913      11.85156250      14.23344733
Hf       7.17227951      11.46561425       7.10245750
Hf       8.06757800      14.09859950       6.92591062
Hf      10.44791044      13.32812127      16.33190228
Hf       9.05012971      14.95331093      14.58259109
Hf       7.18344404      10.14381798       9.70863886
Hf       8.86649378      15.31208269       9.41718002
Hf       6.49977523      11.77522006      11.92234497
Hf       6.53904384      13.32394196       9.35328576
46
Properties=species:S:1:pos:R:3 config_type=qcd gap_pre_relax_energy=-400.37256375425676 gap_pred_energy=-401.23663564457644 gap_fmax_final=0.0007065112027223831 gap_converged=1 pbc="F F F"
Hf      10.80585177       7.54525402      15.84861824
Hf      13.78300586       7.66213793      15.69416876
Hf      11.96739643       9.58577869      17.26974432
Hf      11.94059709       6.69517381      13.39953693
Hf       9.09668314       8.27973725      13.62279198
Hf       9.53064025      10.20769513      15.74899654
Hf      14.26769642      10.67543812      16.23192233
Hf      12.34039910       9.57891656      14.36742442
Hf      14.83861208       7.02511011      12.60628744
Hf      15.46180785       9.54082072      13.96320232
Hf      11.71052567      12.14486702      15.79827921
Hf      12.66334217       6.49077506      10.59883182
Hf      10.69558211       8.37659311      11.23562697
Hf       7.99754157       9.21319914      10.77783807
Hf       7.37313351      10.99154239      13.03813078
Hf      10.31738299      10.92694887      12.93374504
Hf      13.58680651       9.29644507      11.48334138
Hf       8.80264461      13.03500307      14.31214629
Hf      13.92078895      12.14363773      13.70402362
Hf      16.40357542       9.21786627      11.26033234
Hf      14.95706788       7.55224473       9.61374935
Hf       9.54048203       8.17047799       8.60351409
Hf       6.45730189      11.54059327      10.41931672
Hf       6.73234668      14.00978576      11.86393619
Hf      11.43504926      13.75056625      13.19666996
Hf      12.40223644       8.71252024       8.64307575
Hf      14.79906808      10.46060961       8.96882766
Hf       9.16213899      12.97268590      11.27909194
Hf       7.81618605      10.49692225       7.96279758
Hf      12.63863648      11.98556790      10.81928296
Hf      15.51657737      12.02062647      11.24887973
Hf      10.43332290       9.96813517       6.69506905
Hf      10.27902519      10.84554235       9.38461253
Hf       9.04036328      15.47836032      13.00179759
Hf      11.17484849      14.23346248       9.39052096
Hf      13.90096131      14.51944464      11.68863893
Hf       7.46161386      13.58377743       8.86682269
Hf       8.57297881      15.93987220      10.25716473
Hf      11.37877235      16.29780560      11.52256780
Hf      12.41252504      12.04869543       7.46452797
Hf      14.37102450      13.57740275       8.91876689
Hf       9.65236595      12.71625129       7.02772661
Hf       9.20044501      15.44888155       7.42602770
Hf      10.90720211      17.07091353       8.76866551
Hf      12.13194964      15.04812898       6.97068856
Hf      13.40832222      16.20461115       9.38909703
46
Properties=species:S:1:pos:R:3 config_type=qcd gap_pre_relax_energy=-400.81896369145903 gap_pred_energy=-401.8463779507144 gap_fmax_final=0.0008550217937934642 gap_converged=1 pbc="F F F"
Hf      17.16074094       9.01297078      12.31894126
Hf      14.62929878       8.59938792      10.96002993
Hf      16.38857775      10.92904489      10.22329765
Hf      15.11969801       7.85035673      13.69917140
Hf      12.36520631       8.31680492      12.93753577
Hf      17.85863414      11.64327294      12.96315865
Hf      16.72850349       9.85256880      15.12518177
Hf      14.15567377      10.19276200       8.61878914
Hf      15.02389055      10.82708089      13.09740240
Hf      11.82630147       9.70639250      10.39548910
Hf      10.66136795       9.23317941      15.02642525
Hf      16.32283038      13.76468607      10.88587273
Hf      12.11313675      11.24282065      13.50741627
Hf      13.56877463       9.32046997      15.53887795
Hf      17.53466493      12.95618687      15.58123436
Hf       9.75395202       9.88188194      12.44203780
Hf      15.55775327      13.84335391      13.79625819
Hf      18.34549075      14.38155716      13.07907885
Hf      11.99358204      11.81990566       8.42229778
Hf      14.72612256      13.03646506       8.43566412
Hf      13.57207120      12.16642366      10.84541271
Hf      14.75524571      11.89531411      16.25528143
Hf      17.27899622      15.85889551      15.10935917
Hf      16.34202500      16.34375644      12.30405305
Hf      15.21780668      14.74333813      16.76332405
Hf      12.07954532      14.42749964       9.31391445
Hf      10.54475797      12.39909740      10.96374482
Hf      11.63348113      11.39337931      16.62285276
Hf      13.22682162      14.88253766      12.26115264
Hf      12.74162117      13.78851038      15.01261441
Hf      14.45168843      15.92737535       9.91990173
Hf       9.42940938      11.80496184      14.63903576
Hf      13.89275146      17.78467701      12.09065005
Hf      12.75646313      13.66949679      17.84955975
Hf       7.94691447      12.87476194      12.25976895
Hf      14.60891206      16.85894975      14.73219414
Hf      11.61008027      16.80557448      10.78217978
Hf      10.07979124      14.60184401      13.21194095
Hf       9.06743467      15.05940835      10.57830979
Hf      10.23603666      14.23749414      16.41326567
Hf      12.46750114      16.18037716      16.67770641
Hf      11.73096344      16.97811400      13.92120693
Hf       7.69400301      14.00272149      14.97422587
Hf       7.28030857      15.63055760      12.78439242
Hf       9.30167097      17.43041426      12.35474336
Hf       8.95300815      16.57688005      15.03855816
47
Properties=species:S:1:pos:R:3 config_type=qcd gap_pre_relax_energy=-409.4465259029799 gap_pred_energy=-410.19190493203627 gap_fmax_final=0.0009245872447976089 gap_converged=1 pbc="F F F"
Hf      17.02687806      10.39226709      13.07661695
Hf      15.88609296      12.99776030      13.83377901
Hf      17.15907779      12.41151345      11.03837730
Hf      14.82125050      14.08592336      11.48394753
Hf      14.66014227      10.52804102      14.78537373
Hf      16.70718846       9.66426369      10.37980625
Hf      12.98743856      16.02955240      10.80994527
Hf      14.93235611       8.46543336      12.43895937
Hf      14.62039550      11.18875489      11.59555771
Hf      14.83970643      14.74224780       8.75100060
Hf      13.93274133      13.15595835      15.96253280
Hf      13.73406639      15.30515390      13.95204287
Hf      15.45722820      11.76628425       8.67547784
Hf      13.76819130      13.20177610       6.70516264
Hf      13.99816616       9.08692122       9.53968907
Hf      12.04505731      15.33375417       7.99891727
Hf      11.58035056      11.36080967      15.86845839
Hf      10.88501564      13.58465630      11.23304369
Hf      10.89925322      15.91659761      12.99911020
Hf      12.25128657       9.23825443      13.70222251
Hf      11.50221998      14.36998207      15.54680950
Hf      12.74595403      12.77418348       9.27612412
Hf      12.71499634      12.59007222      13.46205410
Hf      10.34763553      16.40402498      10.16164515
Hf      10.99700903      12.99637967       6.76659841
Hf      11.67219397      10.34375426      10.89164839
Hf       9.27150912      13.62960856      13.91111805
Hf      12.34843267      10.49260322       7.43154102
Hf       9.99726709       8.97084983      15.66460480
Hf       9.16742296      14.17391603       8.86220836
Hf       9.70453982      10.73093171      13.37212485
Hf       8.41941171      15.03784267      11.56387786
Hf       8.60831921      11.43388108      15.87540088
Hf      12.23519448       7.40926816      11.38545078
Hf      11.45869986       7.98777678       8.80038508
Hf       8.10332310      12.21459701      11.04447229
Hf       9.85616258       7.51545685      13.14822536
Hf       9.83445842      11.30034218       8.65027199
Hf       8.89371559       9.19805783      10.74937252
Hf       6.93871929      11.96036588      13.70177971
Hf       7.44978484       9.15018637      14.30613530
Hf       9.22013221       6.49535436      10.12772544
Hf       7.18810336       7.16985905      12.14327985
Hf       8.85193053       8.54388587       7.89534352
Hf       7.05781448      10.53604042       8.89218436
Hf       6.19663973       9.91807696      11.63308425
Hf       6.64125789       7.81151036       9.52124423
47
Properties=species:S:1:pos:R:3 config_type=qcd gap_pre_relax_energy=-409.21214394157766 gap_pred_energy=-410.56186359051765 gap_fmax_final=0.0007051506311209627 gap_converged=1 pbc="F F F"
Hf      16.10455861      12.34371628      11.85576695
Hf      14.21139998      14.58220020      10.65371441
Hf      17.26523474       9.83627614      11.07201584
Hf      15.57441509      11.30459554       9.22813905
Hf      13.20439021      12.89880461       7.73340478
Hf      14.07783613      15.30344759      13.49554353
Hf      14.08334634      12.26595259      13.77533978
Hf      10.46386491      13.63556565       6.72845846
Hf      16.16291851      10.04604380      13.90327186
Hf      12.02755911      16.51846977      11.61358783
Hf      11.35039170      11.05615906       6.19533135
Hf      15.33236819       8.22029231       9.45313653
Hf      11.65050102      14.76801201       9.22863147
Hf      13.00281882      12.06017461      10.68885785
Hf      12.62332203      13.97216435      15.60514270
Hf      14.49983500       9.76988723      11.67548745
Hf      16.16617597       7.54381896      12.22505246
Hf      13.83860553      10.25696488      15.83393582
Hf      11.76697466      13.85212256      12.83569994
Hf      13.16786203      10.01325130       8.17002444
Hf      11.60587896      16.31716254      14.45353967
Hf      10.67502338      11.84612846       8.98187686
Hf       8.67873906      11.38942442       6.99488494
Hf      12.60709813       7.24330030       8.61681114
Hf      11.66712836       9.18793599      10.61537488
Hf       9.67919600      14.16232294      14.98221276
Hf      13.40521388       6.80406996      11.38060692
Hf       9.48182093      16.50702172       9.92013328
Hf      14.03882842       7.76985472      14.25151423
Hf      12.11349273       9.91951550      13.49112340
Hf      10.98459074      11.46806304      15.69023431
Hf       9.34689017      13.87794569      11.11801125
Hf       9.67961796      11.58543587      12.81850832
Hf       8.14462181      13.88678895       8.55783365
Hf      10.18899973       8.98008101       8.14988259
Hf       9.19231203      16.27990796      12.81400901
Hf      10.54687646       6.65386983      10.35398320
Hf       8.14848096      10.87778119       9.93569224
Hf      11.70771365       8.48992996      15.87100063
Hf       8.96599340       8.73427998      11.74942016
Hf      11.08325120       7.19810002      13.21292624
Hf       8.05101528      11.77528460      15.24865268
Hf       7.07906545      15.56431110      10.92205878
Hf       9.23244327       9.25085349      14.58579771
Hf       6.40023387      12.91373356      10.76477811
Hf       6.97710152      10.78914577      12.72882055
Hf       7.24993469      13.78577264      13.32571064
48
Properties=species:S:1:pos:R:3 config_type=qcd gap_pre_relax_energy=-418.37042341732496 gap_pred_energy=-419.18696463763166 gap_fmax_final=0.000816027221604518 gap_converged=1 pbc="F F F"
Hf      16.23511727       8.89759623      12.36461480
Hf      16.10949148       8.60632058       9.35909308
Hf      14.50009971       7.06011412      11.03411578
Hf      14.54093067      10.50808677      14.25824655
Hf      16.45884584      11.53048418       9.48734319
Hf      16.10282938      12.13348624      12.43411593
Hf      13.39890915       8.01020931      13.47173403
Hf      14.97795828      13.31307840      15.06486167
Hf      14.23053950      10.00400157      10.82758302
Hf      11.84165802       9.72216758      15.34648776
Hf      16.62735685      14.17941057      10.32310323
Hf      13.33794791       7.85233119       8.52674376
Hf      14.40176874      10.50615598       7.73631178
Hf      14.99109514      13.79382609       7.84985229
Hf      11.48580461       7.48489367      11.10577579
Hf      13.96649291      13.06588215      10.25018844
Hf      15.17386206      15.10083146      12.72681490
Hf      11.92693202      10.31448303      12.50545074
Hf      10.00973788       8.26643716      13.67528698
Hf      13.11326483      12.97188482      13.06255383
Hf      11.84078191      12.65517805      15.64944908
Hf      11.66968179      10.19186526       9.37081481
Hf      11.78155023       9.57888660       6.70392715
Hf      14.53490133      15.89697385       9.88820924
Hf      12.98397511      15.26815350      14.68611195
Hf      12.16832637      12.43349477       7.59683504
Hf       8.83205032      10.09169639      15.99754248
Hf       8.21020433       7.14019888      11.18719050
Hf      12.31313664      15.64622661      11.76776780
Hf       9.63401187      11.41536234      13.80748978
Hf      12.08909087      14.97605408       8.82213678
Hf      11.08447188      12.94066780      10.65507890
Hf       9.25248386      10.67342037       7.84042085
Hf       9.25407728       9.57195101      10.86852907
Hf       7.34171718       9.35121636      13.41005836
Hf      10.09248839       7.86387407       8.52010368
Hf      10.38778706      14.35857744      13.66378764
Hf       8.89389339      13.17013251      15.92567412
Hf       6.81188547      11.73010301      14.86210533
Hf       8.31603696      12.21297807      11.31501356
Hf       6.11790451       9.21955256      10.92971791
Hf       9.15578662      15.10084699      11.08939703
Hf       7.39256255       8.64439551       8.69138491
Hf       8.91931189      13.48711003       8.71299003
Hf       7.34752663      14.11460311      13.35362979
Hf       5.63156438      11.84357574      12.12775618
Hf       6.50139801      11.48904529       9.14753217
Hf       6.48485402      14.08628180      10.47317146
48
Properties=species:S:1:pos:R:3 config_type=qcd gap_pre_relax_energy=-418.2561411420899 gap_pred_energy=-419.23478227718675 gap_fmax_final=0.0007970853577520783 gap_converged=1 pbc="F F F"
Hf      13.59965373       9.62968031      16.35498532
Hf      14.37338387       7.48305372      14.68589557
Hf       9.75383543      10.12258161      16.14379309
Hf       7.35196698      10.64357899      14.53840905
Hf       8.64630797       8.20235833      14.45414966
Hf      11.51998764       8.15670227      14.83712118
Hf      13.06960148       7.20718384      12.21906154
Hf      10.09273928       7.58869197      12.14999404
Hf      14.92463642      12.14954568      15.45391284
Hf      11.96017522      11.98945437      15.58133053
Hf       9.17802237      12.74397965      15.16161585
Hf      15.69160284       8.53147325      12.26223093
Hf       7.81612907      12.41519549      12.29074313
Hf       7.68786697       9.35553059      11.99012687
Hf      13.56933877      14.63527977      15.61620741
Hf      10.80023001      15.23799217      15.05596054
Hf       9.24660543       7.66286174       9.34810816
Hf      10.10649143      10.58283126      13.21256372
Hf      14.03946687       7.54130256       9.41401576
Hf      11.55122894       6.07603045      10.16251036
Hf      11.70404183       9.07256222      10.10132685
Hf      16.10689770       9.61762263      14.88558525
Hf       8.14194325      15.05351126      13.92542069
Hf      13.46197997       9.98354492      13.45859106
Hf      11.71786063       7.23713985       7.69584425
Hf       9.29448390      10.78925325      10.02945655
Hf      10.32492523      13.93212305      12.47393927
Hf      15.56077049      14.49677375      13.56836141
Hf      16.02432269      11.58865338      12.71274508
Hf       8.01773556      15.38068329      11.24409511
Hf      10.12883954       9.42295880       7.35892063
Hf      13.19119543      13.06238967      13.14871243
Hf      14.42200147      10.41431749      10.41759225
Hf      11.92714153      12.10773768      10.59754351
Hf       9.58384770      13.84633167       9.39395035
Hf      13.13512980       9.78252741       7.69036077
Hf      10.03625725      16.89329022      12.72868295
Hf      13.07308165      16.14250764      13.26795145
Hf      15.00522527      13.69666674      10.77660500
Hf      12.39082833      15.13983431      10.46632155
Hf      13.79368831      12.65333253       8.28013797
Hf      10.14838373      16.74092394       9.66696669
Hf      11.05244289      11.96460533       7.81190720
Hf      11.76827000      14.92774669       7.65403719
Hf      12.24952166      18.07634607      11.27225330
Hf      14.63632467      15.34534214       8.37821837
Hf      12.84415114      17.42414948       8.67328124
Hf      14.76211315      16.73449202      10.87113159
49
Properties=species:S:1:pos:R:3 config_type=qcd gap_pre_relax_energy=-427.2243850208353 gap_pred_energy=-428.3045328551591 gap_fmax_final=0.0009434219584484987 gap_converged=1 pbc="F F F"
Hf       6.20840475      11.32724890      12.28613483
Hf       7.60061431      11.42499872      14.67840639
Hf       6.99345419       8.82522692      13.70206468
Hf       6.64414349       9.00676679      10.78755398
Hf       7.98556834      13.58418802       7.65242397
Hf       8.17232725      13.55691228      12.88582103
Hf       9.37722881       9.44808206      16.04370802
Hf       8.60204718       7.08685339      11.71566172
Hf       7.59679164      11.48482721       9.63229047
Hf       7.28266063      14.46983765      10.27995551
Hf       9.43921479       7.22688509      14.36168383
Hf       8.85910531      10.27641824      12.07612302
Hf      10.12064623      12.40593344      15.47130539
Hf       9.12296331      15.97473278       8.73777032
Hf      10.20965926      11.39639359       7.54791675
Hf      10.70456766      14.35638432       6.89066792
Hf       9.26401152       8.77077755       9.30593118
Hf       9.97074649      15.63012882      11.53898822
Hf      11.40595024       5.76525335      12.75740315
Hf       9.82540716      13.34914484       9.75739237
Hf      11.52264552       8.24835927      11.45407011
Hf      11.22450262      10.00534728      13.91421256
Hf      10.55520228       6.08143082       9.87600916
Hf      10.79628370      12.63631292      12.51864100
Hf      11.36452467      10.77855667      10.14852884
Hf      11.98999827       7.74908157      15.40915166
Hf      11.99972210      16.19643031       9.32758435
Hf      11.95578390      10.42649694      16.67116488
Hf      11.56669895      15.03106738      13.97145758
Hf      13.22921690       6.10012592      10.54025928
Hf      12.85074837      12.43363663       6.35441608
Hf      12.69025857      13.28390470       9.04876194
Hf      12.14980536       8.23261413       8.60995117
Hf      13.99160074       7.60026226      13.02975055
Hf      13.42343693      13.85833386      11.83303148
Hf      12.94830944      12.52291397      14.83281059
Hf      13.62748501      10.73347742      12.15691025
Hf      13.91810819      10.69291746       8.52550851
Hf      13.50929237      15.13061193       6.99795822
Hf      13.54982243      16.62761699      12.03032726
Hf      14.20360684       9.78023200      14.95233827
Hf      14.58680676       8.56062437      10.34742577
Hf      14.82943775      15.47206331       9.54140806
Hf      14.37845031      15.06036129      14.30155567
Hf      15.26410292      13.08307067       7.76902726
Hf      16.10972843       9.70274685      12.56197064
Hf      15.68473626      12.46362431      13.51608025
Hf      15.70516778      12.18572625      10.62453632
Hf      16.03838510      15.00443959      12.07533054
49
Properties=species:S:1:pos:R:3 config_type=qcd gap_pre_relax_energy=-427.10429787412033 gap_pred_energy=-428.06369345771 gap_fmax_final=0.0009307138239373667 gap_converged=1 pbc="F F F"
Hf       9.36581779       6.98481982      12.62874591
Hf       9.52229820       6.03873270      10.04498057
Hf       9.91488811       8.98394142      10.41153553
Hf       9.25676284      14.57680611      14.99051365
Hf      10.29187859      14.34753364      12.25969980
Hf      14.43278435       7.99847252       9.07421309
Hf      16.81064253      11.97676909      12.57192625
Hf       9.82068978       9.94386256       7.52818185
Hf       7.22207934      14.31000622      12.51443988
Hf       9.97430061      12.28824494      16.57912651
Hf      12.12263438      10.51219807      15.90589781
Hf      13.17729705      14.36283161      12.21080364
Hf      15.24484658       7.24288822      11.65119776
Hf      12.19507474       7.03982533      11.24014490
Hf      15.33138287      13.98671343      14.16426442
Hf       6.79189237      13.18290157       9.80900811
Hf      11.65377672      11.94084599      10.89206934
Hf       7.72977208      12.00316983      14.49071872
Hf      11.45450671      16.34346737      14.28146519
Hf      14.34252366      16.59961390      13.21879569
Hf       9.68032542      12.60312117       8.80650603
Hf      13.62188690       9.56834242      11.49693427
Hf       8.99231353      16.68077166      12.79530988
Hf      11.12602592       9.03948893      13.36140485
Hf      10.69322745      11.82579007      13.84641014
Hf      16.16597108      14.76608294      11.52334705
Hf       8.77154330      11.88060450      11.51086813
Hf       7.94419512       9.44544235      13.03982019
Hf      12.45162657       9.99819708       8.75611685
Hf      14.21537629      16.49220573      10.32847622
Hf      13.71933146       8.13522082      13.98697455
Hf       7.36444015      10.38101253       9.34176251
Hf      16.10493789       9.32767033      13.27947543
Hf      11.23059324       7.45460883       8.26041064
Hf       8.27525810       7.79042948       8.21030391
Hf       6.09074172      11.47156336      11.94429921
Hf      12.43973118      13.68843639      15.25602050
Hf      17.14907907      12.53354226       9.73113980
Hf      14.54097329      12.23525736      10.71306081
Hf      11.76768218      16.96691695      11.61470716
Hf       7.27139538       7.71691639      10.83130113
Hf      14.01845960      11.40327905      13.84266814
Hf      16.55789461       9.72158589      10.47767244
Hf      14.99764442      14.19981449       8.72035964
Hf      15.15861316      11.02323073       8.19462536
Hf       8.69459896      15.28699135      10.14069518
Hf       9.38721379       9.77734317      15.54459856
Hf      11.78493931      14.82497375       9.57620704
Hf      12.66779265      12.63717669       7.94045679
50
Properties=species:S:1:pos:R:3 config_type=qcd gap_pre_relax_energy=-437.06438421415095 gap_pred_energy=-437.96242810784594 gap_fmax_final=0.0009591158201800182 gap_converged=1 pbc="F F F"
Hf      16.73545200       7.56863868      10.92034929
Hf      14.70453240       5.83260239      11.68737005
Hf      15.43580163       8.12281515      13.49265134
Hf      17.08867350      10.22291788      11.93356884
Hf      14.77042325       6.83747791       9.03473537
Hf      15.69065474      10.90965453      14.50759597
Hf      15.85853687       9.71396734       9.15010049
Hf      12.71789478       6.92528357      13.30547798
Hf      13.81985630       8.57735378      11.11633551
Hf      12.16038670       6.40373084      10.40994069
Hf      12.94509116       9.83405289      13.75796266
Hf      16.70158187      12.95956669      12.76978960
Hf      16.47605853      12.48512357      10.00585043
Hf      14.46169062      11.48097339      11.73680927
Hf      13.00395003       8.98574602       8.33535946
Hf       8.06629294       8.33393113      13.75903708
Hf      10.26280284       8.57079954       9.25874056
Hf      10.40711764       9.47458727      15.18200002
Hf      10.54924185       8.44084518      12.14183419
Hf      14.30037537      13.43355361      14.29645246
Hf      13.83346343      11.88794244       8.71789578
Hf      12.56442522      11.60736304      15.97378294
Hf      11.62991253      10.94731964      10.57501964
Hf      14.58404992      14.44343955      11.34597987
Hf       7.69589164       8.53029046      10.84193960
Hf       9.14015747      10.90665730      13.07423059
Hf      13.92907547      14.93977279       8.48296532
Hf      11.96182874      14.34257123      15.67052275
Hf      11.73697388      12.60600978      13.34249567
Hf       9.72407103      12.50215892      15.63595649
Hf      10.85883938      10.78308380       7.62318535
Hf       7.61637373      10.52644823      15.41269093
Hf       7.83894718       9.74509754       7.97834581
Hf      12.27109599      15.53558342      13.02038021
Hf      12.07427366      13.50821705       7.06594448
Hf       8.62989124      11.21090563      10.14570731
Hf       6.26559190      10.43037118      12.78735768
Hf      11.83173627      13.88928604      10.13436245
Hf       5.83161347      10.47845183       9.86508892
Hf      12.85498468      16.63193354      10.42312605
Hf       9.55541249      15.23026175      14.26877101
Hf       7.25207312      13.16503873      14.06951114
Hf       9.34686173      13.62308202      11.87447761
Hf       9.55139374      13.23760220       8.03995779
Hf       6.76347209      12.57125858       8.33950124
Hf      10.98677920      15.88897114       8.34410014
Hf       6.34837440      13.04111190      11.23556727
Hf      10.03397032      16.41429194      11.30072243
Hf       7.40018347      15.55797813      12.32745755
Hf       8.04503692      15.01704825       9.59416404
50
Properties=species:S:1:pos:R:3 config_type=qcd gap_pre_relax_energy=-436.43317333736866 gap_pred_energy=-437.5918139037599 gap_fmax_final=0.0009260639312746422 gap_converged=1 pbc="F F F"
Hf      15.57307316      12.36464858      12.54221290
Hf      14.48788133      11.77236482      15.30016297
Hf      14.40639182      14.77810631      11.14271886
Hf      14.08904861      14.45457155      14.08375532
Hf      16.71877704      13.43367443      10.03098973
Hf      15.83363263       9.61252646      13.55931138
Hf      16.70503466      10.53787169      10.20221343
Hf       9.03760867      11.97621486      16.32908805
Hf      11.77855751      10.43350367      16.36912801
Hf      14.14462694       8.86828013      15.74604305
Hf      14.25079026      11.93782651       9.91330141
Hf       9.36422351      14.79937464      15.50708596
Hf      12.52846670      12.93985113      12.31567138
Hf      14.59178673      14.24156991       8.16336020
Hf      13.04647893      10.12075676      13.39495670
Hf       9.18954849       9.05433258      16.15347765
Hf      11.32203155      15.51746174      13.22779978
Hf      11.67550012      13.16760689      15.15735789
Hf       7.17095214      10.33677603      14.87495011
Hf       7.09887440      13.30274009      14.41205062
Hf      16.32334029      11.92979054       7.73914324
Hf      14.38132788       8.97989916      10.96915038
Hf      13.96740453       7.41120962      13.35706490
Hf       8.14911818      15.86881842      13.30497529
Hf      11.45904518       7.94200474      14.81327599
Hf       9.50694706      13.40752671      12.81917288
Hf      11.19609278      10.82484098      11.17298975
Hf      11.75706721      14.34186136       9.64315210
Hf       9.98766945      10.63174655      13.94533830
Hf       9.23158799      15.44378249      10.72915424
Hf      14.66154765       9.60024748       8.05431769
Hf      11.99478972       8.76750911       9.19621843
Hf       8.53280072       8.21539910      13.07925438
Hf      11.33392044       7.80588236      11.85122308
Hf      11.74655275      11.68495341       8.25297812
Hf       7.38075692      11.03093943      12.15347090
Hf      12.20927004      14.22246245       6.61974923
Hf       9.03764070      12.56621477       9.95778145
Hf      13.86561390      11.88232533       6.23842969
Hf       9.07525838       9.42508977      10.04033900
Hf       6.97088449      13.90914999      11.54252816
Hf       9.68641962      13.60307837       7.42852677
Hf      11.96593912       9.42501898       6.37838620
Hf       8.79076211       6.71122024      10.27965499
Hf       9.87419083       7.57793685       7.64581541
Hf       6.51553218       8.42616043      10.89618869
Hf      11.01828562      11.94989856       5.48389965
Hf       9.11399324      10.47609456       7.22866584
Hf       6.70359647      10.82131891       9.27710139
Hf       7.27371050       8.19191171       8.20076963
51
Properties=species:S:1:pos:R:3 config_type=qcd gap_pre_relax_energy=-445.37160217691724 gap_pred_energy=-446.61032921516784 gap_fmax_final=0.0007893481410715097 gap_converged=1 pbc="F F F"
Hf       9.48532855       8.64593747      15.58695870
Hf       7.90444381       8.06034194      13.21027365
Hf       7.13478329      10.35548794      14.78852077
Hf       9.06575204      11.35562069      16.93016099
Hf      10.73648139       7.64193214      12.99458718
Hf      11.48076321       9.65663625      17.46466433
Hf       6.78844017      10.23960561      11.61498562
Hf      11.67950937      12.31353182      18.13484368
Hf      12.53590957       8.78630641      14.93429678
Hf       9.41062122      10.40713649      13.19487101
Hf       8.50934561      13.10996504      14.65868630
Hf       9.34769745       8.61982008      10.60641624
Hf      10.31284932      14.12294285      16.53910764
Hf       7.32355730       9.77996446       8.69326668
Hf       7.49857465      13.16271267      11.97714739
Hf      11.41021393      11.70008747      15.28609092
Hf      15.10351048       9.98485005      13.61153868
Hf      12.09312192       8.12646102       9.40672358
Hf      13.67635122       8.00922615      11.84851625
Hf      13.86866133      11.07049547      16.53404536
Hf      12.25224638      10.39015388      12.47974410
Hf       6.29239314      12.24308113       9.52604963
Hf      10.62342038      13.00323319      12.56633036
Hf      13.11716597      13.93290186      16.31600003
Hf      10.10288984       9.77148088       7.81582955
Hf      16.48471457       8.31389516      11.66496255
Hf      14.07630719      12.63992471      13.96319349
Hf      11.96975573      11.03244758       9.70245844
Hf      14.95634999      10.59349067      10.56508908
Hf       9.02551779      11.49185943      10.12196024
Hf      13.16141977       9.90847104       7.37262610
Hf       8.30278273      12.33993566       7.43789837
Hf      13.43180830      13.26392582      11.18230680
Hf      11.69600573      15.20059571      14.00688771
Hf      15.12160144       8.13513889       9.02365464
Hf       7.84027466      14.75307899       9.35849984
Hf       9.33711833      15.59041891      11.90005426
Hf      16.22915539      13.43189703      12.14875844
Hf      17.55352450      10.91354573      11.95839486
Hf      10.63669083      13.93148882       9.75185344
Hf      14.43332042      15.38925871      12.91720808
Hf      11.34295449      12.46191293       7.15020959
Hf      17.59519756       9.66617677       9.48630861
Hf      15.91518780      10.61124989       7.57879139
Hf      16.86189696      12.56542981       9.50633833
Hf      14.08806404      12.73476551       8.27771672
Hf       9.77142660      14.88990599       7.15980235
Hf      10.10519052      16.65411937       9.28626984
Hf      12.27180524      16.09939186      11.13064686
Hf      15.08272530      15.21307823      10.03764339
Hf      12.56217671      15.29168801       8.19781538
51
Properties=species:S:1:pos:R:3 config_type=qcd gap_pre_relax_energy=-445.7437807021126 gap_pred_energy=-446.7363280044122 gap_fmax_final=0.0006896846890477425 gap_converged=1 pbc="F F F"
Hf       8.40068726      14.77339744       8.22784641
Hf       9.16314084      12.85740584       6.47773027
Hf       7.11714725      12.20005271       8.45182971
Hf       6.00810162      11.57832603      12.10390443
Hf       9.11126907      10.26953198       7.47545330
Hf      11.74597808      11.56931576       6.44644867
Hf       7.56502940      13.94200976      10.88658075
Hf       8.06543080      10.17613425      10.56282420
Hf      11.44775003      14.25929376       7.87739579
Hf       6.41455600      14.00631684      13.52196399
Hf      10.21190865      15.63275095      10.26504150
Hf      11.92515335       8.59484811       7.23747470
Hf       6.34483184      11.60487274      14.95535904
Hf       7.52021166       9.36217452      13.50790429
Hf       8.96564999      15.35542954      13.17839552
Hf       9.18547785       7.62985459      11.88656374
Hf      12.26394971      11.11611632       9.17020121
Hf       8.60169025      12.03833073      13.22482589
Hf       9.71397202      12.49604738       9.44039530
Hf      11.82412380       6.24503754       9.21917145
Hf      12.11051356      16.07811377      12.41083277
Hf      14.46692914       9.91707057       7.48906697
Hf      10.29226504       8.61065596       9.52467222
Hf      14.08063017      12.97531214       7.74525409
Hf       8.32575463      13.63237643      15.69221067
Hf      13.32646497      13.58863733      10.68332964
Hf      14.26530412       7.01355405       7.85593303
Hf       8.88379924      10.62481505      16.00692355
Hf      12.03193700       6.93227979      12.21871104
Hf      13.31788898       8.56883102      10.14947766
Hf      10.86911280      13.43750216      12.11833312
Hf      14.32686952       5.87665602      10.40348534
Hf      13.27991331      16.14442022       9.54073690
Hf      10.25034837       8.54497564      14.50880876
Hf      10.80094327      10.11669268      11.99833761
Hf      13.67469170      10.99218277      12.06331192
Hf      15.59802199      11.43370702       9.77686103
Hf      11.56103828      11.75463134      14.44160953
Hf      15.78681360      14.45880072       9.59026405
Hf      14.90259658      15.72911090      11.86734322
Hf      15.01363499       7.48299959      12.48117602
Hf      10.55256554      12.58125555      17.21581025
Hf      11.10401909      14.66144717      15.15825481
Hf      16.11047587       8.21868746       9.82605045
Hf      12.07045808      10.15969559      16.64057785
Hf      13.07556473       8.98541973      14.06187129
Hf      16.32525666      10.01648954      12.26437497
Hf      13.70480766      13.98843281      13.90319506
Hf      15.95484695      12.94422586      12.25802174
Hf      14.61147404      11.26570105      14.83231797
Hf      13.14107371      12.97014635      16.56760939
52
Properties=species:S:1:pos:R:3 config_type=qcd gap_pre_relax_energy=-454.658532749489 gap_pred_energy=-455.7179554212468 gap_fmax_final=0.0009672696238403802 gap_converged=1 pbc="F F F"
Hf      17.31550259      13.54728339      11.12166953
Hf      16.88509252      10.76600228      11.73125087
Hf      16.30167169      12.86133512      13.83531342
Hf      16.83348958      11.94617226       8.80755036
Hf      16.28278522      10.12966466      14.59230189
Hf      14.95039712      15.01486026      12.15512304
Hf      15.76493689      14.78332926       9.18394911
Hf      13.87114963      14.45484711      14.88530184
Hf      15.94473506       9.01810530       9.48945906
Hf      15.43761303       8.32287455      12.50878147
Hf      14.65594000      12.57006868      10.40693797
Hf      14.24907859      11.72013465      15.92146599
Hf      14.11646769      10.73576726       7.82047515
Hf      12.46526922      13.44448820      17.46046129
Hf      13.65262229       8.88549042      15.22707264
Hf      13.51961357      13.59565388       7.64620765
Hf      12.28190002      13.29792441      12.20088563
Hf      12.08653353      15.99047360      13.18544454
Hf      14.09698429      11.05022665      13.04923518
Hf      14.17125350       6.76750146      10.52170686
Hf      11.42242764      15.61508799      16.06768107
Hf      12.96093270      15.25039052       9.99585099
Hf      13.29518792       9.55583818      10.51874686
Hf      12.46137783       7.62831177      12.81115568
Hf      11.78121876      10.51546118      16.85193213
Hf      13.57834503       7.93698294       8.11741307
Hf      11.28962123      10.25256104      13.83707240
Hf      11.23572221      12.92933301      14.96135935
Hf      11.26856403       9.64113850       8.24609701
Hf      10.49213919       8.10330120      15.24539596
Hf      11.83776690      12.31031459       9.50606603
Hf       9.48221605      13.71228684      16.93243222
Hf      10.06148441      15.14321313      11.17162339
Hf      10.54492835      14.66994832       8.11700990
Hf       9.61503371       7.51629668      12.44576149
Hf       9.33135069      15.06027666      14.13633012
Hf      10.67062218      12.19538093       6.82348343
Hf      11.33635038       7.32203568      10.05793568
Hf       9.40940589      12.38864772      12.51447995
Hf       9.17714787      10.70166398      16.07168206
Hf      10.29517344       9.95918966      11.07576747
Hf       8.27723956       9.77716579      13.51243368
Hf       8.79967106      12.48014877       9.54967732
Hf       7.74693944      12.71660592      14.72604618
Hf       8.63238830      10.29789405       7.28411120
Hf       7.94055445      15.28664393       9.16372806
Hf       7.26496956      14.23820733      11.87362518
Hf       7.75268845      13.12845733       7.07388974
Hf       7.96136760       8.92255050       9.96652351
Hf       6.69576557      11.34906056      11.41678750
Hf       6.35192130      10.88134733       8.54613424
Hf       5.95199884      13.41761115       9.43673012
52
Properties=species:S:1:pos:R:3 config_type=qcd gap_pre_relax_energy=-454.98839313618834 gap_pred_energy=-455.84655632790253 gap_fmax_final=0.000983014020094826 gap_converged=1 pbc="F F F"
Hf      15.83321425      10.66057063       8.80676372
Hf      15.21195964      13.61003334       9.78660020
Hf      17.31175560      11.96650727      11.00089095
Hf      13.93357741      12.58550723       7.25269362
Hf      14.41606236      15.84985514      11.32625484
Hf      13.26051133       9.75871952       7.41829728
Hf      12.48170924      14.86370182       9.11166356
Hf      16.35868862      14.02898582      12.69811448
Hf      16.64004270       9.41416027      11.38797618
Hf      11.72426787      11.46886533       5.61046398
Hf      11.57719339      14.12268162       6.26550008
Hf      14.78274938      11.59952096      12.55487866
Hf      17.17438064      11.10618489      13.75997207
Hf      13.94668500       8.20260870      10.76086794
Hf      12.68668827      13.59120583      11.77279380
Hf      15.40192445      13.10334272      15.31694900
Hf      11.10420825      12.27304394       8.36688361
Hf      11.89955740       7.41176146       8.49463572
Hf      13.86309220      15.16962326      14.11788002
Hf      11.90240434      16.50766504      12.51751575
Hf      13.35954918      11.26328316      10.00045641
Hf       9.67014471      14.95581510       7.98237290
Hf      10.25258860       9.49081658       7.08316817
Hf       9.05402417      12.47506041       6.55229475
Hf      15.10991868       8.60314157      13.59704987
Hf      14.90329497      10.46851970      15.67816683
Hf       9.16014420       7.67543995       9.11800556
Hf      12.84373574       6.94552314      13.45877432
Hf       9.85794078      15.23390627      10.80296055
Hf      12.33464300       9.64428841      12.70593781
Hf      11.10751345       6.97132732      11.23028122
Hf      12.92471523      14.21144646      16.67555135
Hf       9.15490564      16.67819295      13.24458912
Hf      12.56346842      12.14538824      14.63607890
Hf      10.91508185       9.63344920      10.04052367
Hf      10.40645415      14.13850841      13.64763496
Hf       7.78594252      13.39564486       9.45331572
Hf      12.44422628       9.04254006      15.56357220
Hf      11.04988050      16.18352033      15.46658335
Hf       8.27076122      10.56943914       9.01295117
Hf       9.90568683      12.32427239      11.04205388
Hf      12.46134018      11.40868318      17.32672969
Hf      10.16040897       7.97361094      14.13934242
Hf       9.86848304      11.00316539      13.61078427
Hf       8.68538808       8.81268728      11.74772453
Hf       7.70982611      14.14560068      12.54878350
Hf      10.24330034      13.22289420      16.57914284
Hf       8.32273228      15.14273188      15.38392993
Hf       9.73101350      10.24487899      16.35204754
Hf       7.26537619      11.35002330      12.01879324
Hf       7.75058758      12.29910187      15.05246630
Hf       7.65418299       9.49048558      14.35826931
53
Properties=species:S:1:pos:R:3 config_type=qcd gap_pre_relax_energy=-464.2964333506178 gap_pred_energy=-465.56006997108966 gap_fmax_final=0.0009707133525862528 gap_converged=1 pbc="F F F"
Hf       9.67022185       7.61886203       7.81235575
Hf       8.66836227       9.70797359       6.29856208
Hf       7.26222799       8.98169887       8.81785120
Hf      11.51726312       9.51984976       6.56900302
Hf      12.01728293       6.85734936      11.83853554
Hf      12.19833890       8.17671589       9.25359228
Hf       9.45815405       7.83273670      10.70645355
Hf      14.15675887       9.91522502       7.92549182
Hf      14.59018582       8.38880349      11.39670275
Hf      12.71613242       7.62881602      14.58730771
Hf       9.80909868      10.28353287       8.89524354
Hf      10.19604427      12.32400778       6.52441345
Hf       7.38993676      11.88015832       7.55926007
Hf      10.03581106       7.90170854      13.63407399
Hf       6.21125898      11.38440071      10.23705983
Hf      13.06396845      11.99546435       6.26305863
Hf       6.76692446       8.85881003      11.84959475
Hf      14.22157617      11.14967033      10.65845271
Hf      15.14132892      12.50216426       8.25692953
Hf      12.05352215      12.18153599       8.96681262
Hf      13.90707367      10.29611568      13.76854071
Hf      11.68037112       9.70584404      11.67782538
Hf      15.55434836       8.12428570      14.31317000
Hf       8.82043638      10.76521117      11.77521121
Hf      16.58776237      10.27919767       9.58250658
Hf       8.20860148       9.91794360      14.57882695
Hf      16.58129785      10.34068348      12.50153051
Hf      12.04898635      14.47311183       7.27638839
Hf       6.25171265      14.09215762       8.95422212
Hf       6.23991578      11.34844578      13.07762498
Hf      10.69075738       9.07019788      16.43041707
Hf      16.47450183      12.97661454      10.95721082
Hf       8.79743089      13.20956590       9.95515470
Hf      13.80760101      14.42804408      10.02570714
Hf      11.07792718      12.96810467      11.86166664
Hf       8.78537662      14.76833533       7.54052239
Hf      13.93552074       9.37920404      16.50601374
Hf      16.39994132      10.52394723      15.42526660
Hf       9.44756718      11.79973713      16.45486916
Hf      11.05400968      10.89748212      14.32233169
Hf      13.84335848      13.09441505      12.88597664
Hf       6.69150516      13.98912974      11.82013064
Hf      16.48231437      13.12595953      13.98549355
Hf       7.98744926      15.96625694      10.02748529
Hf      10.89845597      15.34684879       9.77820638
Hf      15.45562759      15.34204641      12.29464324
Hf      12.48729894      15.62134779      12.63195417
Hf       8.63077919      12.82499859      13.88787189
Hf      12.01420168      11.49729248      17.16110053
Hf      14.38719071      12.45567345      16.03581703
Hf       9.38625927      15.25837113      12.36963808
Hf      11.64598673      13.73783016      15.02068556
Hf      14.37050792      15.06258978      14.84170862
53
Properties=species:S:1:pos:R:3 config_type=qcd gap_pre_relax_energy=-463.1129934272799 gap_pred_energy=-464.4205700879529 gap_fmax_final=0.000989673642213861 gap_converged=1 pbc="F F F"
Hf      11.06373863      11.74575719      17.42747785
Hf      11.93110545       6.94420110      14.00682073
Hf       9.10510843       7.67550372      14.83887413
Hf      11.13484519       9.54872892      15.40406769
Hf       8.61981829      11.20591003      16.28007526
Hf      13.60347377      11.47924342      16.03926431
Hf      13.62352748       9.81087330      13.55128979
Hf      12.33143367      14.18411546      16.53924666
Hf      15.80735713      11.85555745      13.63917428
Hf       9.43114545       5.72331656      12.91316652
Hf       9.38513697      13.91395959      16.48940737
Hf      15.20883390      13.87986715      15.83394598
Hf      11.61595653       5.78093950      11.32841349
Hf      10.35650219       8.52003221      12.29851624
Hf      13.32026261       8.06541326      11.26116106
Hf      10.67771533      12.29131858      14.58048271
Hf       8.36527953      10.32596859      13.66266710
Hf       7.51902437       7.79393499      12.45825859
Hf       7.75173461      13.21128520      13.99491514
Hf      15.80414733      14.92705149      13.34136672
Hf      16.10299852       9.36695013      11.77240458
Hf      16.97047699      12.05302133      11.00741677
Hf      13.67657958      16.10762332      14.82547879
Hf      13.33066772      13.44246815      13.72993849
Hf      11.63719746      11.33347842      12.00305198
Hf       9.11185200       6.80742208      10.18152720
Hf      14.26796910      11.07187412      10.68318270
Hf      10.88445184      15.23801145      14.09758310
Hf       8.15248157       9.64722513      10.26101505
Hf      14.58149950      13.94454827      11.00815351
Hf      12.96527249      16.15032875      12.03943576
Hf       6.35336438      11.38002197      11.91856414
Hf      11.30729325       9.79255042       9.64833325
Hf      16.50373604      10.25984278       8.93014825
Hf      14.03390483       8.85028575       8.55468401
Hf       8.97044649      12.41039134      11.30455038
Hf      11.70701769       7.14199731       8.71202502
Hf      11.78227771       9.65074853       6.81018079
Hf      11.35579955      14.01881163      10.81084947
Hf       9.01588729      15.50946643      11.86253540
Hf      12.60957303      12.47924597       8.60647995
Hf       9.34435584       8.63102937       7.85626679
Hf       6.61068229      14.11395558      11.33122207
Hf      15.77661794      13.03468557       8.55875414
Hf       6.95515279      12.16902658       9.27751549
Hf      13.31679937      15.61984132       9.06274902
Hf      10.76166062      16.58252760       9.80740472
Hf      14.44623040      11.18369880       6.74437877
Hf       9.70016578      11.77176510       7.95989725
Hf       8.67829407      14.55402083       9.17146915
Hf      11.81613844      12.35678405       5.86313317
Hf      13.86282514      14.05062396       6.61866977
Hf      11.09788985      14.73645673       7.43611588
54
Properties=species:S:1:pos:R:3 config_type=qcd gap_pre_relax_energy=-472.62075713167036 gap_pred_energy=-474.28418673396754 gap_fmax_final=0.0007942103162720181 gap_converged=1 pbc="F F F"
Hf      13.44970612       7.73573555       9.24358919
Hf      11.94940158       6.09895052      11.29399263
Hf      10.60339490       6.88088313       8.82732505
Hf      14.82491465       7.28214404      11.91179727
Hf      11.48092880       8.88375519       7.16941848
Hf      13.01837487       6.23065374      14.03443831
Hf      13.74138238      10.45201928       8.28070321
Hf      16.27395636       9.42058285       9.87979465
Hf      10.26533448       6.43191238      13.64844120
Hf      16.62759272       9.71171359      12.87890674
Hf      17.84507849      11.61981447      11.13000106
Hf      11.24415174       9.65600207       9.85883540
Hf       9.27653689       7.87492317      11.19108836
Hf      14.43536482       8.67279382      14.63604319
Hf      11.92068783       8.56288490      12.77964627
Hf      10.29186169      11.57799998       7.62043575
Hf       8.87288883       9.12544706       8.40963560
Hf      11.62786755       8.35913523      15.61322517
Hf      15.67700581      12.39689142       9.32895313
Hf      12.66461252      13.45327239       7.89921295
Hf      17.49467109      12.95539625      13.77915316
Hf      14.03942058       9.97903772      11.29990952
Hf      12.77641310      12.32997981      10.53761972
Hf      15.27247330      12.50082801      12.29812586
Hf      15.96781485      10.93127803      15.41692635
Hf       9.97635646      14.40225283       7.40428041
Hf      17.12395470      14.28671926      11.13263568
Hf      13.10375539      11.28034188      14.04472297
Hf       9.11335791       9.00021613      13.93316590
Hf      10.48191723      11.20088994      12.37209267
Hf      14.24876358      14.90765610      10.46043940
Hf       7.83412344      13.00567883       8.65358114
Hf      14.79279315      13.45728469      15.36083594
Hf      10.20111350      13.35808264      10.04862717
Hf      13.37204684      10.87411392      16.70798058
Hf       8.19949405      10.90197396      10.73229481
Hf      11.68253241      16.01198048       9.22686551
Hf      12.89955707      14.08156793      13.01584384
Hf      10.41215167      11.07602796      15.45182954
Hf      15.48414388      15.41384457      13.22357189
Hf       9.97775993      13.61807664      13.83089692
Hf      11.91224370      13.46871503      16.09325643
Hf       8.69858764      15.87281712       9.64529099
Hf       7.70115218      13.78530839      11.60904344
Hf       7.81355887      11.78935110      13.92179763
Hf      10.64386610      15.65830151      12.02486762
Hf      13.00397611      17.26985357      11.98171508
Hf      10.25695251      18.11167863      10.78582010
Hf      12.44881802      16.23215207      14.70924825
Hf       8.83314507      13.41786457      16.33523426
Hf       7.27768998      14.63989273      14.33971142
Hf       9.45787714      16.17128656      15.25826399
Hf       8.16296421      16.86215091      12.59553679
Hf      10.65179519      18.12816934      13.54161534
54
Properties=species:S:1:pos:R:3 config_type=qcd gap_pre_relax_energy=-472.35099530949407 gap_pred_energy=-473.7644368898997 gap_fmax_final=0.0009475252513558758 gap_converged=1 pbc="F F F"
Hf      16.88582509      12.16990360      10.61249840
Hf      15.09562261      15.65450314      10.22462199
Hf      16.35259312      13.90397073       8.18466679
Hf      17.06164876      12.27450316      13.62809079
Hf      16.62741576       9.20707626       9.78980426
Hf      14.77609245      13.67265138      12.45230780
Hf      16.91182037       9.62343685      12.65448160
Hf      16.15863050      10.41084469      15.73183025
Hf      15.21939872      13.22482729      15.35832676
Hf      14.26274083      15.60838129       7.51780602
Hf      14.44067658      10.78256241      10.68655192
Hf      15.70505887      11.13118275       7.98546790
Hf      13.71799177      13.29957909       9.19111938
Hf      14.74032560       7.86600453      11.41731925
Hf      14.24480401      13.01032435       6.39114813
Hf      12.15172957      16.01274894       9.41987817
Hf      13.80556431       8.74565521       8.69142788
Hf      12.49833925      15.43545961      12.13793703
Hf      15.19137737       8.02072101      14.28432515
Hf      14.43282420      10.90642243      13.67577681
Hf      13.61305590      11.68889303      17.04772064
Hf      12.16530737      12.36392523      12.03533079
Hf      13.30413907       9.04071316      16.12300229
Hf      12.48162809       8.56346342      13.19300524
Hf      11.66588886      14.16283214       7.06970249
Hf      12.39934475      14.07144363      14.62169020
Hf      12.03566606      11.19071477       7.74280205
Hf      10.68964359      13.25368925       9.67046982
Hf      11.77287320      11.18582170      14.81046011
Hf       9.52255610      15.55786667      14.59292428
Hf      10.22203047      13.22105540      16.44607525
Hf      11.00882984      10.41824942      17.36000270
Hf      10.95414394       8.38482863       8.19924185
Hf       9.53779337      15.69836467       8.39349520
Hf      11.92509512       7.03172426      10.52534961
Hf      11.58515760       9.90100840      10.46810887
Hf      10.23684820       8.48715810      15.23962393
Hf       9.67308982      13.08576647      13.52867775
Hf       9.62259192      15.43830193      11.46301708
Hf       8.75082135      13.14075057       7.51288723
Hf       9.04037629      10.43732146       8.71227738
Hf      10.06192182       7.09609045      12.82909797
Hf       9.57550208      10.15041049      12.67188213
Hf       8.28776241      12.27073494      10.93781994
Hf       8.56423670      10.78980652      15.65813324
Hf       9.00438279       8.06736754      10.48027890
Hf       7.57830375      13.59320403      15.46421438
Hf       7.19961101      14.58264829       9.64811160
Hf       7.15588561      14.54295871      12.77437612
Hf       7.59208066       8.50889021      13.47300674
Hf       6.48359413      11.88146241       8.67580899
Hf       6.71296352      11.48035548      13.44276156
Hf       6.64850241       9.90463236      10.88090545
Hf       5.48848459      12.68737964      11.11294405
55
Properties=species:S:1:pos:R:3 config_type=qcd gap_pre_relax_energy=-483.3140318924551 gap_pred_energy=-484.5798414245619 gap_fmax_final=0.0009692900783274402 gap_converged=1 pbc="F F F"
Hf      11.02868060      11.02868831      11.02868231
Hf      11.09263050      12.86145176      13.43629428
Hf      11.05882729      12.84580789       8.60203983
Hf      10.99858774       9.21156320      13.45530505
Hf      10.96471953       9.19592283       8.62106640
Hf      12.85075781      13.45157913      10.99905512
Hf       9.20171012      13.44077206      11.08813260
Hf      12.85564216       8.61662086      10.96926425
Hf       9.20661692       8.60578989      11.05831668
Hf      13.43748934      10.96545441      12.85947851
Hf      13.45396475      11.05117607       9.21022607
Hf       8.60340577      11.00617064      12.84713222
Hf       8.61985659      11.09195061       9.19787821
Hf       6.20124655      11.02740326       7.98394428
Hf      11.02697030      14.07718065      15.85412463
Hf      11.04398414      14.07108102       6.18573943
Hf      11.01338695       7.98627122      15.87164680
Hf      11.03038631       7.98019183       6.20325278
Hf      14.08180442      15.86506531      11.01461775
Hf       7.99108021      15.86104549      11.01892717
Hf      14.06629534       6.19631984      11.03843992
Hf       7.97557119       6.19230167      11.04274650
Hf      15.85614532      11.02996650      14.07344191
Hf      15.86916628      11.02992847       7.98291324
Hf       6.18820395      11.02743270      14.07445307
Hf      11.03275314      15.81869798      11.00412795
Hf      11.02461920       6.23866592      11.05323657
Hf       6.23919425      11.01462928      11.02549901
Hf      15.81817102      11.04274656      11.03186815
Hf      11.04994949      11.02212991       6.23936214
Hf      11.00741661      11.03523628      15.81799695
Hf      12.72094266       6.93096929      13.56295023
Hf       9.32011553       6.84784104      13.60319145
Hf      12.67539298       6.83347786       8.49007188
Hf       9.36698191       6.81368794       8.48986802
Hf      15.24016778       8.47924862       9.37513045
Hf      15.21504522       8.48203435      12.68359217
Hf       6.92884592       8.50235892       9.33190001
Hf       6.84020384       8.46453379      12.73274165
Hf      12.73726270      15.20952614       8.45416821
Hf      12.69038083      15.24368533      13.56749619
Hf       9.33641849      15.12633058       8.49444086
Hf       9.38196903      15.22392387      13.56730579
Hf       8.48942579      12.68521435       6.81233215
Hf      13.60258286      12.72487860       6.84371205
Hf       8.48462960       9.37631612       6.83922216
Hf      13.55717721       9.32281389       6.93395045
Hf       6.81719371      13.57812384      12.68223748
Hf       6.84230853      13.57533672       9.37380328
Hf       8.45479048       9.33246673      15.21362841
Hf      13.56794944       9.37213136      15.24503606
Hf      13.57273228      12.68107056      15.21815748
Hf       8.50018876      12.73456300      15.12338749
Hf      15.21714379      13.59282465       9.32460574
Hf      15.12853683      13.55502089      12.72548055
55
Properties=species:S:1:pos:R:3 config_type=qcd gap_pre_relax_energy=-483.38847667307556 gap_pred_energy=-484.4912685270207 gap_fmax_final=0.0009123057078882136 gap_converged=1 pbc="F F F"
Hf       8.68529746      11.59208351      10.53353108
Hf      18.05989284      14.75604970      12.53530446
Hf      15.41107378      10.83859903      15.08191994
Hf      11.59213177       8.35391095      12.62786830
Hf      16.13371495      14.40237370      14.99236557
Hf      11.60982591      10.94466813      17.61272484
Hf      13.76846090      13.23201475      10.19805048
Hf      12.70489310      15.96730789      17.92207836
Hf      16.21836324       9.50833691      12.41618565
Hf      10.94004524      12.18399805      12.03960508
Hf      11.06672797      12.55767147       9.10405391
Hf      12.26429877      10.80981067      14.53393371
Hf       8.36548013      14.42689384      15.61313424
Hf       8.23022303      12.98991265      13.07990374
Hf       9.45249612      11.60997617      15.51551528
Hf      13.44644919      17.56517615      10.84781002
Hf      10.44364459      17.23512079      10.84838448
Hf      17.26315566      14.73697797       9.87230844
Hf      11.65562972      17.67759729      13.42959041
Hf      14.02417605       8.44809292      13.88615679
Hf      15.17762856      15.21230721      11.97196074
Hf      13.55959720       9.18499713      16.64764398
Hf      10.79358794       8.80423745      15.56383482
Hf      13.20155622      15.63365868      15.07291334
Hf      17.87923505      12.07360405      14.04295532
Hf      16.46000587      12.36914110      11.52133063
Hf      10.39206979      16.55677394      15.94026215
Hf      13.46947319      12.93122928      16.34605282
Hf      13.99442585      13.00334069      13.38994508
Hf      14.77723692      11.32992163      18.23400160
Hf      10.67083295      13.82344813      17.28669297
Hf      10.78412039      14.04200766      14.34909388
Hf      19.02613153      14.37427309      15.16737629
Hf      17.50016889      16.87478913      14.47053328
Hf      16.56916816      17.31832087      11.09922185
Hf      15.27040592      14.39392107      18.15154803
Hf      15.32147449      17.03805085      16.61125218
Hf      14.74235947      17.73273987      13.61233066
Hf      11.84155219      15.52154357       8.99056584
Hf      13.59099067      10.63826223      11.73595538
Hf      12.80885452      18.23439800      15.98359365
Hf      13.37221342      10.71646249       8.57841807
Hf       9.31042849      10.00022995      13.00781184
Hf      17.28269321      12.58506409      16.88154074
Hf      15.84606249      10.12697448       9.74913839
Hf      14.82175089      15.71623184       8.91734040
Hf      12.81359696      13.22158095      19.12223907
Hf      13.27429519      13.50866064       7.42990988
Hf      12.08840887      15.19324292      11.87582380
Hf      17.70266246      15.54878056      17.19375331
Hf      15.82812150      12.71134398       8.32457213
Hf       9.06866526      16.07429589      13.20052214
Hf      10.96592912       9.76381574      10.25999143
Hf      13.82255069       8.21646193      10.63059330
Hf       9.40564250      14.45919358      10.71873342
