3
Properties=species:S:1:pos:R:3 config_type=qcd gap_pre_relax_energy=-3.791290273220439 gap_pred_energy=-3.8101498852145275 gap_fmax_final=0.00036582648372099737 gap_converged=1 pbc="F F F"
In       8.87886226       9.22187121       6.75130233
In       7.82646036       6.45238014       7.58315638
In       7.47623073       8.50730201       9.84709464
4
Properties=species:S:1:pos:R:3 config_type=qcd gap_pre_relax_energy=-5.936533603062665 gap_pred_energy=-5.940684760602418 gap_fmax_final=0.0006453795657769149 gap_converged=1 pbc="F F F"
In       7.31894925       9.83051263       8.04933263
In       9.62836026       8.15871519       8.79623358
In       8.33372938       5.81562627       7.56339294
In       5.99821110       7.47439591       6.87029085
5
Properties=species:S:1:pos:R:3 config_type=qcd gap_pre_relax_energy=-7.881709350761842 gap_pred_energy=-8.225086036495757 gap_fmax_final=0.0007035950998483889 gap_converged=1 pbc="F F F"
In       8.78378504       9.07499287      10.93398563
In       6.75045040       9.44796621       8.71194820
In       8.87492736       8.58325588       6.72456365
In      10.41193919      10.31035391       8.69080060
In       9.32562493       6.73015807       9.08542885
6
Properties=species:S:1:pos:R:3 config_type=qcd gap_pre_relax_energy=-10.537754270422708 gap_pred_energy=-10.541210994728173 gap_fmax_final=0.0008483205559739957 gap_converged=1 pbc="F F F"
In       6.77188440       7.48589158       9.71844224
In       9.34914371       6.38832066       8.93304917
In       6.64401085       9.06039604       7.09777034
In       9.22185860       7.96373478       6.31294227
In      10.50937767       9.21590548       8.79070500
In       7.93156219      10.31358887       9.57492840
7
Properties=species:S:1:pos:R:3 config_type=qcd gap_pre_relax_energy=-12.68442671150725 gap_pred_energy=-12.712295474585538 gap_fmax_final=0.0004946413635564218 gap_converged=1 pbc="F F F"
In       9.40574095       9.70555516       6.90464210
In       6.43097118      10.04456485       7.59214314
In      10.18502435       9.62746764       9.72130206
In       7.32312519       9.53210837      10.32484746
In      10.77738997       6.93005007       8.38076353
In       7.61595646       7.26072214       7.04549127
In       8.11110081       6.74884069       9.88011937
8
Properties=species:S:1:pos:R:3 config_type=qcd gap_pre_relax_energy=-14.983454459308366 gap_pred_energy=-15.03012249793871 gap_fmax_final=0.0009930619703465158 gap_converged=1 pbc="F F F"
In       8.09756633       6.74439530       9.48995890
In      10.35105950       8.22986024       6.27192046
In       9.87233869       9.29093847      10.30819873
In       6.93991398       9.07956904      11.03008998
In      11.04804836       6.92108842       8.83596350
In       9.21138803      10.56189675       7.81960670
In       6.26263829      10.37918942       8.45614303
In       7.42636306       8.00237857       6.99743495
9
Properties=species:S:1:pos:R:3 config_type=qcd gap_pre_relax_energy=-17.12144435456089 gap_pred_energy=-17.250495703600574 gap_fmax_final=0.0007506534816516259 gap_converged=1 pbc="F F F"
In       8.82932805       8.68683235       6.20029856
In       9.78469542      11.13151441       7.61467312
In      11.21146964       9.37814860       9.58427687
In      10.28579690       7.00814278       8.21163489
In       8.11072928      10.31731721      10.03369390
In       8.65800775       6.19026105      10.61284319
In       7.19018940       7.96546623       8.67127903
In       9.61795956       8.64311732      12.03516589
In       6.47732952      10.84470558       7.20164005
10
Properties=species:S:1:pos:R:3 config_type=qcd gap_pre_relax_energy=-19.38227239124388 gap_pred_energy=-19.82621578254993 gap_fmax_final=0.0008856600257019422 gap_converged=1 pbc="F F F"
In      13.59432935      15.79047553      12.31666276
In      13.94896725      12.94232507      13.39353157
In      16.54409295      16.52925478      12.57492719
In      16.34745071      14.32341076      14.52209143
In      13.86839386      16.06808683      15.28460280
In      16.00721610      18.09315068      15.14581400
In      12.28098750      13.56051685      15.87714732
In      17.36065247      15.93766351      16.83026729
In      14.73533634      14.67375741      17.78232803
In      15.31257347      12.08135859      16.27262762
10
Properties=species:S:1:pos:R:3 config_type=qcd gap_pre_relax_energy=-19.294231492283792 gap_pred_energy=-19.57888997656523 gap_fmax_final=0.0009989097989844629 gap_converged=1 pbc="F F F"
In      14.54651170      14.96641620      11.51593411
In      15.87472183      12.55867741      12.63120707
In      13.36222015      15.52315860      14.24012869
In      17.52205784      14.33875106      14.46537422
In      16.20735457      16.71810332      13.36498815
In      14.65564225      13.18140259      15.32479940
In      15.14988976      17.40908548      16.12075648
In      16.46523939      15.02999573      17.22115006
In      12.44270847      16.34036073      17.00010985
In      13.77365403      13.93404888      18.11555198
11
Properties=species:S:1:pos:R:3 config_type=qcd gap_pre_relax_energy=-21.75097329902184 gap_pred_energy=-21.998568035767565 gap_fmax_final=0.0008225078809827506 gap_converged=1 pbc="F F F"
In      11.52997041       9.85652690       8.91806504
In       6.06714663       8.61664518       6.74310958
In       5.65101748      10.71059831       8.95454354
In       7.01717340       6.05800135       8.19048691
In       9.09030670       6.84258950       6.03917236
In       9.62657393       6.87292370       9.60387809
In      11.76226087       7.12185667       7.53293425
In       9.71339236       9.39033601      11.37238454
In       8.50683394      11.63123130       9.62150295
In       7.04928945       8.38652480      10.20262805
In       8.83449182       9.36122331       7.66975168
11
Properties=species:S:1:pos:R:3 config_type=qcd gap_pre_relax_energy=-21.76189327447364 gap_pred_energy=-21.971093481228852 gap_fmax_final=0.0009796207991419968 gap_converged=1 pbc="F F F"
In       9.90711447      11.09548842      11.11431847
In       8.35821347       8.33195473      11.59589407
In       6.80917675      10.89031177      10.44373683
In      10.83883565       7.33014014      10.11064713
In      11.92403853      10.03022559       9.12638520
In       8.91990749       9.43835234       8.65816159
In       5.94054673       9.63130351       7.83293718
In       6.85732010       7.06504469       9.24978933
In      11.06169733       8.92781823       6.44389645
In       9.35085706       6.46786089       7.58035885
In       7.96222945       8.72143668       5.77381187
12
Properties=species:S:1:pos:R:3 config_type=qcd gap_pre_relax_energy=-24.008199831629152 gap_pred_energy=-24.309486208150187 gap_fmax_final=0.0009431297842026264 gap_converged=1 pbc="F F F"
In       7.92706514       7.53096449       7.60663328
In       6.19126056      10.00287973       9.46936179
In      10.54151542       9.27240507       7.62783051
In       7.74818082      12.01579625      11.28343811
In      12.13386321      11.13973068       9.84706829
In      11.82064977       8.02283928      10.21075998
In      10.32564027      10.52687579      12.23615277
In       7.60684330      10.56788080       6.81798693
In       8.99931544       6.15365405      10.52442871
In      10.77519088       6.14515825       7.86946771
In       9.43530003      11.93355347       8.77876162
In       8.89367551       9.08676249      10.12661069
12
Properties=species:S:1:pos:R:3 config_type=qcd gap_pre_relax_energy=-23.876500694629637 gap_pred_energy=-24.31585583727877 gap_fmax_final=0.0008648696324347263 gap_converged=1 pbc="F F F"
In      10.25109872       8.10918376      11.87571186
In       8.30781590      10.60103984      12.55777589
In       7.86963461       9.49817256       9.77502142
In      11.18402233      11.02075734      11.94411926
In      11.01639142       9.04783751       9.09680307
In       9.77568544      11.81261205       9.31802554
In      12.33436963      13.26786222       9.12527580
In       8.70229675      13.52566297      11.57862315
In      11.71881701      13.94912285      12.02746792
In      14.12121662      11.99209245      12.59905951
In      13.50774378      10.57860724       9.82992734
In      13.31113389       8.69727529      12.37241537
13
Properties=species:S:1:pos:R:3 config_type=qcd gap_pre_relax_energy=-26.709478312536838 gap_pred_energy=-26.927036579064257 gap_fmax_final=0.0007874427792490001 gap_converged=1 pbc="F F F"
In       8.12667994       7.35591801       6.59185165
In      11.05479597       8.79837611       6.63569939
In      10.47267353       6.22906170       8.56184149
In       6.81986101       9.99461760       7.06057808
In       9.74707772      11.43703846       7.10501834
In       6.09363290       9.09238755      10.11238997
In       7.66039396      11.90367110       9.57109853
In      12.13799167       8.78824513       9.71523461
In      10.83072639      11.42686942      10.18357293
In       7.40116328       6.45399236       9.64363723
In       9.06649260       9.06636747       9.06632936
In       8.57245334       9.97781356      12.04264380
In       9.87974423       7.33932810      11.57379117
13
Properties=species:S:1:pos:R:3 config_type=qcd gap_pre_relax_energy=-26.427938882387956 gap_pred_energy=-26.576916950812652 gap_fmax_final=0.0006747672533345808 gap_converged=1 pbc="F F F"
In      10.52475928      12.80456260      10.38477725
In       8.44279489      11.36682086      12.01622306
In       9.21278744      12.56614486       7.70251979
In      10.72223765       9.37241131      12.24015951
In       7.16817405      10.83788757       9.30745954
In      12.84308587      10.85020988      10.58442366
In      12.54130632       8.08359708       9.09405108
In      10.16292644       9.91466651       9.19040107
In      10.87521573       6.59006797      11.14537490
In       8.74997917       9.58649320       6.50885904
In       8.10567189       8.16012463      10.75281874
In       6.38631420       8.08223432       8.08465989
In       9.49953552       7.01956765       8.22306093
14
Properties=species:S:1:pos:R:3 config_type=qcd gap_pre_relax_energy=-28.93265907109877 gap_pred_energy=-29.197079278122473 gap_fmax_final=0.0008874032132897788 gap_converged=1 pbc="F F F"
In       8.00823430      11.33006101      11.39766433
In       6.25315119      11.34632388       8.60275161
In       9.14806591       6.99566220      11.50182580
In      10.60653287       9.79214252      12.39130894
In      12.12852544       7.70545135      10.42246879
In      10.87452767       7.11331743       7.67552312
In      12.48371285      10.20225844       8.65890887
In      11.24352090      12.19620187      10.53455959
In      10.30075056       9.92011759       6.45736123
In       6.65051771       8.72729912      10.56929949
In       9.54593044       9.34300861       9.50558059
In       8.15810716       6.27449517       8.65018700
In       9.13903149      12.13669810       8.33018443
In       7.46350463       8.92107584       7.30648935
14
Properties=species:S:1:pos:R:3 config_type=qcd gap_pre_relax_energy=-29.17838882129344 gap_pred_energy=-29.229862997345762 gap_fmax_final=0.0009779007197021105 gap_converged=1 pbc="F F F"
In       9.84909432      10.11429197      10.24932652
In       9.84909049      10.11433414      13.24245241
In      12.08484329      11.74580463       8.53341594
In      12.91859009       9.09920024      10.23568184
In      12.91858978       9.09921526      13.25608492
In      14.86214261      11.74502171      10.25748412
In      14.86213954      11.74503253      13.23427375
In       9.84992187      13.37842161      13.24239840
In      12.08483307      11.74584107      14.95833556
In      12.91999786      14.39192824      13.25605497
In      12.09377582      11.74577989      11.74587577
In      12.92001503      14.39191837      10.23568760
In       9.84994227      13.37839981      10.24928931
In       7.37920294      11.74698951      11.74581785
15
Properties=species:S:1:pos:R:3 config_type=qcd gap_pre_relax_energy=-30.96483672957363 gap_pred_energy=-31.429832557537434 gap_fmax_final=0.0008568355774479199 gap_converged=1 pbc="F F F"
In      15.69074534       9.99198159      12.14778328
In      14.24649474      12.29319370      13.84925757
In      16.20580942      14.20060222      12.14759656
In       9.90208349       9.39194463      12.14774565
In      12.71434074       9.73073103      13.79276688
In      14.24643240      12.29313993      10.44626946
In      12.71430439       9.73060838      10.50295202
In      11.62325813      13.85668197       9.49521184
In      13.18419772      14.86719616      12.14785468
In      10.03799057      11.28781797       9.51808318
In      11.54917516      12.14587209      12.14786308
In      10.02062469      14.90518688      12.14789013
In      10.03785459      11.28764709      14.77742175
In      11.62321516      13.85650326      14.80049735
In       8.42041298      12.37783261      12.14774609
15
Properties=species:S:1:pos:R:3 config_type=qcd gap_pre_relax_energy=-31.218612914448226 gap_pred_energy=-31.45963686342456 gap_fmax_final=0.0009378413763695884 gap_converged=1 pbc="F F F"
In      10.35135883       6.23341479       5.89988139
In      11.62990546      10.62626403       9.90658470
In      11.40589594       8.10287874       8.00094867
In      10.39419887      10.91228235       6.86714764
In       9.95133610       6.62230883      10.09326773
In       8.86590031       4.71990276       8.03835137
In       9.05572492      12.55275498       9.45745990
In      10.14840096       9.11962593      12.03653414
In       8.40617511       8.50176744       6.19935101
In       7.24348910       7.70704820      11.39729066
In       7.13350137      11.22662618       7.20256366
In       7.55903143      11.03036436      11.60865532
In       6.95219995       7.02097604       8.29184275
In       8.79103116       9.44450964       9.20843826
In       5.65206338       9.71948861       9.33189567
16
Properties=species:S:1:pos:R:3 config_type=qcd gap_pre_relax_energy=-33.329798854629196 gap_pred_energy=-33.619554634406434 gap_fmax_final=0.0009756985562721128 gap_converged=1 pbc="F F F"
In      14.81987728      10.10622412      11.91224792
In      12.44294129      17.12147102      12.19894396
In      12.54504499      11.50062496      15.79386593
In      12.53048900      12.22073307      12.63625195
In      12.58308759       9.29558844      13.73500849
In      15.23332305      12.31374085      14.25048063
In      12.49144548      14.47298146      14.56289650
In       9.82769673      12.21754875      14.25363386
In      14.96414558      15.43158957      13.12561488
In      15.12761262      13.15567781      11.05278196
In       9.98451664      15.34298804      13.12848848
In      12.48760369      14.56133785      10.62902021
In       9.89970823      13.06267225      11.05576769
In      12.59973176       8.25315735      10.43277990
In      12.54481684      11.31640050       9.71619037
In      10.31675488      10.02605959      11.91482293
17
Properties=species:S:1:pos:R:3 config_type=qcd gap_pre_relax_energy=-35.34711611290115 gap_pred_energy=-36.052591978197626 gap_fmax_final=0.00095963966472646 gap_converged=1 pbc="F F F"
In      14.61009242      12.64781836      13.33476236
In      12.17080536       9.87636302       9.37811965
In      10.27949815       9.43629877      14.25778970
In      12.15163292      16.75908558      12.14829184
In      12.63773786      11.05562253      15.27526413
In      14.59511705       9.55661813      13.00384460
In      11.77557153      13.89859919      14.03704985
In      15.64145339      14.65413945      11.10405236
In       9.43132866       9.69199132      11.17896328
In      14.54149376      11.54195687      10.32299956
In       9.31054805      12.33718137      13.28182176
In      12.03161987      11.21544648      12.23571220
In      12.64708903      14.02441030      10.82495178
In      12.18865294       8.06938018      12.08365165
In      14.42469670      15.64536760      13.83163370
In      10.21122893      12.55164095      10.04332946
In       9.48455791      15.17120442      11.79088667
18
Properties=species:S:1:pos:R:3 config_type=qcd gap_pre_relax_energy=-37.7940832390708 gap_pred_energy=-38.08194662761778 gap_fmax_final=0.0009316707635341056 gap_converged=1 pbc="F F F"
In      10.66694934       8.65678245      12.49566322
In      13.28202124       7.85491852      10.90230891
In      13.39956013       9.49399763      13.52510119
In      12.42136076      10.91499732      10.90226570
In      13.39953584       9.49406218       8.27960881
In      10.66699830       8.65679270       9.30900394
In      10.70659213      11.69994011      13.52193331
In      13.58170024      12.48406464      13.54609260
In      10.75889036      13.63411557      10.90232645
In       8.02707961       9.98080959       8.20490331
In       9.10397335      10.92764141      10.90234197
In       8.02705427       9.98080825      13.59973550
In       8.07386468      13.22315401      12.61202907
In       8.07387447      13.22314576       9.19260692
In       8.01832678       8.05756291      10.90232345
In      13.74589772      13.77521047      10.90237963
In      13.58169390      12.48409609       8.25866392
In      10.70666379      11.69993728       8.28274899
19
Properties=species:S:1:pos:R:3 config_type=qcd gap_pre_relax_energy=-40.21401802434553 gap_pred_energy=-40.70171862576057 gap_fmax_final=0.0008677047364726641 gap_converged=1 pbc="F F F"
In       9.21463177      14.68754315      10.53054526
In      10.48072085      14.88156896       7.79224106
In      12.90754282      14.92974504       9.56456514
In      11.66164644      13.72305221      12.09411903
In      14.80960560      14.31178665      12.15513051
In      11.67849459      10.39702167      11.86720743
In      13.85165424      12.08286739      10.22753978
In      10.88811886      12.09531978      14.55173015
In      12.69928725       9.37427168       9.16726244
In       8.84761170      14.20131537      13.65442380
In       9.57242335       9.56696627       9.55023074
In       9.23480856       9.62622681      13.96714580
In       8.86692299      11.73396729      11.68939589
In      10.98227635      12.24127599       9.27436008
In      13.80258862      11.87147318      13.68925651
In      12.43317970       9.15808000      14.60926067
In      12.98717248       7.52032157      11.89351492
In       9.97092648       7.71269024      11.81114593
In      15.00634867       9.78046803      11.80688619
20
Properties=species:S:1:pos:R:3 config_type=qcd gap_pre_relax_energy=-42.470773564443604 gap_pred_energy=-43.05672719754024 gap_fmax_final=0.0009424541728322908 gap_converged=1 pbc="F F F"
In      13.91692549      13.91384664       9.56325191
In      14.33069530       8.31255770      10.43731371
In      14.13553538      14.15621688      12.76131804
In       8.84009035      14.05306956      12.50040426
In      11.71395882      11.62673772       8.87578150
In      11.59636289      15.68053716       9.78094523
In       8.89892905       8.57624105      12.69526804
In       9.45657098       8.43072542       9.67699180
In      11.66834194       9.68708443      11.54861458
In       8.95892797      11.20553407      10.78421979
In       9.87375904      11.29200738      13.76796000
In      12.15838308       8.73205057       8.48531278
In      14.31091603      11.28620294      11.05460698
In       9.38342599      13.82548733       9.34428709
In      11.56442590      12.95243433      11.58898832
In      13.08285936      11.36774066      13.93609624
In      11.46494651      16.04308063      12.69345397
In      11.34504131       8.68559278      14.55611628
In      14.11594374       8.58310937      13.38938614
In      11.36716559      13.77294810      14.74288806
21
Properties=species:S:1:pos:R:3 config_type=qcd gap_pre_relax_energy=-44.425568812743 gap_pred_energy=-45.26288796450158 gap_fmax_final=0.0009483321388536909 gap_converged=1 pbc="F F F"
In      11.57372834      11.68373882       7.25480547
In       8.75418726      11.70505323      12.42304856
In       8.34496627      11.74266463      15.44242511
In      15.36939076      11.83913519      12.04993228
In      14.42466334      11.86527340      14.94879961
In      11.81763362      14.16934860       8.95409925
In      10.21048708       9.28297259      13.86576176
In      11.84673116       7.58342083      11.72998647
In      12.00528964      11.76234991      11.67020386
In      13.30799862      14.33445095      13.70449640
In      14.09406539      11.76558664       9.10295240
In      14.34934878      14.41398833      10.77728222
In       9.16943668      14.32442936      10.72325646
In       9.40126052      11.67075053       9.33935502
In      13.41341959       9.31324295      13.78355908
In      11.92125786       9.26520671       9.03068634
In      10.10664109      14.22973415      13.78907094
In      14.45929743       9.18460957      10.85995450
In      11.67017084      15.93027425      11.59932696
In       9.28052501       9.05343387      10.80486748
In      11.40113181      11.80196659      15.06776094
22
Properties=species:S:1:pos:R:3 config_type=qcd gap_pre_relax_energy=-47.0543921925839 gap_pred_energy=-47.728488990530685 gap_fmax_final=0.0008560044207986239 gap_converged=1 pbc="F F F"
In      13.78138292      14.10264413      14.38818333
In      10.55344538      11.42128471      11.41290392
In      13.37929945      14.89647983      11.16515367
In      11.22852193      12.27078247      14.40263195
In      12.66762105      12.49046066       9.32723405
In       8.97716237       9.94005115      13.82123540
In      10.32295716      14.68054576      11.40413780
In       8.38777647      12.94460538      13.25273067
In      12.83173306      16.89424775      13.46010951
In       9.52535096      12.93337137       8.89300645
In      10.43919931      15.26242116      14.47921699
In       7.54208250      11.30086605      10.75662361
In      13.54061994      11.83215204      12.23336349
In      16.02847090      13.39757129      11.07761941
In      11.98733183       9.27688433      13.36416753
In      16.27714655      12.21738297      13.84820943
In      15.36233273      10.77158923       9.71981845
In      13.85850971      10.83608108      15.26727608
In      12.75006740       9.26768730      10.41645268
In      15.29640499       9.33252556      12.57230519
In       9.47045998       8.63594621      11.03626886
In      10.52069852      10.02299473       8.42992665
23
Properties=species:S:1:pos:R:3 config_type=qcd gap_pre_relax_energy=-49.2544674480948 gap_pred_energy=-49.53694541596485 gap_fmax_final=0.0007228583553370734 gap_converged=1 pbc="F F F"
In      15.26434842      14.05253161      12.60516620
In      15.22679003      17.14779076      12.60518982
In      14.22510754      15.41073648       9.96911107
In      15.37579380      12.60514708       9.71332160
In      14.22506311      15.41070937      15.24122023
In      15.26434188      11.15774162      12.60515285
In      11.22007981      15.00423851      15.49724601
In      12.60522570      12.60514122      14.16049137
In      12.52897163      15.63164780      12.60515389
In      15.37575843      12.60512554      15.49699972
In      15.22677003       8.06248287      12.60514591
In      14.22505499       9.79954497      15.24119986
In       9.36548368      12.60514275      15.24127616
In       9.36552569      12.60515684       9.96895816
In      10.02208179      11.02596332      12.60511972
In      11.22007100      10.20603594      15.49723774
In      12.52895798       9.57863769      12.60513180
In      11.22012617      15.00425798       9.71302763
In      10.02208895      14.18433343      12.60512806
In       7.36018627      12.60515484      12.60509840
In      12.60524907      12.60514373      11.04979234
In      11.22011291      10.20604973       9.71301974
In      14.22509017       9.79956495       9.96909074
24
Properties=species:S:1:pos:R:3 config_type=qcd gap_pre_relax_energy=-51.74439101429268 gap_pred_energy=-52.124146378560816 gap_fmax_final=0.0007433532349758067 gap_converged=1 pbc="F F F"
In      12.58325175      15.82183616      15.12821970
In      12.65164641       9.80248274      15.29761572
In      14.07298594       9.93382737      12.33232624
In      17.15834064      10.04473226      12.45266480
In       9.80994713      10.89324487      15.05158290
In      10.22509861      13.89951106      15.39154654
In      12.54532849      17.83052515      12.62822994
In      12.59308103      12.63832980      10.81167085
In       8.10736190       9.94235841      12.50513871
In      14.95797351      14.06991510       9.46798526
In      15.46467192      10.95783064      15.01831382
In      10.96324096      15.18236966      12.45145332
In      12.54977735      15.94381697       9.83796875
In      15.45117200      11.04706559       9.72716250
In      12.61544744       9.90631455       9.40351558
In      12.61196565      12.58085175      13.84236175
In      14.98840050      13.95470454      15.36074219
In      15.65239558      12.74132783      12.37551637
In      14.18449191      15.21878109      12.43155332
In       9.55138404      12.67258513      12.41258199
In       9.75898554      10.98307985       9.76129597
In      11.19309385       9.90150029      12.34947910
In      10.18038454      14.01603747       9.49684991
In      12.63409136      12.52148981      16.96874286
25
Properties=species:S:1:pos:R:3 config_type=qcd gap_pre_relax_energy=-54.20707991721112 gap_pred_energy=-55.40040206971777 gap_fmax_final=0.0007587400621565949 gap_converged=1 pbc="F F F"
In      16.69774331      14.61049079      13.19089969
In      13.41954281      16.53072223      13.19089625
In      15.12805026      15.58388796      10.64354056
In      16.27832424      17.67250579      13.19090739
In      13.78165850      10.28078686      13.19088888
In      15.33511558      12.47394898      15.80295675
In      12.16978299      14.49530402      15.74983443
In      13.78386217      13.41644352      13.19088933
In      12.16979764      14.49531887      10.63193354
In      12.43314382      11.20954121      15.79548617
In      13.82800124      13.74032669      18.19895014
In      13.82803031      13.74035577       8.18282922
In      16.78216428      11.54701500      13.19089205
In      10.62293928      15.29157866      13.19088505
In      12.43315444      11.20956005      10.58625927
In       9.42477931      13.05628978      10.59820239
In      15.46569260       9.36436934      15.54454481
In      15.33513224      12.47396939      10.57881741
In      15.46570956       9.36437935      10.83721201
In      15.12803534      15.58387418      15.73825414
In      11.03646310      12.35994391       8.07462634
In      10.87210952      12.04078585      13.19087731
In       7.89169913      13.81454086      13.19087239
In      11.03643254      12.35991357      18.30713021
In       9.42476350      13.05627509      15.78354201
26
Properties=species:S:1:pos:R:3 config_type=qcd gap_pre_relax_energy=-56.613479463214745 gap_pred_energy=-57.90631734282296 gap_fmax_final=0.0009269478761012062 gap_converged=1 pbc="F F F"
In      15.36528191      16.39911899      13.33535274
In      12.69772976      18.61488521      13.30170329
In       7.89684217      13.76663382      13.33959463
In      15.50245120      13.92271388      15.25529983
In      10.71351415      11.04240652      17.03795921
In      12.92563123      13.69736675      17.00384602
In      10.42258504      10.95010442       9.97497771
In      10.34244581      13.63047342      11.52236144
In      10.30816623      13.60701152      15.28277026
In      12.89730869      13.70547494      13.43012898
In      12.84589625      16.23951235      15.26475282
In      15.47977167      13.86234440      11.47494096
In      13.03306766      10.99544189      11.71529319
In      10.24920271      16.13104564      13.45318102
In      12.99685902      10.89571931       8.24509221
In      15.59686690      11.17657944       9.90480744
In      18.13244302      11.58666101      11.64928625
In      17.90548695      14.27579980      13.33192640
In      10.42988045      10.99516072      13.50641455
In      12.88735770      13.60775686       9.75925820
In      13.06614520      11.05585520      15.12139303
In      12.76784832      16.14471373      11.46474840
In       7.90007090      11.10185890      11.72533879
In      15.61189718      11.22654865      13.41134490
In      15.50643052      11.30291741      16.94634957
In      18.13190284      11.67897867      15.15496163
27
Properties=species:S:1:pos:R:3 config_type=qcd gap_pre_relax_energy=-58.68383612070662 gap_pred_energy=-60.197530479081685 gap_fmax_final=0.0009723482310208109 gap_converged=1 pbc="F F F"
In      15.09651476      13.93770296      13.40170914
In      16.00382540      16.81189584      13.57319966
In      15.96092730      11.60057683      11.59238718
In      15.97485048      14.79277962      16.23974190
In      16.00347847      11.39125880      14.87695658
In      16.14826522      12.75414874       8.72813038
In      11.67499100      13.91182782      13.44459539
In      10.72919020      16.77240135      13.63914501
In      10.80104373      11.56126176      11.65721665
In      10.85500655      14.75442812      16.30342789
In      10.84407149      11.35147872      14.94104987
In      10.78285357      15.10953448      10.73770329
In      10.52020037      12.71218234       8.79954426
In      13.35008720      16.25969407      11.97198422
In      13.35757091      13.25206768      10.77541033
In      13.37205485      10.25194697      10.14178863
In      13.31433394      15.57649334       8.76427729
In      13.32332350      12.47486418       7.75645769
In      13.42505969      12.92145347      15.96391130
In      13.39148466      16.05662162      15.15933068
In      13.40445584      11.19104809      13.24859988
In      13.45115139       9.86480858      16.21062294
In      13.43779513      14.97186377      18.25409678
In      15.90210447      15.14795315      10.67320806
In      16.26835191      12.17241393      17.85879713
In      10.63842848      12.13000754      17.92792374
In      13.46811927      11.76682602      18.85832394
28
Properties=species:S:1:pos:R:3 config_type=qcd gap_pre_relax_energy=-60.67248115326723 gap_pred_energy=-62.19158845164165 gap_fmax_final=0.0009040145365608126 gap_converged=1 pbc="F F F"
In      18.00706284      15.96817183      13.91638425
In      16.03319522      16.06727744      11.46420572
In      13.34258855      15.95669977       9.55336899
In      14.96559366      15.91446256      15.03396827
In       8.58666769      15.76711700      13.81234253
In       8.46674656      13.56974761      11.26106523
In      11.62498882      12.99734973      16.58015759
In      16.15118851      10.83152680      11.66323678
In      18.66979752      11.52635736      13.43442096
In       8.12487957      11.30108054      13.31760305
In      13.39016956      10.24186433      16.27715682
In       8.66979412      13.31212107      15.63418364
In      10.70929539      10.71530617      11.60285837
In      16.00746655      10.77036807      14.83673991
In      13.45302474      10.52851432      10.04787016
In      10.60795889      15.95139907      11.40383418
In      11.60211388      15.84259368      14.99689316
In      18.27659474      13.77892398      11.36949197
In      15.96983182      13.53426290      13.39382712
In      14.99350703      13.30900300      10.36875690
In      11.78850919      13.24052818      10.33331194
In      15.02882363      13.06982095      16.61784875
In      13.39538790      11.60609381      13.16505635
In      13.32674819      15.18008098      12.47441953
In      10.73682862      13.42251134      13.33588607
In      17.98812885      13.51111625      15.73740457
In      10.78512086      10.65884325      14.77899007
In      13.26624515      15.39511609      17.55697518
29
Properties=species:S:1:pos:R:3 config_type=qcd gap_pre_relax_energy=-63.39788144673739 gap_pred_energy=-64.98487363818282 gap_fmax_final=0.0009901609920797618 gap_converged=1 pbc="F F F"
In      17.86452180      15.34073606      14.28306033
In      15.89239964      16.27410827      11.90030522
In      13.36049167      16.66975134       9.79915639
In      14.74669430      15.85163710      14.80032384
In       8.51950101      14.90523156      14.11370916
In       8.30924300      14.03716904      10.92352631
In      10.63886402      13.20443760      16.31976095
In      16.08178656      10.29765042      11.50540479
In      18.51078799      12.35068045      15.04859767
In       8.17395753      11.23337258      12.07284787
In      13.41961625      11.53328466      16.10844779
In       8.24064444      11.90354269      14.99636686
In      10.85621534      10.03793972      11.47846487
In      15.98956732      10.75574570      14.52395095
In      13.48746339       9.96361161       9.77674921
In      10.59223928      15.93970097      11.67959181
In      11.56447438      15.65861613      14.73513202
In      18.55054238      12.03107798      11.99634479
In      15.96490184      13.36512203      12.92414706
In      14.93927614      12.98782391      10.01515973
In      11.64617147      12.88251687      10.03031129
In      13.23875841      14.54714789      17.20466172
In      13.39162047      11.51420107      12.43424664
In      13.27208203      14.64077231      12.05378699
In      10.66389815      13.04500192      12.95372740
In      15.96944512      13.46456122      16.34609123
In      10.94619432      10.45263345      14.54409693
In      13.04170625      17.66252112      12.90184348
In      13.57445467       8.89692349      13.97770585
30
Properties=species:S:1:pos:R:3 config_type=qcd gap_pre_relax_energy=-65.9596183315595 gap_pred_energy=-67.2150728524404 gap_fmax_final=0.0009752158739179043 gap_converged=1 pbc="F F F"
In      17.92588039      13.11043939      11.11410994
In      15.93543707      10.65186157      11.78872604
In      13.21863426       8.91468264      12.64741187
In      14.83187514      13.42738589      10.24213663
In       8.47225443      13.46707112      11.25289041
In       8.42640897      11.17022949      13.75374192
In      10.56975085      16.13516016      11.46092144
In      16.12122917      13.11830010      16.50781950
In      18.16773880      15.25051430      13.85837244
In       8.03160978      13.58052966      15.43843362
In      13.28234238      15.10108745      12.50580707
In       8.51343766      15.91455922      13.69198737
In      10.67121750      13.38255141      16.75225031
In      15.12980898      15.99777438      14.93410459
In      13.39146697      11.63518831      17.59607813
In      10.54647596      10.76302561      11.59483162
In      11.60204694      13.43095604      10.27760720
In      17.93752673      11.44193074      14.29852891
In      15.80794302      13.41202486      13.36275705
In      14.81235165      10.70337886      14.80756742
In      11.52736813      10.80880740      14.92380136
In      13.29204601      16.13255567       9.66293138
In      13.25574170      13.50746659      15.17537339
In      13.17083738      11.87941181      12.47555742
In      10.63187733      13.50486863      13.43734155
In      16.08025189      15.99157462      11.52629020
In      11.50630348      16.15413614      14.88087525
In      13.31991010      10.70911184       9.68006103
In      13.32511531      15.45331056      17.53571568
In      16.45167602      11.20666953       8.77253327
31
Properties=species:S:1:pos:R:3 config_type=qcd gap_pre_relax_energy=-68.65410417752305 gap_pred_energy=-70.32237028472052 gap_fmax_final=0.000926748382311361 gap_converged=1 pbc="F F F"
In      18.32145154      13.01332517      13.36978446
In       7.96985848      10.94540372      15.80314013
In       9.78869703      13.86327198      15.99561708
In      11.61777085      16.86639922      10.91093527
In      15.57667070      18.54624937      13.36982207
In      12.51805303      18.48215121      13.36979276
In      16.07945538      14.25366745      15.97216478
In      14.19707774      11.14400235      10.74089796
In      16.07950826      14.25373089      10.76738800
In       8.84161319      12.49021141      13.36968126
In      10.62944361      15.37091166      13.36973541
In      14.75767303      17.05565136      10.70608290
In      11.11293861      10.96513087      16.02364602
In      11.11299254      10.96519733      10.71572419
In      14.75762021      17.05558704      16.03350996
In      13.22891828       9.59275014      13.36968995
In      17.01851025      15.79711253      13.36980458
In       9.78874982      13.86333795      10.74379874
In      11.61772166      16.86633826      15.82859200
In      12.94277575      14.04070988      16.05492276
In      12.94283008      14.04077592      10.68456098
In      13.83664390      15.57651362      13.36976982
In      11.97224263      12.50684792      13.36971326
In      15.15198297      12.68931224      13.36974783
In       7.96990781      10.94546553      10.93616509
In      10.08907452       9.57890970      13.36965724
In      16.30071196       9.72148642      13.36972359
In      17.30942697      11.37838268      15.80391699
In      19.42505587      10.07066402      13.36976049
In      17.30947679      11.37844207      10.93559161
In      14.19702399      11.14393753      15.99854023
32
Properties=species:S:1:pos:R:3 config_type=qcd gap_pre_relax_energy=-70.9632827990889 gap_pred_energy=-72.7716674576843 gap_fmax_final=0.00083360578561801 gap_converged=1 pbc="F F F"
In      13.50727143       9.42002234      16.16625561
In      13.38056117      12.62897079      18.33308351
In      11.26435680      11.03353838       7.84017120
In      10.96390372      13.90629123       9.80229015
In      15.97854499      16.84295748      11.90649830
In      13.23275267      18.31539910      15.80655665
In      13.68452614       9.57928158       9.94984587
In      16.12689772      11.12557447       7.97092014
In      13.42742270      18.30350116      12.73526684
In      10.79982987      13.89767467      16.08120979
In      16.15968660      10.99765127      14.20343440
In      10.91072827      10.88904018      14.05372867
In      16.01883793      14.00394732      16.24160544
In      13.63865971      12.57430355       8.85539542
In      13.55190951      15.35409080      10.78051598
In      15.99773938      16.90027450      15.08224880
In      10.96967721      10.89573680      10.95693343
In      16.27622128      10.97909987      11.11340209
In      10.68163755      16.72352442      14.88241880
In      13.59395553       9.43928349      13.08818943
In      13.34096971      15.48202825      17.15887826
In      16.22194768      13.94530574       9.94545361
In      10.95286044      16.70871615      11.68874385
In      10.81149322      13.82782843      12.93836305
In      16.19489654      13.95253764      13.10425242
In      13.43007444      15.39393549      13.98742433
In      13.57606341      12.40534359      11.97790920
In      13.47809452      12.43643954      15.16060497
In      15.87786517      11.07160513      17.31849637
In      11.01343320      10.97549830      17.18050931
In      13.41839968       9.63724099      19.30464263
In      10.69035956      19.52493510      13.55632923
33
Properties=species:S:1:pos:R:3 config_type=qcd gap_pre_relax_energy=-73.16937928371306 gap_pred_energy=-75.16218931030835 gap_fmax_final=0.0009124521013461748 gap_converged=1 pbc="F F F"
In      15.66324185      18.38184781      13.72563792
In      11.78839080      18.35977063      13.73802597
In      18.93293802      10.61891453      16.17883163
In      15.43820282      10.63389632      16.39535344
In      12.10178706      10.59184143      11.13652530
In       8.46052617      13.09638566      13.77179975
In      19.05087440      13.15641527      13.73790192
In      18.91751832      10.59751928      11.32031040
In      10.38960745      10.51775115      13.77712783
In      11.92866078      15.83304408      16.37082860
In      15.55198861      15.83062224      11.11517252
In      15.56861228      15.85370968      16.35916941
In      11.91197976      15.80996912      11.12683955
In      17.15124554      10.55600934      13.75545090
In      13.77024695      10.58435469      13.76604872
In      10.21323379      13.21391871      11.11291599
In      17.29682878      13.27728221      16.39575676
In      17.27997847      13.25397615      11.09031218
In      10.23008595      13.23725130      16.41839764
In      17.39033074      15.82530984      13.73144987
In      10.09069399      15.78387415      13.75482576
In      15.42152233      10.61068603      11.12582710
In      12.11858636      10.61504805      16.40596209
In      13.76344187      13.29583132      16.46580094
In      13.74621464      13.27198490      11.04257237
In      11.94929899      13.22182701      13.76022046
In      15.56098655      13.24225126      13.74865686
In      13.74008606      15.85719231      13.74291226
In      13.71808115      18.36062453      11.29554924
In      13.73352467      18.38209403      16.16818969
In      13.71170728      20.84933344      13.72090508
In       8.60734367      10.53918234      11.35341259
In       8.62263933      10.56068658      16.21171472
34
Properties=species:S:1:pos:R:3 config_type=qcd gap_pre_relax_energy=-74.29682147931325 gap_pred_energy=-77.15546063570557 gap_fmax_final=0.0008670270824208452 gap_converged=1 pbc="F F F"
In      16.21671564       8.78880286      12.87988432
In      18.67746725      12.92938738      12.67869580
In       8.64352722      10.53775998      15.38560979
In      10.17253345      13.34721563      15.94679198
In      11.79228892      15.88205224      10.53418781
In      15.76352469      18.00929134      12.89009569
In      10.44911569       8.81435607      13.09773613
In       8.66255001      10.59367145      11.10481888
In      11.04211432      18.01011500      13.11907567
In      16.83171683      13.35894896      15.75136667
In      14.76549430      10.63500298      10.45051486
In      14.99191768      10.62817860      15.93082638
In      16.28897746      13.24445881      10.35952086
In       8.03954549      12.98246224      13.11638042
In      10.48001822      14.94030049      13.25062237
In      14.80448143      15.85711571      10.42403785
In      11.87414800      10.65399508      16.02466617
In      11.78340052      10.65370953      10.54558103
In      15.25930730      16.01870067      15.83186745
In      13.34935341      10.00785400      13.25560900
In      16.26938832      14.90826893      13.06741224
In      10.27905062      13.28701152      10.56432725
In      11.70765149      16.05253097      15.89563424
In      13.46440735      13.31022699      14.68720030
In      13.24113164      13.25395774       9.24232831
In      13.41270832      16.26065551      13.31140143
In      10.70724877      11.74111872      13.34245914
In      16.01649197      11.72552526      13.21201196
In      17.89839820      10.52547631      10.82998542
In      18.18032680      10.48593891      15.11395109
In      13.31078410      18.62324052      11.02120403
In      13.46847375      18.70789176      15.34081746
In      12.85935342      13.27842895      17.72201072
In      13.56295099      16.21291249      18.33793087
35
Properties=species:S:1:pos:R:3 config_type=qcd gap_pre_relax_energy=-79.15653976845539 gap_pred_energy=-80.31434386598829 gap_fmax_final=0.0009644186766357876 gap_converged=1 pbc="F F F"
In      15.45278168      10.71979171      16.87190849
In      13.52698554      12.43780651       8.06289884
In      11.72093162      14.45658393      13.37878232
In       9.98984836      16.26791779      15.31043350
In      18.80223139      14.62037854      13.38674002
In      11.63173855      10.71445576       9.88274569
In      11.74343863      18.08598146      13.38974315
In      17.20210517      12.65609855      11.55033963
In      13.51578396      12.40586196      18.68620475
In      15.46013557      10.74086079       9.87112041
In      13.50474888      16.30386944      11.47831527
In      15.22551884      18.06717011      13.39334296
In      15.32936868      14.43194597       9.69702505
In      13.50074291      16.29239255      15.29410593
In      13.53397052      12.58181213      15.17962743
In       9.85101517      12.58726806      15.18278590
In      15.32161297      14.40976694      17.06794661
In      15.30928464      14.46715207      13.38261304
In      15.46610110      10.76599553      13.37163524
In      13.53778151      12.59263731      11.57054162
In      17.01333078      16.33316192      15.30014825
In      11.68960247      14.38696533      17.06215079
In      11.69737838      14.40912349       9.69502339
In       8.20972369      14.56936950      13.37540205
In      17.01735728      16.34465475      11.47988948
In      11.62437399      10.69351094      16.85208189
In      17.19825396      12.64508087      15.20792774
In       9.99392531      16.27952612      11.45440525
In       9.85481885      12.59815987      11.55963644
In      11.63598211      10.72617427      13.36748959
In      13.55445349       8.83793604       8.33306741
In      13.56601498       8.91521612      11.69804080
In      13.56249407       8.90520144      15.03006185
In       8.41731605      18.14748067      13.38634610
In      13.54386815       8.80771083      18.39449236
36
Properties=species:S:1:pos:R:3 config_type=qcd gap_pre_relax_energy=-81.64795067617278 gap_pred_energy=-82.78072264790619 gap_fmax_final=0.0009431568952933053 gap_converged=1 pbc="F F F"
In      16.82748531      16.32078807      15.19301367
In       8.07385099      14.44217256      13.22410154
In      13.42555257      12.33885362      11.64471524
In      15.38521382      10.39382108      10.10758337
In      13.29518436      12.62007392      18.75121274
In       9.91485390      16.03918268      11.23856536
In      13.44420177       8.68564308      12.00195211
In      11.49771774      14.49290613      16.97271627
In      18.68791029      14.51430271      13.41563035
In       9.84410859      16.27326514      15.06717093
In      11.48968299      10.60165405      13.52249233
In      13.38261692       8.88976627      15.33612019
In       9.67836447      12.57947437      15.18825676
In      15.31594868      10.62785675      13.59150681
In      15.18476138      14.33719227      13.36199393
In      15.26590404      14.06787184       9.69137824
In      17.03886351      12.62958484      15.32108096
In      13.35910582      12.55921242      15.24428294
In      13.33597209      16.27603229      15.12664155
In      11.57851427      14.31262244      13.29700369
In      15.25647648      10.82057673      17.07812160
In      17.10575837      12.40758818      11.69513003
In       9.74541326      12.35745465      11.56240584
In      13.49048927      11.97136713       8.15676021
In      11.42072619      10.79436140      17.00882750
In      16.89806631      16.08648343      11.36433020
In      15.13035455      14.51763707      17.03842608
In      11.54951322      10.36746474      10.03865258
In      11.63327440      14.04326742       9.62619275
In      13.40642011      16.04236497      11.30738525
In       8.33069325      18.03415159      13.00946519
In      11.69058980      17.97488801      13.07501448
In      15.03094495      17.99768792      13.13514009
In      13.50653547       8.39833989       8.65375259
In      18.38937203      18.10275738      13.19046802
In      13.32091092       9.01268504      18.69386068
37
Properties=species:S:1:pos:R:3 config_type=qcd gap_pre_relax_energy=-83.63076310051154 gap_pred_energy=-85.01043455980589 gap_fmax_final=0.0009392792724858921 gap_converged=1 pbc="F F F"
In      14.22071728      10.65852271      10.39691170
In      14.94759941       8.34277604      12.39887720
In      13.49648982      13.06137648       8.59340345
In      16.75485042      10.84830691      12.99298052
In      12.79858257      15.59897011       6.95369301
In      10.45016727      13.74150001       8.96675912
In      15.91636878      13.21928237      11.09795598
In      15.09645299      15.72307681       9.40696833
In      11.97738852      16.35464150       9.84614406
In      14.54561767       9.14054105      15.41778993
In      18.35503770      13.43744197      13.62663454
In      17.40493143      15.90739285      11.77643059
In      12.79671120      13.84340734      11.57344449
In      11.11540861      11.25186707      10.77410763
In      19.75030663      16.14609321      14.34148389
In      15.30801118      14.03211509      14.16691836
In      16.81455419      16.72661366      14.75193529
In      11.87108684       8.93408195      12.67425336
In      13.64540437      11.42824879      13.44003691
In       9.67308249      14.37739412      11.94984489
In      17.82685234      14.29184563      16.63531755
In      12.69458091       6.75067767      14.71733752
In      11.31878995      16.98376394      12.80376568
In      16.23997413      11.64445081      16.05150392
In      14.38864452      16.51773424      12.34843784
In      10.49512902      11.93834394      13.78687607
In      16.49247423      17.31975818      17.68887643
In      12.19780811      14.52921082      14.61690140
In      11.40577298       9.68027195      15.75785030
In      14.75936365      14.75800135      17.23269780
In      13.15877747      12.15939496      16.53526692
In       9.07819717      14.92151524      14.92692100
In      10.69269297      17.45347119      15.83878239
In      10.05368223      12.52468016      16.82673553
In      13.79709330      17.21550921      15.37739814
In      11.73964576      15.11187015      17.68044081
In       8.66278239      15.36688104      17.96934791
38
Properties=species:S:1:pos:R:3 config_type=qcd gap_pre_relax_energy=-84.47186122852546 gap_pred_energy=-87.00997696775727 gap_fmax_final=0.0009990402814248557 gap_converged=1 pbc="F F F"
In      18.42319472      15.32337948      13.75738077
In      18.45346131      17.65415929      11.68184797
In      15.45823636      16.94851978      12.24373419
In      12.58563972      17.32921418      11.27952603
In      17.29090588      14.73700030      10.94050699
In      14.44300084      15.20234262       9.80538256
In      11.24539584      14.82081324      10.06068800
In      16.97761405      17.78559674      14.82781944
In      13.83678394      17.47791716      15.07847841
In      18.22011356      13.31973995      15.95623222
In      11.03386174      18.21679078      13.83677501
In      13.12936885      12.76701109       8.59425200
In      15.77202356      12.17516300      10.17162351
In      15.53203232      14.70266279      14.66195607
In      12.79106220      15.02480936      13.30928442
In       9.66986924      15.73652800      12.57157857
In      17.36064823      12.34588691      12.90175581
In      16.39577700      16.01170325      17.30607300
In      10.34590380      11.85993028       9.24865325
In      10.51965677      15.83934605      15.69111821
In      15.30200950      10.03313151      12.51931335
In      13.17377024      14.94294935      17.00094900
In      13.84275524      12.15776973      14.50013316
In      15.52777541      13.02517474      17.54646210
In       8.40587180      13.34362508      11.22638572
In      11.54632906      12.32770973      12.20786331
In      16.59120640      10.70003100      15.34769269
In      13.37053672      10.16926734      10.14036509
In       9.01368097      13.22728973      14.44557868
In      12.26938944       9.18966481      12.95356452
In      10.43371625      13.19262411      17.21211206
In      10.82288211      10.62072467      15.33106512
In       7.52047833      10.60129025      10.08240810
In      12.81540359      11.47137681      17.62035193
In       9.07420578      10.54610976      12.80334243
In      13.77229207       9.06492300      15.53134129
In      15.44258774       9.95288599      18.06820722
In      10.51291607       9.07729478      10.46055448
39
Properties=species:S:1:pos:R:3 config_type=qcd gap_pre_relax_energy=-87.13564222170041 gap_pred_energy=-89.6269478005259 gap_fmax_final=0.0009141474098364695 gap_converged=1 pbc="F F F"
In       8.10631740       8.75410754      11.52184177
In       7.99706544      11.85015464      13.47711928
In       8.81525858      11.53228489      10.51618844
In      11.32018974       9.82975852      10.60611868
In      10.49264214      14.89715817      17.31258634
In      10.14516077       9.52454472      13.59645536
In       8.77417115      14.59499625      14.52049856
In      10.03180611      12.00407459      15.90953483
In       9.03473939      14.48469188      11.37326524
In      11.28048173      12.35775574      12.75740495
In      11.39710302      16.01469365      10.04302169
In      11.31939845      12.92797892       9.56351460
In      12.14165511      14.78826049      14.59333635
In      13.74589519       8.28339220       9.98461460
In       9.52647783      17.32907413      15.79026250
In      12.85273278       8.21318946      13.00832475
In      12.66205137      12.76037088      17.48977916
In      12.37368929       9.88433462      15.69109689
In      10.22541602      17.01204889      12.81480656
In      14.22901813      12.32326319      14.26654426
In      13.49908416      15.89308934      17.53275771
In      14.92405734      10.85171124      17.26161000
In      13.74548707      14.22376051      11.83749904
In      15.88019574       7.93753001      12.14492067
In      17.28103146      10.72209537      12.57877799
In      12.51755626      17.85817977      15.38462365
In      13.26148669      17.55375214      12.43284419
In      15.29692171       9.20898129      14.74612724
In      14.13861714      17.28682745       9.49967006
In      13.98474157      14.24611094       8.76244624
In      13.75549423      11.19918105       8.94009743
In      15.73459048      13.98871059      16.68323319
In      17.30233970      11.60593854      15.45692168
In      15.23459960      16.20895325      14.48517631
In      16.42173349       9.84047798       9.76593992
In      17.02833022      13.79042656      13.31166181
In      16.21605658      16.03193295      11.45989687
In      16.84136585      15.36676588       8.54445811
In      16.45632900      12.81072973      10.32631102
40
Properties=species:S:1:pos:R:3 config_type=qcd gap_pre_relax_energy=-89.38319695781317 gap_pred_energy=-91.8550390299441 gap_fmax_final=0.0009647861208179445 gap_converged=1 pbc="F F F"
In      16.80084713      19.15871403      12.62679716
In      13.91075094      20.22422575      13.01533995
In      14.68134751      18.76722026      10.16616520
In      17.95683853      17.10335492      14.63273322
In      17.37237529      16.36687225      11.62073214
In      11.70191173      18.53797313      11.62375646
In      15.25506704      18.86070360      15.41375483
In      14.31076768      16.87604098      12.83880104
In      15.22803691      15.79015792       9.49612662
In      12.13052346      18.45709488      14.80228772
In      18.24124003      14.64530909      16.57917778
In      17.38096484      13.53730504      10.39281021
In      18.24372302      14.01635756      13.51281431
In      12.30736247      15.78697911      10.50080175
In      16.65734744      17.15355931      17.46308685
In      10.57164863      16.10805806      13.12959196
In      13.47548691      17.09386630      17.30186456
In      15.88037959      10.98059365       9.46394265
In      15.05455758      13.79041775      12.73499039
In      15.15549549      14.33014845      15.90868011
In      12.21374826      13.81871654      15.33342069
In      15.30225984      14.94297704      19.04252587
In      13.72111490      13.09522162       9.78378943
In      12.31590919      14.43866067      18.46192810
In      10.51435861      16.39014657      16.24097688
In      16.89817662      11.05666967      12.36643871
In      11.16563032      13.17474957      11.71339869
In      17.05140484      11.76506141      15.33387685
In      17.07688919      12.40181267      18.41305856
In       9.32049074      13.57244396      14.37043203
In      13.94887063      11.32574952      14.63824926
In      14.03566628      11.88007947      17.82899409
In       9.35320959      13.84903176      17.55897935
In      13.52707939      10.56909929      11.57582245
In      10.90610654      10.91579642      13.84370020
In      15.61960946       8.78603363      13.93836965
In      15.86281589       9.43731341      17.00847439
In      11.01469568      11.32571981      16.96669952
In      12.55402611       8.30254426      13.45983707
In      12.83900778       8.92496270      16.45451536
41
Properties=species:S:1:pos:R:3 config_type=qcd gap_pre_relax_energy=-92.01077163957076 gap_pred_energy=-93.53037749148747 gap_fmax_final=0.0009997230405293905 gap_converged=1 pbc="F F F"
In      17.07145495      14.99347044      10.18239942
In      12.52469178      12.05764798      10.93508683
In      13.69359126      17.04719875      13.59593112
In      15.48506454      17.68920234      11.17347706
In      11.54890596      13.81054075      18.82353332
In      14.23857329      12.34247941      14.02797634
In      12.89483354      18.45560556      16.26416731
In      16.60644157      15.19517927      18.58123152
In      11.57020346      14.62635552       9.52706659
In      16.59099043      10.03374046      13.45046273
In       9.24519259      14.48838675      14.56727173
In      18.24507690      16.50127847      16.09547246
In      12.03416160      15.58607704      16.03288190
In      16.76703094      15.89119707      13.38103704
In      13.51753805      16.19649882      18.74442313
In      15.73242417      10.55692497      16.48801004
In      14.38169607      14.65139675      11.46407969
In      11.33566246      12.66040462      16.00119323
In      14.30865461      13.23242068       8.53299602
In       9.20383338      15.99986943      11.45456673
In      12.21766902      17.25167549      10.98485194
In      10.91669353      11.25909063      13.39481109
In      16.83150582      13.58706545      15.73674918
In      17.38776616      13.05052272      12.61022775
In      10.64448764      17.37686125      13.88529195
In      13.55107563       9.55640670      12.47879804
In      19.56428074      14.32725228      14.33268163
In      14.29856737      16.32897513       8.60020166
In      18.75605309      11.27999109      15.28376783
In      12.75644909       9.78524926      15.59768199
In      14.22902523      13.41928720      17.19510746
In      15.21939218      16.43745817      16.24902501
In      16.23764069      18.67102905      14.39122774
In      13.07194650      10.91377448      18.46492786
In      14.43956045      13.38060551      20.33997427
In      13.34551046      20.04114618      13.31856115
In      16.88558852      12.13915238      18.72819776
In      11.75971847      14.48224422      12.93314717
In      19.40000487      13.70126402      17.56080109
In      15.52576313      11.55638894      10.81226035
In       9.44484509      12.91825004      11.25800813
42
Properties=species:S:1:pos:R:3 config_type=qcd gap_pre_relax_energy=-92.85627555253753 gap_pred_energy=-95.56976366034341 gap_fmax_final=0.0008045797801833141 gap_converged=1 pbc="F F F"
In      14.20115234      16.75726337       9.69407700
In      15.09006052      13.72962746       9.53484534
In      12.57337502      11.41418992       9.50375274
In      12.16810193      14.43152252      10.53171740
In      15.46178988      10.38382637      10.44399717
In      17.15612201      15.96091553      10.84553132
In      14.76480045      15.16022081      12.46351664
In      12.09075819      17.14338179      12.08388082
In      13.84412800      12.21100468      12.22102757
In      10.58750294      12.15114585      12.02450234
In      17.12903102      12.73899307      11.54956794
In      15.15031966      18.34881601      12.21087615
In       9.56842639      15.16881239      12.16160020
In      13.33698683       9.33726731      12.94872623
In      12.24149719      14.30169671      13.77312048
In      18.49772876      18.30977507      12.43737698
In       9.10009885      18.14437170      12.55716544
In      18.88813340      14.83190712      13.12399434
In      16.72423278      16.68861508      14.38691978
In      18.65369604      12.02127228      14.27720614
In      16.22467302      10.37993118      13.48736717
In      17.47358474       8.78977585      15.77479240
In      10.56075923      16.72509810      14.95494220
In      11.79908107      11.33583443      14.77692793
In       9.38844979      13.45073973      14.85237932
In      13.63786208      17.15237365      14.76983630
In      19.53889625      12.07455812      17.40897614
In       7.52363993      15.99355507      14.62901148
In      14.30350210       9.63211691      15.95472635
In      11.75409200      14.04854089      16.78290888
In      18.17875420      14.55616866      16.25999664
In      19.53660241      17.21951013      15.37567753
In      15.86703198      19.38499416      15.37033208
In      14.89216981      14.29010791      15.70415769
In      12.26199620      17.17758446      17.60589752
In      16.65491070      11.59355750      16.53855624
In      11.01581435      11.20913081      17.72768110
In       9.21358932      15.67893297      17.54893440
In      16.13801812      16.81826460      17.44746366
In      16.54139242      13.72316522      18.68633656
In      13.95947812      12.01000471      17.95814085
In      13.76132844      14.97499842      19.06512400
43
Properties=species:S:1:pos:R:3 config_type=qcd gap_pre_relax_energy=-96.41992393907364 gap_pred_energy=-99.26562335888997 gap_fmax_final=0.000941737352486366 gap_converged=1 pbc="F F F"
In      16.03100109      13.45400316       8.72896922
In      12.89988623      13.13300950       8.44762908
In      14.71803937      16.23802308       9.09992483
In      11.62012362      15.84636468       9.28706445
In       9.57866034      13.50491796       9.95952420
In      17.29027709      12.15861199      11.28836292
In      14.68169191      10.97156701       9.95272838
In      11.35734715      10.83453755      10.00107943
In      17.31240292      15.30768610      10.88932576
In       9.79859400      17.02144273      11.55024777
In      13.32330778       8.67362240      11.28736836
In      15.91697744      17.97899335      11.31692443
In       9.27120502      11.66920824      12.58286374
In      14.16002627      14.11404034      11.31710287
In      15.93324968       9.61033825      12.60823349
In      12.88408341      17.99101837      11.07923703
In      18.94818973      14.12033279      13.19266780
In       8.14370965      14.56668801      12.67328754
In      12.64967573      11.66356984      12.85679056
In      15.89064722      13.71923095      14.19922935
In      13.30759810       8.60820442      14.41565156
In      11.32760936      14.56862150      12.43761891
In      11.37919218      18.63404564      13.65097705
In      10.63566844       8.98317720      12.64087990
In      14.41303056      18.27029569      13.95448614
In       9.66864958      16.35571870      14.79000184
In      14.12374570      11.48303524      15.60049711
In      17.13958181      16.68814433      13.78366959
In      17.98182753      11.36619822      14.26104088
In       9.30600164      13.19832655      15.36904508
In      16.14531880       9.22057081      15.81464394
In      18.08608860      14.78821290      16.11021758
In      10.71108644      10.34860508      15.44262909
In      12.82121955      14.17907462      15.13132565
In      12.45049223      17.25519932      16.17972413
In      15.47456270      16.68902946      16.39632052
In      10.50804326      15.16658245      17.45130646
In      17.15147513      11.88684726      17.18531039
In      16.45700594      14.71538924      18.71528289
In      11.58355295      12.33298566      17.69666153
In      13.09560344       9.45268448      17.58265308
In      13.39625210      15.14468775      18.33957471
In      14.49450436      12.15436325      18.79912684
44
Properties=species:S:1:pos:R:3 config_type=qcd gap_pre_relax_energy=-98.26487248014902 gap_pred_energy=-102.33540467338807 gap_fmax_final=0.0009183761370841891 gap_converged=1 pbc="F F F"
In       8.28842518      14.22447011      14.43322370
In       9.43045975      12.06471638      12.36990700
In       9.52530680      17.15391505      14.80612333
In       9.99112654      14.73681142      17.02482109
In      11.93587603      17.42925076      16.87310467
In       9.92692270      11.83150348      15.44676474
In      12.23671958      15.10535489      19.18697101
In      11.79972209      12.27734800      18.10063991
In      11.82371039       9.68481241      16.43821093
In      15.14729429      13.50735025      18.65235375
In       8.95931827      15.11052640      11.61973202
In      14.61486012      10.62376075      17.52973055
In      11.31711664       9.81812545      13.34568889
In      18.12992066      12.55001592      17.59015251
In      11.47981286      14.86981175      13.89843729
In      10.42220402      17.68210992      11.88916048
In      12.49573657      18.32088368      14.01116666
In      15.08351544      17.89220029      15.78188068
In      13.72461000      15.00034366      16.10672062
In       9.90656396      13.11014904       9.50200523
In      14.66811780      16.81836897      18.60954573
In      13.10845227      12.33790737      14.87032882
In      16.82106917      15.54946012      16.76971241
In      11.31757800      15.83052166       9.56441996
In      11.72559102      10.85876095      10.45473691
In      13.95096669       8.47092175      14.55283971
In      15.35241724      18.72706838      12.90615403
In      14.03583902      14.00887587      11.27899639
In      15.99283199      12.75918484      15.55118136
In      17.44666517      16.78377396      13.85189336
In      13.32063752      17.77542054      10.92101302
In      18.77043806      14.27908839      14.91263659
In      12.80843846      13.17698266       8.52273066
In      13.77496414       8.77872611      11.47450391
In      15.06639915      11.32384074      12.81865072
In      16.27615834      16.57883831      10.91640855
In      18.21821517      14.40476150      11.86882091
In      14.25114209      15.94132997       8.64482282
In      16.71887795       9.63942523      15.35365153
In      14.79251578      11.11372509       9.64849579
In      18.29606809      11.63198314      13.65465765
In      16.44553176      13.89057661       9.29688129
In      16.88840204       8.82350202      12.23862261
In      17.67937914      11.46941410      10.67741811
45
Properties=species:S:1:pos:R:3 config_type=qcd gap_pre_relax_energy=-101.13476871291473 gap_pred_energy=-105.63066574318401 gap_fmax_final=0.0009515117141505559 gap_converged=1 pbc="F F F"
In      10.08094478      10.91239571      16.74127512
In      12.93215307      11.48144403      17.53105295
In       8.66389492      13.06316883      15.03241972
In      10.68560757      13.78958148      17.54382115
In      13.72648251      14.44349952      18.15589249
In       9.43086458       9.92166040      13.89876675
In      11.66872068      16.67665916      17.77564602
In       9.66317114      15.96096824      15.49560907
In       7.74996229      15.43749356      11.74001178
In      15.18182628       9.86754806      16.09481055
In      12.27255475       9.32527661      15.29176531
In       8.22397855      12.11296257      12.02430482
In      12.18962718      13.02444824      14.73521871
In      15.20079741      13.82099186      15.18775073
In       9.89213168      17.61107098      13.01343767
In      11.87434459      18.30614360      15.22224319
In      14.51644901      17.17528189      16.75789909
In      11.58776029       8.40858156      12.34931546
In      14.66744166      18.91590869      14.27383923
In      10.30899769      14.46576817      12.81374262
In      15.83234935      12.20911564      18.12515938
In      17.32890050       9.39937829      13.89140693
In      16.77681705      15.14898615      17.38499129
In      15.78296688       7.29898386      10.88852633
In      14.47923738       8.65253356      13.26485831
In       9.75057792       9.95579474      10.36038066
In      16.80210377      16.82496249      14.64056003
In      11.81542275      11.70010452      12.07680117
In      15.63832065      17.49852066      11.77602677
In      15.16034954      13.05048925      12.18889689
In       9.87204660      13.53941937       9.81200468
In      10.74377508      16.42244600      10.38317555
In      17.77270849      11.70607044      15.90872850
In      12.59676346      18.51354706      12.11438963
In      13.53241209       9.45996697      10.25544901
In      18.63687594      14.44153637      14.97092707
In      16.41916914      10.26259604      11.08927071
In      13.54012642      17.26297375       9.57676803
In      14.78753059      12.13245341       9.07791696
In      11.84291124      11.50341416       8.70528041
In      17.67582874      15.22743193      12.11489748
In      12.70287503      14.49178901       8.69984804
In      18.34474807      12.13802751      12.88017110
In      17.60777167      12.88623784      10.03496388
In      15.63819194      15.15085874       9.69826969
46
Properties=species:S:1:pos:R:3 config_type=qcd gap_pre_relax_energy=-103.85754851955444 gap_pred_energy=-105.36807275759539 gap_fmax_final=0.0008939935058510124 gap_converged=1 pbc="F F F"
In      16.80123354      15.45562296      17.46750569
In      18.68613754      15.02298988      14.87097093
In      18.35502825      12.86550024      16.96890493
In      15.52770762      12.56062688      18.63703720
In      16.85518847      17.64534232      15.13434830
In      16.98401513      10.25854277      16.78004608
In      18.18626657      11.52300777      13.66052350
In      14.09454598      15.37717984      19.00353803
In      14.90651519      18.07578701      17.56039655
In      18.29867307      17.14267087      12.39831529
In      13.94567948      10.02605097      17.07421306
In      13.91376517      15.75299621      15.62298976
In      12.38016725      12.11736856      18.76741448
In      12.16996673      12.43729602      15.38286467
In      15.37076159      12.87060240      15.50013658
In      16.58758606       9.60713850      11.62826166
In      11.21765750      14.86964751      18.05466975
In      18.97052479      14.13778241      11.95648973
In      15.52643926       9.01506827      14.43577141
In      15.49651479      18.43636689      11.99628201
In      13.96737799      18.94531514      14.59525098
In      11.78176678      17.71337205      17.09529698
In      15.81295288      15.15074508      13.03853497
In      10.71303012      10.10237623      16.98289444
In       9.26182707      12.92200937      16.74814052
In      12.31818705       9.01867803      14.50947059
In      16.89015491      15.52792890       9.92233846
In      16.77704577      12.48299610      10.63886203
In      13.71372142       8.42503313      11.76679124
In      12.76425856      16.33467713      12.55324046
In      13.89726060      11.50841448      12.77462799
In      12.23225672      18.98491051      11.19206941
In      11.22180261      13.40165978      12.34076475
In      14.38543949      10.76543618       9.57724980
In      10.92474188      18.32164896      14.14958738
In      10.76805578      15.32647055      15.01382955
In      14.12023239      16.88345503       9.63169792
In      13.92891211      13.97713368      10.69076645
In       9.64201425      10.72094118      13.99941953
In      11.08322794      10.04519946      11.38825136
In      15.07322100      13.57411078       7.94967108
In      11.30367136      15.42262575       9.79774921
In       9.52163711      16.18001574      12.28047091
In      11.71587378      12.31186387       9.30041793
In       8.82556672      12.50733028      10.72257972
In       8.45068162      13.61735622      13.80863868
47
Properties=species:S:1:pos:R:3 config_type=qcd gap_pre_relax_energy=-105.27665446461701 gap_pred_energy=-109.1569992083836 gap_fmax_final=0.0007572528909618901 gap_converged=1 pbc="F F F"
In      13.51798675      12.71155144       7.91203478
In      16.03371156      11.50310831       9.84798946
In      12.87284566      16.00675612       9.12658106
In      13.45175225      18.79066828      10.34963962
In      10.93949589      12.55064447       9.66567678
In      10.16710576      15.25058178      10.67032927
In      15.86320502      14.73586079       8.65123922
In      13.16295716      10.49874676      10.28673163
In      20.02385643      13.28951832      12.16993427
In      10.54389552      18.32860635      11.53158843
In      10.21058581       9.98861323      11.30849475
In      13.97521404      13.79493123      10.89054883
In      17.14718443      13.82328190      11.37406321
In      15.99415272       8.97862623      11.76286951
In       9.00607737      12.75846458      12.40001187
In      13.98711932      18.81252889      13.38994888
In      12.67690268      16.28357579      12.38355895
In      12.07020517      13.20047698      13.04111948
In       9.82940693      15.62834706      13.73285750
In      17.05276455      18.63033341      13.28352346
In      18.47430257      16.13315027      12.70767718
In      13.12030056       8.15390480      12.40287438
In      14.77654906      11.64018415      12.94411661
In      15.60545564      16.59144600      11.32226188
In      11.16944024      18.22562445      14.59850694
In      15.64194987      18.97177229      15.98647606
In      17.73184677      11.26957927      13.25315809
In      10.35022910       7.65232732      13.49915733
In      17.82919823      16.74706989      15.70190153
In      15.00250712       9.29330091      14.90153688
In      13.40236898      15.81931056      15.45394508
In       9.85578361      10.46881533      14.34399847
In      16.25045811      11.84822166      15.93127542
In      12.18775004       8.56200433      15.80000275
In      18.57583075      13.83849158      14.78079307
In      13.01882262      11.93561743      15.62326389
In       9.84489388      13.22392931      15.52971672
In      15.52052887      16.61329835      17.87792370
In      10.16744040      16.11055240      16.87854797
In      12.84626204      18.56172719      17.09472447
In      16.57551481      11.62631711      19.01571679
In      14.02672193      10.32209711      17.87821780
In      17.41904380      14.27728794      17.50387383
In      10.59861889      10.60581613      17.33852088
In      11.45251396      13.39040019      18.18919721
In      14.46662450      13.60545956      17.97957343
In      12.68826287      16.07271673      18.80994492
48
Properties=species:S:1:pos:R:3 config_type=qcd gap_pre_relax_energy=-107.58632259577509 gap_pred_energy=-110.23493667720389 gap_fmax_final=0.0009296543629796239 gap_converged=1 pbc="F F F"
In      18.09826051      10.13944504      12.84927066
In      19.17433933      13.10182138      12.55416552
In      18.42356817      14.70130373      15.12652400
In      15.24368692       9.40663350      11.55369550
In      15.82165604       9.11965814      14.62795357
In      17.94840181      11.63248868      15.71068976
In      18.62085633      16.70622917      12.69202768
In      15.37086058      11.08677453      17.33163930
In      17.20706238      11.64225545      10.26365601
In      15.85268333      12.31787585      13.30525060
In      15.77371279      15.51142318      13.04539527
In      13.57954361       8.65329859      16.58526751
In      12.90557720       8.63013705      13.41480910
In      16.54264193      16.89691714      16.11603716
In      15.64135154      13.79404492       7.89929525
In      14.45360599      13.78160234      10.70308500
In      14.62673988      10.93339983       8.91239343
In      17.52786393      14.75694320      10.38398276
In      13.19718549      11.54929442      15.02050033
In      16.27387574      18.67578179      13.66398489
In      11.22521441       8.09765910      18.47377785
In      15.43776850      13.98774927      15.85395673
In      13.52726421      13.32140823      18.48677568
In      16.71966929      13.96758666      18.56294390
In      11.52001167      11.15367056      17.80692695
In      13.92114140      19.15689831      16.61564487
In      11.59246227      12.98043389      12.25007022
In      15.22718434      17.08875923      10.23429709
In      10.68574538       9.14291129      15.59602949
In      14.19423578      16.16278354      17.95000496
In      12.26088145       9.87536499      10.62391421
In      12.66146847      15.58372150       8.79743402
In      13.63454594      16.74014549      14.84701732
In      12.52553158      15.91467660      12.03229591
In      10.59927343      14.12477573      17.56651347
In      12.09111413      12.49672960       8.68831046
In      10.62463915      15.16032792      14.52110127
In      10.14155071      10.18323034      12.87831558
In      13.56913813      18.98727563      12.27153220
In       9.87574881      12.13738160      15.29515631
In       9.53148040      11.51556808      10.19966237
In      11.16080646      18.05697530      10.24630167
In      11.35196321      16.99170077      16.95919786
In       9.78149848      14.59255154       9.66931806
In      11.06872339      18.18158152      13.98958515
In       7.90796583      14.47850954      15.70712857
In       8.46805551      13.26102008      12.74659510
In       9.16368171      16.37351335      12.12280694
49
Properties=species:S:1:pos:R:3 config_type=qcd gap_pre_relax_energy=-109.61084240680012 gap_pred_energy=-112.04108678709059 gap_fmax_final=0.0009933551672705 gap_converged=1 pbc="F F F"
In      13.46747121      14.25102418       9.14661314
In      16.17053223      16.15126669       8.50224375
In      17.10454071      18.00893402      11.12929099
In      16.02261867      12.45823237       9.99482467
In      10.62001290      16.25618336      10.87046463
In      18.38949262      14.48279995      10.12555717
In      13.58498226      17.38516237      10.11346927
In      16.26179632      10.28620463      12.27750024
In      13.37243405      10.67976044      10.31847211
In      10.89727980      12.87092046      10.40401361
In      11.81374162      18.88090441      12.23536075
In      10.85328536      13.93894385      13.30858646
In      15.54091613      15.29848008      11.38439434
In      13.52670826       9.43293605      13.35949352
In      19.08186746      15.85464976      12.81947145
In      18.24605219      18.87431013      13.98546216
In      17.00564883      13.30423772      13.08123869
In       8.13207585      15.15014170      12.32635747
In      19.64112351      12.21786484      12.05812054
In      13.09303772      16.04607262      13.24229389
In      14.74522209      19.14556658      13.23124867
In      10.81501264      10.66263800      12.74709197
In       8.17636012      12.22736803      13.14007825
In      13.72127907      12.84645842      12.55932609
In      16.35300764      16.38910851      14.06662073
In      12.75766611      13.37339591      15.75753759
In       9.90553562      17.10452008      13.99365789
In      18.32071591      10.91669136      14.68277378
In       9.83783781      11.63340180      15.71145126
In       9.05285960      14.62332105      15.80826366
In      15.26270473      11.40882874      15.05477974
In      12.48423115      10.02376195      16.20051603
In      12.28195257      18.71680809      15.36785181
In      19.50886086      13.86048315      15.22530076
In      15.67157848       8.81604293      16.53206200
In      15.99103056      19.05720753      16.21832638
In      18.42023669      16.76871717      16.46076056
In      14.31966175      16.34607768      16.36120282
In      16.43888970      13.98515333      16.32268794
In      11.30893684      12.58841889      18.28265600
In      11.16037225      16.35289031      17.28156625
In      17.50550121      11.33371469      17.64866378
In      14.42095137      11.39557651      18.10143221
In      13.58420569      18.63889065      18.26392859
In      18.84798816      14.24111976      18.34444229
In      16.26590228      16.35299746      18.82804102
In      13.21410627      15.77925908      19.56512469
In      16.22199782      13.40287578      19.76574307
In      13.32188537      12.92178502      20.53574338
50
Properties=species:S:1:pos:R:3 config_type=qcd gap_pre_relax_energy=-111.42732886979584 gap_pred_energy=-118.05800310158321 gap_fmax_final=0.0009293730253995683 gap_converged=1 pbc="F F F"
In      15.79150241      16.93448077       9.73210513
In      16.52163336      14.15812990       8.81100794
In      17.23075348      17.61478730      12.55413384
In      18.28218787      15.31904059      10.96937341
In      20.07105693      16.28852845      13.54714716
In      13.58439133      14.81900635       8.87738589
In      14.67778899      11.85197397       9.47409088
In      14.01743745      11.18433620      12.47384250
In      17.23313014      12.39948193      11.16245798
In      14.97795200      19.31626220      11.31670255
In      18.96065296       9.91456920      12.81515097
In      17.99608189      17.92196497      15.48505340
In      19.75003513      13.00415904      12.74261993
In      18.87204561      15.30422679      16.91248383
In      11.93649848      12.55661375      10.46136541
In      10.81434682      15.31512147       9.78243806
In      12.73053652      17.60797025      10.16783291
In      16.70703468      11.59985684      14.05408481
In      17.51197173      14.71149304      13.99881687
In      12.52841013       9.45931803      10.56574047
In      16.24799748       9.54392967      11.19822894
In      12.39853633      19.19884525      12.92800434
In      12.39454493      16.31945440      14.67442686
In      15.37771149       8.77046096      14.10761044
In      15.28338606      19.37426407      14.29853048
In      15.31062639      16.31357999      15.55246561
In      10.90739531      11.18144750      12.95603966
In      19.18610749      12.47228790      15.77396551
In      10.30528723      17.05532509      12.19292414
In      12.36127628       8.92570097      14.30788593
In      16.20353559      13.32699367      16.55601808
In      12.85025536      19.16675926      16.19426259
In       9.63238055      13.94873626      12.10419250
In      15.76683192      19.12924504      17.36195579
In      13.98092514      11.31026954      15.60109524
In      10.09515359      18.55981015      14.90927811
In      16.59765077      16.47074407      18.64113736
In       9.08563855      15.64172413      14.73311447
In      17.65891789      13.38936182      19.24091797
In      13.14477106      14.15562356      16.75916958
In      14.89127394      11.44030422      18.75102526
In       8.71824267      12.60489522      14.59441845
In      10.66978489      10.87356060      16.11435954
In      13.03046947       9.05050659      17.44851982
In      13.45820749      17.19273170      18.61578414
In      10.57086953      16.72755637      17.37302424
In      14.60818538      14.34038061      19.72659226
In       9.76405023      13.74254962      17.23505421
In      11.87233048      11.84578559      18.70525366
In      11.57564535      14.78928190      19.58434761
51
Properties=species:S:1:pos:R:3 config_type=qcd gap_pre_relax_energy=-114.09302629487351 gap_pred_energy=-117.34087299143545 gap_fmax_final=0.0009206428275221978 gap_converged=1 pbc="F F F"
In      17.28944103      14.55409438      19.70640944
In      12.55538287      10.30550951      19.48411483
In      14.97284727      12.46013484      19.67270260
In      11.82975612      13.20290989      19.98285390
In      16.25539621      17.49590246      19.15005474
In      11.34807067       9.84452637      16.68215805
In      19.27972873      13.59242538      16.95897241
In      14.09838275      15.45453909      20.02735552
In      17.34609158      11.38691272      17.68634648
In      18.40899322      16.43654265      17.27028614
In      15.38577776      20.29167443      18.12555779
In      11.12840597      15.98961951      18.82532948
In      13.08994296      18.29427527      18.87421299
In      14.07850408      11.40743804      16.85939038
In      15.38494597       9.33680845      18.81454559
In      11.50066119      12.25281892      14.72901769
In      15.75811705      14.28315061      17.09286734
In      20.41331849      14.61323222      14.18833311
In      15.27795878      17.49487253      16.16156041
In      18.73994346      11.56979177      14.48138850
In      13.95017484       8.09605926      16.45944508
In      12.52084563      14.07466039      16.90532524
In      17.83798298      19.53281037      16.33162837
In      16.34660800       9.70568015      15.07844400
In      11.56171858      17.31549057      16.07596313
In      13.43200085       9.98745637      13.99286306
In      18.88838297      13.22031539      11.80157130
In      19.37272733      17.49104902      14.60218734
In      17.33005915      14.72235975      14.54767076
In      12.69573320      20.13354845      16.34461740
In       9.77424292      14.88481391      15.43565366
In       9.83888786      13.60547738      12.43360781
In      13.50930074      18.13877101      13.78122231
In      15.26807685      20.76471917      14.86372478
In      15.81429433      14.06323224      11.85880315
In      14.60222679      13.17939136      14.48935194
In      10.37200212      17.59074825      13.20893643
In      15.73992153      10.83535120      11.99582156
In      17.09297655      19.03660652      13.15203893
In      17.16273979      15.23556421       9.38945410
In      18.24552238      16.34184834      12.00412439
In      12.23042053      15.19608064      13.50987933
In      11.58347589      20.49405952      13.44955482
In      14.14518698      15.89775400       8.83032349
In      12.54766554      17.55876023      10.91748125
In      15.71587736      17.65021230      10.77935373
In      12.85530512      12.42312236      11.93521060
In      14.40972577      20.24239428      11.84465475
In      15.93148014      13.88120750       6.87009053
In      14.27036978      12.83858110       9.35252031
In      17.27494715      12.05724152       9.44756488
52
Properties=species:S:1:pos:R:3 config_type=qcd gap_pre_relax_energy=-116.4888261094003 gap_pred_energy=-121.4470575634097 gap_fmax_final=0.0009755093362282713 gap_converged=1 pbc="F F F"
In       9.51463169      16.69273930      10.22457066
In      13.99435210      14.52964977       8.90527969
In      13.06265664      11.54258779       9.89232064
In      17.01195290      15.49410529       9.72387023
In      12.00764581      16.77391501       8.49574132
In      15.43122064       9.46960785      10.52183973
In      14.66027672      17.46096354       9.92015888
In      10.97913142      13.76192720       9.63246193
In      12.34421799      15.60591788      11.60807191
In      15.65768883      11.56840360      12.70341437
In      14.51361521      19.83952859      11.98753519
In      12.81168405       9.46531909      12.20121157
In      17.75844363      13.31688787      14.25020603
In      20.61030412      12.58604892      13.54668964
In      16.00663688      12.40617615       9.45868461
In      11.86924455      18.73889429      11.05951726
In      18.86707887      15.62389347      12.39384001
In      18.29853592      12.79342737      11.26237304
In      15.30296155      14.95216060      12.50999716
In      10.46242213      11.50470135      11.70815836
In       9.32388964      14.41034501      12.24601185
In      15.34239498       8.76810260      13.92577137
In      12.95663246      11.59359096      14.59569669
In      16.89389679      17.92417720      12.08247995
In      10.05755833      17.40771627      13.19680412
In      12.35172306      19.35050672      14.16888842
In      11.91221662      14.86644317      14.65608481
In      18.18313321      10.24658755      14.24002533
In       9.26237712      12.45016149      14.55113201
In      10.44972757       9.62398133      14.19955586
In       8.62193981      15.47716798      15.10614154
In      15.51611855      19.06054521      14.77139894
In      15.73432833      11.50152189      15.88849465
In      19.80669295      14.91329489      15.74000103
In      14.17444626      16.44142344      16.25824612
In      17.20373722      16.47430446      14.82977121
In      12.87926559       8.49412316      15.80053519
In      16.60160645      14.44876452      16.93937660
In      10.72711905      17.56972233      16.18847477
In      13.50793837      13.49602826      17.07210822
In      13.34457195      19.16534979      17.15519361
In      16.09004209       8.69037071      17.06566221
In      10.72930749      11.11206774      17.00988629
In       9.86291910      14.04231861      17.42773212
In      18.54550282      12.04157596      17.11141435
In      16.49244092      17.88527814      17.49622652
In      18.76590229      16.07971375      18.39431493
In      13.54334459      10.42180456      18.14353225
In      11.93916094      15.99363208      18.53343381
In      14.92524682      15.46946894      19.31011294
In      11.98532007      12.87031170      19.62574262
In      15.80622268      12.28417036      18.96523318
53
Properties=species:S:1:pos:R:3 config_type=qcd gap_pre_relax_energy=-119.32697584213246 gap_pred_energy=-124.80446094652136 gap_fmax_final=0.0008898079059686191 gap_converged=1 pbc="F F F"
In      13.32205937      14.45887096       7.90398710
In      15.00819851      11.97419996       9.02344063
In      17.39472943       9.95775312      10.21480420
In      11.92125205      12.09500702       9.36515462
In      15.71070553      17.58525052      11.22997626
In      10.51815378      17.82631195      10.76884631
In      14.11634213       9.40011977      10.37866949
In      19.46337442      12.83653653      12.23452870
In      10.86449721      14.92866970       9.93175576
In      13.26072069      17.10191915       9.53812462
In      11.17052189       9.78234161      11.19108936
In      18.87805981      17.55398793      10.98182082
In      14.65636686      14.59285448      10.75289679
In      16.37234974      12.29047477      11.90241489
In       9.87770958      12.64787102      11.77941749
In      15.57333048      19.96757340      13.32178940
In      19.86022884      15.65962902      13.77235435
In      18.18347380      10.28829687      13.68889983
In      13.22500725      12.00695257      12.31789702
In      17.31837725      15.21218576      12.25481020
In      15.91174117       8.50956138      12.76537872
In      10.40861297      18.50402917      13.65736313
In       9.35761380      15.61429378      12.63040120
In      13.04332673      19.29980650      11.85215805
In      12.73773230      16.32553009      12.79098404
In      13.09426959      19.62735067      15.02469181
In      12.64067024      15.77266376      15.95951653
In      12.97847847       8.73096134      13.63333727
In      10.58107091      19.11014474      16.57386097
In      10.35349839      10.50398367      14.04814393
In       9.22985224      13.35482771      14.76977827
In       9.26337609      16.32652052      15.64926045
In      17.67928545      13.20222657      14.70954097
In      15.95990778      18.68398046      16.15811089
In      15.15720933      11.28917575      14.75787009
In      12.52356243      12.65858185      15.35377813
In      13.38799170      18.32493370      17.87961781
In      20.33635237      13.70268716      16.17402912
In      17.74950987      16.04876345      15.97890225
In      17.85372308      10.88448226      16.79072629
In      15.73940455       8.52292656      15.96385684
In      17.78869100      18.07462738      13.72119061
In      12.77779824       9.54621693      16.68902840
In      15.16494384      13.65342811      16.73632385
In      10.53337451      16.99167986      18.62100682
In      10.15533849      11.21710998      16.99846202
In      10.18413139      14.14647159      17.69798569
In      17.87946953      13.76191886      18.12062224
In      15.73219838      16.40297002      18.23781144
In      15.20485657      10.76559704      18.43541446
In      12.99812172      15.40707531      19.30922011
In      12.52156864      12.29734985      18.82490567
In      15.39174740      13.58620568      19.94893189
54
Properties=species:S:1:pos:R:3 config_type=qcd gap_pre_relax_energy=-123.81856506741693 gap_pred_energy=-125.2309254503746 gap_fmax_final=0.0008041538899512529 gap_converged=1 pbc="F F F"
In      14.11022557      13.79358612       8.51411978
In      15.52350122      16.88447321       9.06726038
In      12.44825264      16.24289839       9.80238951
In      16.71715923      12.41285271      10.13233649
In      18.05741429      15.33023051      10.66114068
In      12.04925394      13.31314068      10.93665537
In      13.74857468      10.86686781       9.71629211
In      14.19795669      17.99366628      11.78247268
In      17.28913072      18.57525120      11.10836601
In      11.02080721      18.48874467      11.62583714
In      14.84105130      14.87885122      11.29741656
In      19.56166624      12.65831008      11.57830390
In       9.60455187      15.39811468      11.07684932
In      17.46391026      10.49183064      12.65010480
In      16.62875779      16.59454966      13.36650133
In      16.93185065      13.59544124      13.07339088
In       9.24563960      12.46945896      12.27520653
In      12.04326444      15.87669927      12.88807827
In      11.73771329      10.42285063      12.19974659
In      14.54509659       8.84005178      12.38387072
In      19.63260327      15.21202962      13.50585626
In      15.95632581      19.61551158      13.85817944
In      11.67820907      12.90956580      14.10631537
In      12.78291204      20.18000346      13.66983621
In      14.47671065      11.91183625      12.51604299
In       9.20629305      15.09006815      14.40184229
In      18.95704005      18.45811153      14.11898298
In      10.03924203      10.44605409      14.94512319
In      16.03919539      11.79380636      15.33846246
In      13.24843016      10.23425163      14.97640103
In      19.26570724      12.22176389      14.73516287
In      16.08370155       8.72262552      15.16946702
In      10.54700675      18.00719830      14.93135138
In      12.01203446      15.34885046      15.87023070
In       9.95265772      13.16870501      16.91937359
In      17.36933453      14.68793752      15.86406618
In      19.68844789      16.57600548      16.58180011
In      14.45505895      20.06437744      16.67799380
In      13.83121433      17.59174590      14.95768469
In      17.99116572      10.55919511      17.36960518
In      14.57102501      15.68464060      17.45494949
In      16.72559251      17.80699844      16.34503652
In      13.24038611      12.79091217      16.92885865
In       9.38225121      16.28625959      17.36520203
In      11.58145957      10.32696576      17.72864275
In      14.80471467      10.19873887      17.73716276
In      19.30239877      13.41422349      17.88954958
In      12.12206370      17.88873521      17.77607724
In      11.75456012      14.89836467      19.00470849
In      17.41255114      15.87939560      18.76217011
In      16.13825237      13.01143835      18.31896121
In      15.18229472      18.18235519      19.14196380
In      14.80089495      15.01992248      20.44959325
In      13.48558809      12.16663860      19.93010918
55
Properties=species:S:1:pos:R:3 config_type=qcd gap_pre_relax_energy=-123.78488067797932 gap_pred_energy=-128.71084343416544 gap_fmax_final=0.0008508775281357944 gap_converged=1 pbc="F F F"
In      10.46028826      12.38858515      17.32329501
In      17.35317100      15.56191945      12.54620583
In      16.24862015      11.06489468      18.53790361
In      13.06613836      13.92587325       9.97500194
In      17.30708142      14.48375666      15.70477494
In      14.23488510      16.58068066       8.54555696
In      12.78839556      12.22079968      14.86855234
In      11.86850235      11.85299304      11.91123293
In      14.37747825      16.43233395      11.86641212
In      15.36957770      13.85187564      19.87815297
In      12.17630484      14.05191260      19.54806488
In      13.08503179      17.40097999      14.86199094
In      11.53216788      18.36039255      12.48237967
In       9.60685851      16.32615692      14.11140994
In      15.02602482      16.41124170      17.09733026
In      12.34347276      20.37104151      15.08121918
In      16.16016433      14.54565306       9.73670381
In      20.15259280      14.22243852      13.00694636
In      18.17866546      12.54314939      11.03864942
In      15.05144014      13.36427863      12.88934930
In      20.44710948      13.61139578      16.06260740
In      15.79754327      11.59371992      15.40994070
In      13.34220776      11.71853287      17.82467507
In       9.58889404      14.38046338      11.39863960
In      18.30764633      13.43944079      18.81329226
In      13.66503141      19.13436089      10.07777946
In       9.10653950      15.22388058      17.28032707
In      16.69247468      18.21459572      10.97112852
In      14.59364883      19.53164108      12.97532788
In      10.96773278      16.84630891      19.23555630
In      17.62652835      18.87180457      13.97087392
In      15.30643202      19.52937872      15.93388752
In      13.99688640      16.64178234      20.08120354
In      13.98748156       9.88349893      13.04962850
In      19.28888797      11.36776842      13.94510920
In      19.83382366      15.96812907      17.91237157
In      13.81304099      11.37677392      20.71494625
In      18.77238391      11.13630646      16.90400962
In      17.18905666      16.28350597      19.50328403
In      11.36082914      16.50366532      10.07496548
In      19.66969872      17.54927569      12.03333065
In      10.25268649      18.27296962      16.35250517
In      12.20044922      14.86020234      13.07543785
In      10.94536454       9.86507428      15.40926983
In      12.89019527      19.02537504      17.96400502
In      12.13286374      14.99560013      16.34893096
In       9.81278739      13.04734814      14.26563446
In      15.78258962      19.01030234      19.01214968
In      16.93023609      10.12419488      12.43286263
In      15.07202747      11.49592145      10.25782870
In      17.96855899      18.25693671      16.97788204
In      17.15158741       8.87382900      15.38844285
In      13.97893389       9.22881273      16.19254034
In      19.69926067      16.61774335      14.91967696
In      19.19100431      15.30778767       9.96810060
