3
Properties=species:S:1:pos:R:3 config_type=qcd gap_pre_relax_energy=-13.594042594131523 gap_pred_energy=-13.606622881695696 gap_fmax_final=4.877926758309879e-05 gap_converged=1 pbc="F F F"
Ir       6.55321132       8.69818086       8.70865542
Ir       8.70788033       8.70790875       8.70800895
Ir      10.86254986       8.71755189       8.70697713
4
Properties=species:S:1:pos:R:3 config_type=qcd gap_pre_relax_energy=-20.678811819743334 gap_pred_energy=-20.71450899366886 gap_fmax_final=0.0002533786268421198 gap_converged=1 pbc="F F F"
Ir       7.90643305       8.21763812       6.08712696
Ir       6.01044054       8.30861336       7.42072959
Ir       8.55992452       6.26175299       7.14964246
Ir       6.66389190       6.35268553       8.48319098
5
Properties=species:S:1:pos:R:3 config_type=qcd gap_pre_relax_energy=-26.749166659019345 gap_pred_energy=-26.875331850269752 gap_fmax_final=0.0007748453287527549 gap_converged=1 pbc="F F F"
Ir       8.66411341       9.74620719       6.85123216
Ir       9.12703805       8.56682859       8.75200051
Ir       8.60966464       6.75451990      10.25200291
Ir       6.84761815       8.33162072       6.38875346
Ir       7.27632883       7.12558666       8.28077401
6
Properties=species:S:1:pos:R:3 config_type=qcd gap_pre_relax_energy=-34.52495687178413 gap_pred_energy=-34.57752301339045 gap_fmax_final=0.0001811236468153413 gap_converged=1 pbc="F F F"
Ir       6.03070378       8.29268997       6.61656040
Ir       8.33065702       8.32399154       6.10340136
Ir       6.25428452       6.02465510       7.48051434
Ir       8.55420173       6.05589774       6.96721121
Ir       6.56031463       7.93102243       8.96795806
Ir       8.86026032       7.96216523       8.45477664
6
Properties=species:S:1:pos:R:3 config_type=qcd gap_pre_relax_energy=-33.35921435293308 gap_pred_energy=-33.54530882409318 gap_fmax_final=0.0009435339246771234 gap_converged=1 pbc="F F F"
Ir       8.50543981       9.84606023      11.33451476
Ir       8.88333762      10.37408384       9.10667817
Ir       9.25854328      10.54156432       6.82266968
Ir       9.08284352       8.32157465       7.47541477
Ir       8.85772875       6.23430081       8.46416488
Ir       8.65553501       7.92584414      10.03998572
7
Properties=species:S:1:pos:R:3 config_type=qcd gap_pre_relax_energy=-40.9618538038614 gap_pred_energy=-41.54944294131527 gap_fmax_final=0.0009436271331539783 gap_converged=1 pbc="F F F"
Ir       6.02808006       7.74099638       7.26966646
Ir       7.75961366       8.77587987       6.01078064
Ir       7.53629287       5.96608845       7.89059825
Ir       9.27118906       6.99664410       6.63284627
Ir       6.79150089       9.03765274       9.11081269
Ir       9.07365470       8.98758797       8.11544482
Ir       8.30309075       7.25857248       9.73327286
7
Properties=species:S:1:pos:R:3 config_type=qcd gap_pre_relax_energy=-41.41768984681146 gap_pred_energy=-41.515045502645954 gap_fmax_final=0.0009931750040250023 gap_converged=1 pbc="F F F"
Ir       8.08235978      10.08438354       8.23550479
Ir       6.55222799       8.64891881       7.16889467
Ir       9.86908715       8.84855011       7.33002607
Ir       8.33831837       7.07389947       6.69898416
Ir       8.07501734       8.68300728      10.12643937
Ir       6.95809323       6.94639097       8.85062200
Ir       9.51019614       7.10014981       8.97482895
8
Properties=species:S:1:pos:R:3 config_type=qcd gap_pre_relax_energy=-50.10572631720986 gap_pred_energy=-50.165667549083196 gap_fmax_final=0.0005085428381750384 gap_converged=1 pbc="F F F"
Ir       6.49452562       6.48413066       6.47852388
Ir       6.47953515       6.48469899       8.87291501
Ir       8.88889904       6.48669498       6.49355288
Ir       8.87391200       6.48731121       8.88793750
Ir       6.49194405       8.87855814       6.47792350
Ir       6.47693027       8.87912777       8.87230479
Ir       8.88633416       8.88113484       6.49293388
Ir       8.87131969       8.88174343       8.88730855
8
Properties=species:S:1:pos:R:3 config_type=qcd gap_pre_relax_energy=-47.24009048882057 gap_pred_energy=-47.30877993127842 gap_fmax_final=0.00032694911726572 gap_converged=1 pbc="F F F"
Ir       8.63508296      10.28556970       9.11171908
Ir       6.98459648       8.63508301       8.15844663
Ir       8.63508313       9.88768252       6.61700714
Ir       8.63508310       7.38248339       6.61700717
Ir      10.28556960       8.63508299       8.15844687
Ir       8.63508295       6.98459632       9.11171910
Ir       7.38248310       8.63508304      10.65315894
Ir       9.88768268       8.63508303      10.65315909
9
Properties=species:S:1:pos:R:3 config_type=qcd gap_pre_relax_energy=-55.158499423855076 gap_pred_energy=-55.456172286960474 gap_fmax_final=0.0008636265043172836 gap_converged=1 pbc="F F F"
Ir      11.90653317       9.23242787       9.66975627
Ir      10.45725604       8.33820586      11.49105869
Ir      10.04480478      10.29838383       8.75655037
Ir      10.03672058       7.69907797       9.13587323
Ir       8.60273280       6.76599366       7.53577836
Ir       8.63383565       9.42823607      10.53030402
Ir       7.90740235       8.94226837       8.05309572
Ir       8.22062487      11.38511753       7.79359082
Ir       6.77146065      10.49165971       9.61536340
9
Properties=species:S:1:pos:R:3 config_type=qcd gap_pre_relax_energy=-55.25117920908564 gap_pred_energy=-55.39565326270591 gap_fmax_final=0.0009235130059045676 gap_converged=1 pbc="F F F"
Ir       6.87045414       7.56010497       7.38862071
Ir       7.61305664       7.59014238       9.72101146
Ir       9.26305216       7.58079483       7.83679312
Ir      10.01388528       7.55847720      10.23348754
Ir       6.85454443       9.94448739       7.39333671
Ir       7.59751215       9.91515647       9.72560594
Ir       9.24721691       9.95396110       7.84146636
Ir       9.99773674       9.97690458      10.23819681
Ir      11.40296256       8.78039206       8.48190235
10
Properties=species:S:1:pos:R:3 config_type=qcd gap_pre_relax_energy=-64.01069863141021 gap_pred_energy=-64.03171845766727 gap_fmax_final=0.0006857942770586361 gap_converged=1 pbc="F F F"
Ir       7.53964699       6.88307942       7.53867613
Ir       9.95184103       6.88307556       7.53857143
Ir       7.51370287       9.26973736       7.56099653
Ir       9.97786437       9.26975179       7.56088976
Ir       8.74572495      11.42367594       7.53338254
Ir       7.53975554       6.88296781       9.95287752
Ir       9.95194801       6.88296347       9.95276619
Ir       7.51380877       9.26962891       9.93077957
Ir       9.97796635       9.26964232       9.93066921
Ir       8.74583114      11.42356743       9.95848114
10
Properties=species:S:1:pos:R:3 config_type=qcd gap_pre_relax_energy=-63.23823452564865 gap_pred_energy=-63.26042313514468 gap_fmax_final=0.0009998523912577051 gap_converged=1 pbc="F F F"
Ir       9.38058422      11.90296677       9.07942887
Ir       8.85443990      10.12465714       7.51208288
Ir      10.53156487       9.81055357       9.51862535
Ir       8.34572681       8.16128278       6.17721806
Ir       7.96299751      10.15507525       9.99074667
Ir       7.40061480       8.12159616       8.41359048
Ir       9.96911056       7.77707584       7.94151995
Ir      11.43230434       7.58316720       9.86952100
Ir       9.07796071       7.80744924      10.42005219
Ir       6.70571463       8.21719444      10.73823291
11
Properties=species:S:1:pos:R:3 config_type=qcd gap_pre_relax_energy=-69.92461263079744 gap_pred_energy=-70.05955726273498 gap_fmax_final=0.0009158195854802319 gap_converged=1 pbc="F F F"
Ir      12.23826916       8.01983820       9.78496956
Ir       9.81903937       8.28084973       9.92827652
Ir       7.96908943       8.17535406       8.27231499
Ir      11.52352186       9.76256314      11.30062187
Ir      11.37007726       9.99133494       8.66926414
Ir       7.30026740       8.95884943      10.49981820
Ir       8.98077788      10.29227783      11.57037077
Ir      10.70893038      11.63447621      12.61587129
Ir       8.78702736      10.44825366       8.85344065
Ir      10.48399876      11.94514945      10.21812931
Ir      10.33792938      12.00998157       7.80585096
11
Properties=species:S:1:pos:R:3 config_type=qcd gap_pre_relax_energy=-69.84295304661181 gap_pred_energy=-70.0320749043449 gap_fmax_final=0.0007239677799818923 gap_converged=1 pbc="F F F"
Ir       8.87185228      13.06616247      10.02233246
Ir      12.16883514       9.49688066      13.02596408
Ir      10.32663985       9.40929445      11.63351440
Ir       8.09022155       8.43145302      11.11185087
Ir       8.35632079      10.79830973      10.66215421
Ir      10.76783153      11.89656980      11.08362207
Ir      11.00520956       9.56573205       7.43783780
Ir      13.03338896      11.13880739      11.52382395
Ir       9.95708160      11.39463219       8.63881085
Ir       9.54785734       8.84373127       9.21958110
Ir      11.92087268      10.00453828       9.68661949
12
Properties=species:S:1:pos:R:3 config_type=qcd gap_pre_relax_energy=-80.07231094052287 gap_pred_energy=-80.11417437826927 gap_fmax_final=0.0009921389429078436 gap_converged=1 pbc="F F F"
Ir       7.19632692       7.19921506       6.00884232
Ir       7.19980121       7.19715492       8.40709193
Ir       7.20893398       7.20074853      10.80532459
Ir       9.60071674       7.20186253       6.00248362
Ir       9.60988086       7.19980314       8.40072144
Ir       9.61336874       7.20339228      10.79896967
Ir       7.19368242       9.60361265       6.00806260
Ir       7.19715869       9.60724224       8.40631531
Ir       7.20629813       9.60519046      10.80455430
Ir       9.59806954       9.60625842       6.00170117
Ir       9.60723627       9.60988962       8.39994157
Ir       9.61073052       9.60783415      10.79819548
12
Properties=species:S:1:pos:R:3 config_type=qcd gap_pre_relax_energy=-77.12294376389649 gap_pred_energy=-77.56537271439127 gap_fmax_final=0.0006850172866643428 gap_converged=1 pbc="F F F"
Ir       9.71890160      11.24558208      11.76103907
Ir      10.74233960       8.90353365      11.35986108
Ir       8.34771922       9.59694722       8.92659822
Ir       9.32645306      10.83515223       7.05086714
Ir       8.16313325       9.10254823      11.31149567
Ir      10.21948886       8.13596221       8.93264128
Ir       9.78490890      11.57695828       9.34190905
Ir       9.31014024       6.95219544      10.88085630
Ir      11.75009136      10.24470724       9.37498128
Ir       7.53364025      11.40876383      10.52076196
Ir      11.24751002       9.42124138       7.14408346
Ir      12.16725082      10.88798539      11.70648268
13
Properties=species:S:1:pos:R:3 config_type=qcd gap_pre_relax_energy=-86.21223363709166 gap_pred_energy=-86.38732547461302 gap_fmax_final=0.00047863065705334735 gap_converged=1 pbc="F F F"
Ir       6.91083802       7.29118602       6.10622552
Ir       6.91083825       9.69482945       6.10622538
Ir       7.07835519       7.28478472       8.49098680
Ir       7.07835527       9.70123056       8.49098673
Ir       7.17066395       7.27824123      10.88586290
Ir       7.17066381       9.70777362      10.88586285
Ir       9.30385467       7.28211217       5.91490417
Ir       9.30385490       9.70390221       5.91490412
Ir       9.48987092       7.26610378       8.30366014
Ir       9.48987100       9.71991097       8.30366005
Ir       9.55592193       7.27844488      10.75855264
Ir       9.55592185       9.70757019      10.75855276
Ir      11.39008778       8.49300772       9.48871343
13
Properties=species:S:1:pos:R:3 config_type=qcd gap_pre_relax_energy=-85.37486555542004 gap_pred_energy=-86.38732530911709 gap_fmax_final=0.000979378790838237 gap_converged=1 pbc="F F F"
Ir       7.54889287       7.94110394       6.76460888
Ir       7.72768664       7.93590346       9.14858079
Ir       7.83152096       7.93058004      11.54302138
Ir       9.94101169       7.93032415       6.56191582
Ir      10.13825967       7.91553276       8.94973766
Ir      10.21608562       7.92913212      11.40422889
Ir       7.55049343      10.34474741       6.76328143
Ir       7.72927331      10.35234358       9.14725851
Ir       7.83310197      10.36011103      11.54170250
Ir       9.94262062      10.35212675       6.56058857
Ir      10.13986313      10.36933567       8.94839757
Ir      10.21765859      10.35829207      11.40292427
Ir      12.04492998       9.14186551      10.12515223
14
Properties=species:S:1:pos:R:3 config_type=qcd gap_pre_relax_energy=-91.71786028318074 gap_pred_energy=-91.81784238015656 gap_fmax_final=0.0009585228044526603 gap_converged=1 pbc="F F F"
Ir       6.79078920       7.68292438       6.06244121
Ir       6.80669174      10.06588024       6.05330884
Ir       7.17685649       7.69773197       8.48496243
Ir       7.19265727      10.06449467       8.47589276
Ir       7.68782110       7.70425085      10.91800197
Ir       7.70363624      10.06980599      10.90893813
Ir       9.12832468       7.66480616       6.80358313
Ir       9.14430051      10.05847693       6.79441096
Ir       9.64462663       7.63434850       9.26129835
Ir       9.66109458      10.10086870       9.25185125
Ir      10.06472063       7.65963301      11.72009170
Ir      10.08096182      10.08877260      11.71079872
Ir      11.78886656       8.85669337      10.12843761
Ir      11.32752455       8.85018462       7.62485496
14
Properties=species:S:1:pos:R:3 config_type=qcd gap_pre_relax_energy=-91.7278453135539 gap_pred_energy=-92.80318990873923 gap_fmax_final=0.0009011735965025782 gap_converged=1 pbc="F F F"
Ir      11.80837808       7.32042241       7.98280808
Ir       9.52623756       7.88767670       7.32420914
Ir       8.17547353       9.71423448       6.70201992
Ir      11.16158244       7.32075898      10.33771090
Ir      10.65595174      12.75946772       9.63133831
Ir       9.49484036      11.25867020       8.08249387
Ir       8.91482311       8.19238920       9.71713699
Ir      10.88781404       9.47427926       8.88754558
Ir       7.38674686       9.91474491       8.99932295
Ir       8.63703201      11.61834653      10.51237599
Ir      11.04280161      10.72211042      10.93486658
Ir       8.91369294       9.38538004      11.81316707
Ir      11.19718335       8.66673273      12.27028826
Ir       6.70148152      10.26882561      11.30875555
15
Properties=species:S:1:pos:R:3 config_type=qcd gap_pre_relax_energy=-99.44665667868887 gap_pred_energy=-99.93274227751488 gap_fmax_final=0.0009997448093808216 gap_converged=1 pbc="F F F"
Ir      12.50947992      10.94150071       8.25735079
Ir      11.92010323      10.88997967      10.53265237
Ir      10.15499322      11.00869870       7.60582667
Ir      11.39046125       8.77044763       7.92800254
Ir       7.78705194      11.10513139       7.07480182
Ir      11.34577217       9.67278828      12.53118742
Ir       9.55478381      11.02011323       9.97626447
Ir       9.62338865       7.13219745       7.66667582
Ir      10.71726934       8.68660699      10.31736101
Ir       8.97762618       9.77985355      12.00308684
Ir       8.46973333       9.14933075       8.48101487
Ir       7.19019194      11.11130491       9.40916420
Ir       9.64101033       6.49826009       9.97727104
Ir       6.62078760       9.97411094      11.38642861
Ir       7.81647960       7.97880823      10.57204407
15
Properties=species:S:1:pos:R:3 config_type=qcd gap_pre_relax_energy=-98.83527813889486 gap_pred_energy=-99.34998885621016 gap_fmax_final=0.0008520331989718137 gap_converged=1 pbc="F F F"
Ir      12.40859794       9.56874160      10.75912199
Ir      14.18195218      11.23563569      10.36098189
Ir      11.79452307       8.25832767      12.80018946
Ir      11.32909516      10.62023407      12.88450606
Ir      11.97361128      12.18675424      10.90502673
Ir      12.45938829      11.04660408       8.53695336
Ir      11.00376414      13.00050672      13.06287311
Ir       9.41858010      12.72574736      11.28560574
Ir      10.18852290      11.95764152       8.94723075
Ir       9.22188613      10.33179377      11.74958329
Ir      10.61108824       9.41340871       8.80613375
Ir      10.17312344       8.19379823      11.03587044
Ir       7.80764308      12.65173817       9.51648124
Ir       8.59238805       7.93118217       9.25741366
Ir       8.25138114      10.29343114       9.50757367
16
Properties=species:S:1:pos:R:3 config_type=qcd gap_pre_relax_energy=-106.7435050194233 gap_pred_energy=-107.25726079797816 gap_fmax_final=0.000833018128442532 gap_converged=1 pbc="F F F"
Ir       8.24850692      11.14619199      12.99740787
Ir       9.82837698      11.56094537       9.96327627
Ir       7.42505622       9.37941439       8.52558417
Ir      12.47216287       7.46753787      10.98074701
Ir       7.67925071      10.44423978      10.77603855
Ir      12.18233748      11.50711190       9.57910262
Ir       9.69041764       8.92052099       9.54002769
Ir      12.50046013       9.84645865      11.53389097
Ir       7.61643370      11.89154856       8.62878961
Ir      10.14521552       9.78576538      11.99513036
Ir      10.24885976      12.32072470      12.23536143
Ir      10.16180040       7.39777345      11.42714114
Ir       9.48802961      10.58566980       7.67189380
Ir      12.57664335      12.29775886      11.88159878
Ir      11.80437370      10.61298186       7.27818919
Ir      12.05377238       8.95705381       9.10751789
17
Properties=species:S:1:pos:R:3 config_type=qcd gap_pre_relax_energy=-114.0678309567469 gap_pred_energy=-115.17832372469395 gap_fmax_final=0.0009647920270653707 gap_converged=1 pbc="F F F"
Ir      10.73773039       7.41178093       9.99684772
Ir      11.20741910      11.39443224      13.65154782
Ir      11.69566761      10.29761169      11.50716845
Ir      12.40318855       9.04720128       9.50344712
Ir       9.93305391       8.73142017      11.92394979
Ir      14.03411932      10.69187422       9.00909259
Ir       9.62393250       9.68442804      14.18120897
Ir      13.65309952      11.72385233      11.17817138
Ir       8.96811786       9.07489512       9.65825124
Ir      12.35402766      12.47612029       9.01877973
Ir      10.63338026      10.75882370       9.18855483
Ir      12.94708586      12.92146095      13.20330665
Ir       8.98658990      11.09675267      12.27018529
Ir      11.21447558      12.88329067      11.45693898
Ir       9.10803900      12.45101111      10.03967840
Ir       7.43005049      10.76850371      10.40497008
Ir      10.65801126      14.17452967       9.39588975
18
Properties=species:S:1:pos:R:3 config_type=qcd gap_pre_relax_energy=-119.98262924599396 gap_pred_energy=-120.5524547043195 gap_fmax_final=0.000968370456427361 gap_converged=1 pbc="F F F"
Ir      13.71307972      12.52210956       8.98228212
Ir      11.25755952      12.34462087       8.67812855
Ir      12.38757717      12.39553778      11.06784600
Ir      10.49125794      10.00649796       8.15676944
Ir      11.31779900      14.06017919      12.55346149
Ir      12.72700931      10.33164008       9.47665618
Ir       8.80372431      11.77750600       8.93028174
Ir       9.52100044       7.73157214       8.25781841
Ir       9.90096148      13.21558605      10.70078872
Ir      10.50595280      11.75790665      12.78838616
Ir       8.56142029       9.32529251       9.82406247
Ir       8.30250188      11.41197384      11.41986566
Ir      10.99373072       8.40517186      10.14521234
Ir      13.40465209       8.27002432      10.60553503
Ir      12.16368280       9.87486384      12.00310374
Ir       9.59405518       9.30426756      12.23224843
Ir      11.00903405       9.80856454      14.17804179
Ir       7.14540383       9.25708776      11.79991423
19
Properties=species:S:1:pos:R:3 config_type=qcd gap_pre_relax_energy=-128.66538379717264 gap_pred_energy=-130.90846091683028 gap_fmax_final=0.0009875874911137604 gap_converged=1 pbc="F F F"
Ir      13.83774505       8.48068348      11.36364706
Ir      14.17988396      12.97717718      11.57340049
Ir      12.82475284      12.83213865       9.62702650
Ir      12.14292195      10.55677651      10.31697128
Ir      11.51460022      12.65244832       7.66780375
Ir      13.44783721      10.77243477      12.36380778
Ir      10.73112975      10.40884837       8.37538600
Ir      11.27444751       8.37428668      11.12175194
Ir      12.35542417       8.52168482      13.32844097
Ir       9.91307857       8.19021030       9.19886957
Ir       9.45531717      12.52370973       9.05509251
Ir      10.79979749      12.74658972      11.02591509
Ir      12.15004089      12.95038282      12.99526488
Ir      11.29553125      10.68886554      13.82328932
Ir       9.95669452      10.38985152      11.84184784
Ir       8.63857434      10.20218485       9.85400140
Ir       7.44298881      12.28491024      10.49009039
Ir      10.07100060      12.78140892      14.36688637
Ir       8.77747374      12.47464763      12.41974692
20
Properties=species:S:1:pos:R:3 config_type=qcd gap_pre_relax_energy=-135.01813938742708 gap_pred_energy=-135.96924246494297 gap_fmax_final=0.0009275512355680371 gap_converged=1 pbc="F F F"
Ir      12.64890072       8.83104229      13.35550216
Ir      12.42827123      11.19631527      13.23341616
Ir      12.39106448      13.58899832      13.02034973
Ir      12.94249959      13.45082064      10.63894288
Ir      10.24627061       8.74109588      13.01207802
Ir      13.28537095       9.03502213       8.98612987
Ir      12.78935649      10.94123494      10.75031095
Ir      11.80272453       8.67702973      10.96726020
Ir       9.88166879      11.09535182      13.36338250
Ir      10.77346766      12.43907087      11.46291552
Ir      12.00680090      11.14086365       8.40286159
Ir      11.94813461      13.60362484       8.48911611
Ir      10.73056206       9.05885121       8.68275369
Ir       7.80594679       9.56112150      12.91319226
Ir       9.22439557       8.80216716      10.73853807
Ir       9.89316018      12.34466749       9.16458860
Ir       9.92344956      11.02548647       6.94458377
Ir       8.40570644      10.23413344       8.69219979
Ir       8.56645734      11.25339760      11.14587812
Ir       6.80359797       9.47751118      10.53380646
21
Properties=species:S:1:pos:R:3 config_type=qcd gap_pre_relax_energy=-144.65099559956695 gap_pred_energy=-144.8789532008941 gap_fmax_final=0.000530793562504648 gap_converged=1 pbc="F F F"
Ir      12.71495271      10.12853129      10.12852827
Ir       7.54210844      10.12853206      10.12852788
Ir      11.42186752      12.36852860      10.12853064
Ir      11.42186651       7.88853198      10.12853062
Ir       8.83519463      12.36852936      10.12853065
Ir       8.83519413       7.88853227      10.12853051
Ir      10.12852965      10.12852880      12.54621448
Ir      10.12853255      12.72468062      12.36460790
Ir      10.12853158       7.53237622      12.36460522
Ir      12.37664495      11.42655778      12.36483898
Ir       7.88041674      11.42656074      12.36483656
Ir      12.37664578       8.83050055      12.36483608
Ir       7.88041509       8.83049930      12.36483411
Ir      10.12853057      10.12853054      10.12853822
Ir      10.12852909      12.72468329       7.89245642
Ir      10.12852832       7.53237292       7.89245965
Ir      12.37663860      11.42655973       7.89221830
Ir       7.88041929      11.42656011       7.89221938
Ir      12.37663688       8.83050360       7.89221830
Ir       7.88042048       8.83050457       7.89221887
Ir      10.12852919      10.12852837       7.71085169
22
Properties=species:S:1:pos:R:3 config_type=qcd gap_pre_relax_energy=-151.66342569117887 gap_pred_energy=-151.94608151855576 gap_fmax_final=0.0008173169461947905 gap_converged=1 pbc="F F F"
Ir      11.34526042      14.04709794      11.61327341
Ir      12.91670383      11.66715463       8.11516209
Ir      13.43084553      13.00004007      10.34822779
Ir      11.09182253      12.93122422       9.34517789
Ir      10.48795414      11.37592809       7.24307449
Ir       8.94463555      13.72760277      10.72727356
Ir       8.83795327      11.68238130       9.16864333
Ir       9.05071939       9.33057649       8.05330606
Ir       7.48207783      11.67679870      11.38544201
Ir       8.46403757       9.53246827      10.52542553
Ir       9.73033830      12.07910974      12.54137280
Ir      11.51325433       9.46487642       8.66082246
Ir      10.76814387      10.81433343      10.64429273
Ir      12.36836088      11.83368567      12.37542412
Ir      13.27348488      10.41984164      10.33819158
Ir      10.79426036       8.75576608      12.14045272
Ir      12.58463635       7.92801664      10.50556686
Ir      13.13348714       9.39971633      12.69025738
Ir      11.03089110      10.42428464      14.04224979
Ir      10.18834832       7.54594682       9.61617491
Ir       8.64861347       9.84733947      13.07163948
Ir       8.76364092       7.36528063      11.69801899
23
Properties=species:S:1:pos:R:3 config_type=qcd gap_pre_relax_energy=-158.50463240024084 gap_pred_energy=-159.39535036428416 gap_fmax_final=0.0008372032993382406 gap_converged=1 pbc="F F F"
Ir      10.82552904      13.13875738       9.75799499
Ir      10.86885280      11.94197016       7.59760781
Ir      10.55071553      14.65105195      11.75099763
Ir      13.27888229      13.43335484       9.81652479
Ir       9.02670588      12.58158281      11.49172175
Ir       8.71279638      11.65695889       9.03929532
Ir       7.62988065      10.49413725      11.18319845
Ir       9.80230154       9.78117685       7.48889662
Ir       8.92682596       8.39521632      12.15287110
Ir       9.39229793      10.69073688      13.20512684
Ir       9.58805309       9.43929520       9.97831325
Ir      11.75388763       8.78819996       8.65351234
Ir      12.55918248      12.17726195      12.83491914
Ir      10.35410204      13.04769021      13.69053925
Ir      11.05060188      10.94298307      11.24805177
Ir      14.30030557      11.50311642      11.11846142
Ir      12.59822967      11.10368666       9.12440715
Ir      12.94437256      14.42199468      11.97231080
Ir      12.97342523       9.27151413      10.93361321
Ir      13.69086033       9.98439605      13.28720699
Ir      11.50460196      10.80205106      14.69524797
Ir      11.32213824       8.98145560      12.91656822
Ir      11.07743562       7.50339601      10.79459749
24
Properties=species:S:1:pos:R:3 config_type=qcd gap_pre_relax_energy=-165.8918795118469 gap_pred_energy=-167.08405445301986 gap_fmax_final=0.0008816416701050288 gap_converged=1 pbc="F F F"
Ir      11.91312127      14.28672055       8.34789592
Ir      13.46709147      12.40476342       8.53739226
Ir      10.74218329      12.14387159       8.41329241
Ir       8.42757656      11.47150671       8.21906385
Ir      14.81652082      10.70865327      10.05450975
Ir      12.26300779      10.42658411       9.65427786
Ir      10.04987453       9.57988933       8.70903609
Ir      11.77550385      14.48867399      10.68528625
Ir      13.20083674      12.50045381      11.00014410
Ir      10.55032297      12.32330409      10.85757585
Ir       8.09542294      11.86977748      10.53055602
Ir      11.65527856      14.77932195      13.03372568
Ir      13.44342107       9.05424242      11.43582884
Ir      11.32913508       8.12724127      10.48205080
Ir       9.71966700      13.34951769      12.96407074
Ir      12.18934127      12.33338042      13.31048426
Ir       9.38952986       9.86375897      11.03189488
Ir      14.40491476      11.09696339      12.69554156
Ir       7.65736124      11.96982225      12.89277897
Ir      12.41843039       7.03867987      12.52359395
Ir      10.03415841      10.84933275      13.34730033
Ir      12.35271311       9.75980437      13.52935982
Ir      10.35203282       8.34328806      12.91453573
Ir       7.95325787       9.43115192      13.03050770
25
Properties=species:S:1:pos:R:3 config_type=qcd gap_pre_relax_energy=-173.9313545806707 gap_pred_energy=-174.9248400006751 gap_fmax_final=0.0008187423549394803 gap_converged=1 pbc="F F F"
Ir      15.74344521      11.09801770      12.18241050
Ir      12.55679369      10.65907413      13.27178471
Ir      13.91497450      12.60681296      12.29202718
Ir      14.36332158      11.38863132      10.02219617
Ir      14.00454024       9.44136317      11.74249777
Ir      12.59919532      13.24249797      10.06283268
Ir      12.79091258      14.83480446      12.02267368
Ir      10.58273735      10.20893938      14.72612812
Ir      11.47385092      12.93345708      13.21231776
Ir      11.23739545      11.28484197      11.14952614
Ir      10.55496713       9.11545436      12.54888783
Ir      12.64798565      11.70360141       8.10852698
Ir      10.43833575      14.10526977      11.26519455
Ir      12.43434183       9.71649966       9.64903476
Ir       9.31237694      12.11251277      13.83653203
Ir      10.31614005      12.38396621       9.05241224
Ir       8.38421683      14.04702351      12.68895434
Ir       8.92997747       7.67770789      11.38912832
Ir      10.55460934       7.94307559       9.55870847
Ir      12.23775350       7.78278152      11.40741201
Ir       8.82771536      10.81282676      11.83192879
Ir      10.39107299      10.06947518       8.16057257
Ir       8.25731043      12.81952974      10.59907277
Ir       8.49567005       9.52794169       9.77862976
Ir       8.00452446      11.53805836       8.49477447
26
Properties=species:S:1:pos:R:3 config_type=qcd gap_pre_relax_energy=-182.26343363527354 gap_pred_energy=-184.5268454513096 gap_fmax_final=0.0008721740803778273 gap_converged=1 pbc="F F F"
Ir      14.46968261       9.37969822       9.87829020
Ir      12.09104494       7.89864858      13.78007938
Ir      13.16812119      10.97605629      12.68405374
Ir      13.35263092       8.69605675      11.88210488
Ir      12.35149331       9.44523997       8.74102211
Ir      13.34013396      13.53094928      12.25044387
Ir      14.24424642      11.67703672      10.56218809
Ir      10.03865609       9.10959531      12.99260532
Ir      11.81094222      10.19572176      14.61726134
Ir      14.35974123      14.09381008      10.05618966
Ir      10.95178195      10.08763453       6.80284534
Ir      12.11343653      12.76177771      14.35099654
Ir      11.20254801       8.60033371      10.77949285
Ir      12.12594297      11.76033877       9.39127055
Ir      10.95659298      11.03107891      11.51406129
Ir      11.88444795      14.06548659      10.07055152
Ir       9.68559452       9.22498302       8.75827163
Ir       9.82501753      11.67466848      13.75593086
Ir       8.55552176       8.52463621      10.93561276
Ir      10.73804920      13.47878045      12.19908859
Ir       9.98239088      11.82796910       8.26626582
Ir       8.76784005      11.10037822      10.30273565
Ir       9.77166057      14.13443420       8.92352593
Ir       7.83925309      10.45541901      12.51859808
Ir       7.71617422      12.85035806      13.07088870
Ir       8.67673985      13.43859501      10.93531026
27
Properties=species:S:1:pos:R:3 config_type=qcd gap_pre_relax_energy=-188.74078899364596 gap_pred_energy=-189.34722137795245 gap_fmax_final=0.0009710360666574521 gap_converged=1 pbc="F F F"
Ir      11.88763225       8.39172950       8.77527525
Ir      13.80693570      10.14797591       9.36363429
Ir      10.48682696       7.57445356      10.74960570
Ir       9.41241161       8.98054958       8.80935193
Ir      12.70892065       8.75914997      11.18970348
Ir      14.96459352       9.71838575      11.76649557
Ir      11.31779115      10.76627071       9.33242101
Ir      10.94200687       8.63840505      13.07813441
Ir      12.95004865      12.55496684       8.59764920
Ir      14.68516345      11.72827383      13.41375769
Ir       9.71484887       9.90669386      11.21138801
Ir       8.81229265      11.40565567       9.30171736
Ir      13.90133229      12.03326498      11.03759795
Ir      13.22987144       9.59381822      13.58908024
Ir      11.45985554      11.92982986      11.72195234
Ir      10.45868206      13.23750977       8.69557648
Ir       7.91299533      13.69006615       9.23498872
Ir      11.44034598       9.71530095      15.35242110
Ir      13.33887966      13.84550883      12.84618224
Ir       9.94261497      10.94736532      13.60189846
Ir       8.51934862      12.23898871      11.65210456
Ir      12.19291166      14.00071042      10.48355259
Ir      12.22565237      11.82301154      14.26348339
Ir      10.04287645      13.54835460      13.18476782
Ir       9.65310816      14.36856676      10.82344046
Ir      11.81537814      14.25649452      14.81098545
Ir      11.46349974      15.48552386      12.39965906
28
Properties=species:S:1:pos:R:3 config_type=qcd gap_pre_relax_energy=-196.08037391841555 gap_pred_energy=-196.7996115402845 gap_fmax_final=0.0009620111911613977 gap_converged=1 pbc="F F F"
Ir      12.68120469      10.48975790       7.71754161
Ir      10.66566304      14.20255195       9.24836088
Ir      11.73364523      16.26951791      10.02825550
Ir      11.00896784      11.66337376       9.16151103
Ir      14.41521936      11.47583132       9.28261323
Ir      10.69048715       9.13623782       8.76623596
Ir      12.69837224       9.81396676      10.21082522
Ir       9.53158830      12.71390901      11.02093189
Ir      13.09130474      14.95990540      11.59687895
Ir      10.51233158      15.00271869      11.78335459
Ir       8.77102022      10.46981116       9.93469845
Ir       8.59516532       7.94614198       9.18561494
Ir      15.06131925      13.30581185      11.20141549
Ir      12.88195786      13.27880721       9.82729317
Ir      14.39117604      10.89500608      11.84266165
Ir      11.90651483      11.81382108      11.75110572
Ir      11.26109592       7.79894481      10.81546217
Ir      13.24797580       8.55104722      12.32527627
Ir      13.61137618      13.01209279      13.24306201
Ir      10.26975306      12.97166827      13.39820427
Ir       8.90859561       8.47400325      11.53267869
Ir       9.03444228      10.79575919      12.52318569
Ir      11.93337519      14.82414428      13.93661492
Ir      12.68266794      10.55563799      13.79022253
Ir      10.86849708       8.81053761      13.12131949
Ir      12.04173928      12.55692674      15.24755856
Ir      10.30421778      10.71320946      14.78127669
Ir       8.58329614       8.88182848      14.10881039
29
Properties=species:S:1:pos:R:3 config_type=qcd gap_pre_relax_energy=-204.0256380686846 gap_pred_energy=-204.7525985476994 gap_fmax_final=0.0009006792077045311 gap_converged=1 pbc="F F F"
Ir      12.93036900      14.79999523       8.34628839
Ir      12.58030395      12.20003770       8.06761557
Ir      10.65186883      13.84696376       8.75737085
Ir      11.98384099       9.58080239       8.20265401
Ir      13.99501340      13.21551742       9.96655664
Ir      11.97853452      14.67845808      10.80358084
Ir      13.55332091      10.53747216       9.94089228
Ir      10.18294059      11.31835969       8.36157367
Ir      11.67230058      12.17030919      10.45159508
Ir      12.10569914       8.52231364      10.60429360
Ir       8.30502625      12.94757480       9.16936854
Ir      15.13815290      11.59925762      11.56890141
Ir      13.21754336      13.13884155      12.44840833
Ir       9.78699240       9.21687769       9.74316593
Ir       7.82773261      10.46019608       8.76650336
Ir       9.62550514      13.45646504      11.23979315
Ir      10.79711707      10.34029244      11.91638883
Ir      11.03325402      14.07518172      13.24853644
Ir       9.69916247       8.03333303      12.05482881
Ir      13.38194279       9.77436540      12.47121756
Ir       7.55878687       8.71311555      10.93844217
Ir      11.87516342      11.60642801      13.97530200
Ir      11.99277925       7.72209844      13.15225051
Ir       8.32813530      11.14847264      11.16752756
Ir       9.41584517      12.00701614      13.34963538
Ir      14.39080004      11.52696594      14.02116024
Ir      12.81066763       9.40745421      14.94367885
Ir       8.04783892       9.71176592      13.27987119
Ir      10.38887223       9.49957828      14.29810866
30
Properties=species:S:1:pos:R:3 config_type=qcd gap_pre_relax_energy=-212.41327081904126 gap_pred_energy=-212.95415380225592 gap_fmax_final=0.000804004034164334 gap_converged=1 pbc="F F F"
Ir      15.45581870       9.18602233      13.18167621
Ir      14.73334557      10.02382371      10.88777153
Ir      14.68422048      11.57347781      12.92531298
Ir      13.26244508       8.31901326      12.11301487
Ir      13.19213907       9.93199855      14.15141773
Ir      15.31936873      13.81732589      12.54031098
Ir      13.76903737      11.12895226       8.77273503
Ir      13.74408482      12.76763913      10.70582547
Ir      12.38903847      10.77341366      11.79782034
Ir      12.95634358      14.36583553      12.57606004
Ir      12.41084776       9.21836865       9.76419965
Ir      11.19404507       7.31368515      10.96180376
Ir      10.99947604       9.01206896      13.14379013
Ir      12.33659652      12.39723322      13.80440154
Ir      10.75004889      10.79813214      14.90675360
Ir      12.46934541      13.28830761       8.42791194
Ir      10.44214652      12.01524395      10.83905154
Ir       7.35674925      12.33691424      12.26370246
Ir       9.07578372       8.54056774      11.66942052
Ir       9.90624819      12.75347614      13.26261919
Ir      11.51610171      14.26096551      10.52355857
Ir      11.16503315      11.11456485       8.53846516
Ir      10.58394038      15.10266446      12.77254111
Ir       9.77166030      13.30498934       8.76500261
Ir       9.91784745       9.02019184       9.34634972
Ir       8.79135743      10.45215395      13.32191623
Ir       8.92769418      14.08765531      11.16271295
Ir       8.36761834      10.70878625      10.62666350
Ir       8.63744085      11.01726834       8.13238336
Ir       7.38572646      12.88080971       9.62635680
31
Properties=species:S:1:pos:R:3 config_type=qcd gap_pre_relax_energy=-219.29281693402518 gap_pred_energy=-220.16632205838272 gap_fmax_final=0.0008735550673045347 gap_converged=1 pbc="F F F"
Ir      13.20897791       9.78464253      14.08562799
Ir      10.84407565       9.48881680      12.97702036
Ir      13.72416299      12.50965582      14.08260942
Ir      11.35026197      14.08817495      14.46637247
Ir      11.32305433      11.22399220      14.92096274
Ir       8.94388525      10.94744917      13.94560152
Ir       9.50197309      12.87398830      15.58914401
Ir      13.98589392      10.90376904      12.02101867
Ir      13.60632529      14.96045672      13.47253684
Ir      12.90286881       8.54889349      11.77955888
Ir      10.51873372       8.39157084      10.72905408
Ir       8.36305525       9.20967344      12.10025609
Ir      11.30348822      15.91563104      12.82395636
Ir      11.68163113      12.30043736      12.68298850
Ir       9.34032499      13.26892474      13.01367674
Ir       9.91537905      14.63835289      11.11187787
Ir       8.55142155      11.53761475      11.38998042
Ir       8.48182793      13.22452157       9.61631550
Ir      14.76192780      13.29788531      11.81653257
Ir      10.97295924      10.88850177      10.70767461
Ir      12.64328593       7.71437856       9.35779697
Ir      15.68386218      11.47795211      10.23481729
Ir       8.24165989       8.68820922       9.57039349
Ir      13.75364665       9.88507727       9.62397128
Ir      12.45335201      14.19692972      11.24942791
Ir      11.01242650      13.03139686       9.40573368
Ir       9.18566500      10.86788266       8.91671391
Ir      13.48046866      12.44156911       9.62331868
Ir      10.46261836       8.75386923       8.19840523
Ir      11.89570382      10.89429148       8.17323401
Ir      12.66249138       8.80289951       7.07083041
32
Properties=species:S:1:pos:R:3 config_type=qcd gap_pre_relax_energy=-226.88795858737546 gap_pred_energy=-227.69682374008227 gap_fmax_final=0.0009578953816406784 gap_converged=1 pbc="F F F"
Ir      12.90980334      13.58927244      13.49358871
Ir      14.59894224      12.44725613      15.11657265
Ir      11.36670793      14.83068078      11.61847396
Ir      12.09560795      11.65358342      14.99822417
Ir      10.46982791      13.01381561      13.22510247
Ir       9.68611763      10.81287792      14.43861195
Ir      13.91158481      14.59234145      11.39766197
Ir      14.01807203      10.01038312      15.61579444
Ir       8.01160213      12.38010354      13.15441774
Ir       7.21632986      12.03020063      10.70121293
Ir       9.01628518      13.78449693      11.14123193
Ir      10.44925753      14.89270795       9.15323227
Ir      11.50789714       9.23084498      15.36777186
Ir      15.51896477      13.45511393      12.94026978
Ir      12.57758339      16.13080885       9.83967476
Ir      12.52297234      11.18480491      12.57143961
Ir       8.88471780      10.37696010      11.89536379
Ir      10.70569818      11.93181944      10.90965255
Ir      15.00941168      10.84722133      13.21199117
Ir      13.36085705       8.84326528      13.51891824
Ir      14.42730123      12.09379262      10.99671317
Ir      10.87986321       9.18073119      12.87159359
Ir      12.63929944      13.51351055       9.51530109
Ir       8.38639575      13.42541375       8.71945244
Ir      12.63235405      10.99429241       9.51806317
Ir       8.89932136      10.86148098       9.24661176
Ir      14.15880958       9.52512516      11.09463702
Ir      10.72567453       9.33948518      10.29806825
Ir      10.68690235      12.39754240       8.28997100
Ir      12.46457702       7.62017667      11.53921071
Ir      12.85383646       8.49850522       9.17171333
Ir      10.80840383       9.91236487       7.83043724
33
Properties=species:S:1:pos:R:3 config_type=qcd gap_pre_relax_energy=-236.23041901167687 gap_pred_energy=-236.86657075110418 gap_fmax_final=0.0008452827782232028 gap_converged=1 pbc="F F F"
Ir      14.71567246      11.77691329      11.78681485
Ir      13.16932588      13.30581235      13.26108253
Ir      13.45067234      13.74217267      10.75179009
Ir      14.83713590      12.10680074       9.19898765
Ir      14.27124441      11.22031887      14.35003858
Ir      12.71668385      13.21087544       8.29022760
Ir      11.91181248      15.42251560       9.42830552
Ir      13.32269332       8.44967939      14.59239460
Ir      10.35283467      14.13280652       7.69161446
Ir      13.21824747      10.74537165       7.51679899
Ir      13.03736694       7.40348506      12.22465961
Ir      12.67296733      12.86543058      15.80233140
Ir      13.18736978       9.90658672      12.51494018
Ir      11.65106706      15.12207679      11.96051767
Ir      11.55547962      12.12132781      10.25047325
Ir      13.08305781       7.88497744       9.77273086
Ir      10.75589236      11.57212871       7.89605158
Ir      11.39443975      14.74689408      14.47804942
Ir      11.35236098       9.16096368       8.45293157
Ir      13.28490582      10.30687887      10.04587180
Ir       9.94891267      13.98546713      10.25955494
Ir      11.89933647      10.53675387      14.97808136
Ir      11.30712183      11.77840779      12.78041636
Ir       9.64347661      13.71660366      12.79029138
Ir      11.13831431       8.74943674      11.18414423
Ir       8.47410331      12.54512764       8.71741873
Ir      10.90319567       8.35123255      13.73300430
Ir      10.23763276      12.45660250      14.95801053
Ir       9.57834090      10.46866358       9.91864602
Ir       8.21446796      12.24671459      11.23450822
Ir       9.37446533       9.90054057      14.99417923
Ir       9.39338032      10.20340986      12.44719167
Ir       8.01264339      11.92364498      13.80456251
34
Properties=species:S:1:pos:R:3 config_type=qcd gap_pre_relax_energy=-242.82707300400986 gap_pred_energy=-243.65995847901036 gap_fmax_final=0.0009362736001990574 gap_converged=1 pbc="F F F"
Ir      15.13958747      11.98803567      12.91051347
Ir      14.58598294      13.33394626      10.86071421
Ir      14.31202418       9.48784485      12.99631414
Ir      12.99233149      11.34440436      14.15657516
Ir      14.15814589      14.72363835       8.72382820
Ir      13.53737765       7.06668124      13.24804793
Ir      14.36878306      10.76438346      10.71491361
Ir      13.99346140      12.10711508       8.49461533
Ir      13.66430061       8.21918459      10.85387096
Ir      12.05543499       8.88517850      14.44368555
Ir      13.54195966       9.56742258       8.58395844
Ir      12.96983920      13.62946015      12.92694552
Ir      12.54669214      14.94905413      10.73647903
Ir      11.47664471      13.21440177      15.01218444
Ir      12.11115518      10.12251665      11.90313601
Ir      12.22807052      12.31616674      10.64001088
Ir      11.40858166       7.72194774      12.07221483
Ir      11.79453859      13.69635358       8.50778667
Ir      11.52856231      11.14034545       8.44913606
Ir      11.34077936       8.89468466       9.75217394
Ir      10.68274422      12.21236232      12.78956397
Ir       9.14394584       8.39130992      11.00460111
Ir       9.85133713       9.61305360      13.10686167
Ir      10.70048694      10.70633363      15.35222249
Ir      11.96447930      16.15049171       8.54551843
Ir      10.78289854      14.94884451      12.55888122
Ir       9.21638877      14.16705790      14.37230506
Ir       9.28527639      10.23139185       9.20998254
Ir      10.06178962      15.19188527      10.07784143
Ir       9.23002247      12.54582583      16.30688307
Ir       9.80586277      12.62483623       9.75319135
Ir       8.71651656      13.66254293      11.76882907
Ir       8.56632256      11.03284761      11.49149398
Ir       8.55192103      11.66269598      13.98896537
35
Properties=species:S:1:pos:R:3 config_type=qcd gap_pre_relax_energy=-249.2656573818312 gap_pred_energy=-252.08704606549423 gap_fmax_final=0.0007790961918040886 gap_converged=1 pbc="F F F"
Ir       9.39339258      11.82023246      11.92584417
Ir       8.24304189      13.21903830      13.61022642
Ir       9.71829468      11.03764519      14.34346658
Ir      10.10786858       9.90357012      10.14343899
Ir      10.09106060      10.46891573       7.55302448
Ir       9.39854876      12.20426421       9.18258270
Ir       8.74202843      14.01356227      10.87800544
Ir      10.85556850       9.65649208      12.57613629
Ir      12.05236836       8.21873497      10.94165817
Ir       9.68429411      15.15455602      12.83480509
Ir      10.38206985      13.49212691      14.89649976
Ir      11.04445284      14.37293735       9.93467187
Ir      11.65248558      11.93340508      10.46582529
Ir      12.09052568       8.47624787      14.33389648
Ir      11.01166778      16.52387277      11.25162110
Ir      12.21507427       9.93425544       8.83963611
Ir      11.47578762      13.34392379      12.60862069
Ir      12.87171805      11.28112331      12.55875609
Ir      11.67220571      12.40665287       7.95854798
Ir      13.94572553       9.80734511      10.74123013
Ir      13.28758518       7.17301738      12.74350803
Ir      12.06665494      15.10862043      15.55692445
Ir      12.15058955      11.71878307      15.12373902
Ir      13.97863605      11.90914331       9.24988402
Ir      12.32555140      15.63130707      13.21664342
Ir      13.30980368      14.22335162       8.53815633
Ir      13.26602928      15.21233511      10.87183960
Ir      13.95929839      10.05201452      14.44715999
Ir      15.04399256       8.80308182      12.66490952
Ir      13.80585603      13.43118462      15.32946546
Ir      15.41665268      11.54324307      11.87084929
Ir      15.57001416      11.92100171      14.35130586
Ir      14.08316945      13.65163160      12.91968205
Ir      15.15572550      13.64391342      10.53819437
Ir      10.94101805       9.71722574      16.00800108
36
Properties=species:S:1:pos:R:3 config_type=qcd gap_pre_relax_energy=-258.1184439590393 gap_pred_energy=-259.31328802502213 gap_fmax_final=0.0008811876599019181 gap_converged=1 pbc="F F F"
Ir      12.09696214      15.54969722      14.99287603
Ir      10.15322293      15.47691611      10.38170349
Ir      11.33821489      15.66381119      12.69227658
Ir      10.54886362      13.70107835      14.83316327
Ir       8.74509997      13.43322217       9.77697766
Ir      13.79348600      14.10667601      13.97471610
Ir      14.06341730      15.92688966      12.30265538
Ir       9.53279326      13.84382820      12.30905880
Ir      12.63083155      14.72112559      10.71182485
Ir      11.24135972      13.68790591       8.87612522
Ir      11.99436168      13.04010322      12.53221388
Ir       8.76176321      12.01865479      13.99736822
Ir       9.56344037      12.14159238      16.41504388
Ir       7.43591185      11.38461730       9.01989738
Ir       8.03271241      11.70233007      11.65003347
Ir      10.56705400      11.88605502      10.72501479
Ir       9.87066138      11.51278856       8.19894667
Ir      12.47614612      12.09491121      14.89234798
Ir      13.17781338      12.29685827       9.92810610
Ir       9.89500037      10.14593056      12.56565640
Ir      14.84858733      13.53453800      11.55867921
Ir       9.16401633       9.84069767      10.02352309
Ir      10.63226632      10.46335294      14.98032862
Ir      12.28686157      11.71258296       7.53772030
Ir      12.93215271       9.61191243      14.11598511
Ir      14.28600410      10.24560289       8.83148951
Ir      14.34019393      11.56968231      13.19868120
Ir      10.79789342       8.17804642      13.88811248
Ir      12.40641032      10.44221633      11.81249890
Ir      15.53968794      11.30444629      10.89537607
Ir      11.06752890       8.33867306      11.20611816
Ir      11.79575866       9.88806689       9.23389754
Ir      14.89729877       9.25705286      12.27742172
Ir      12.89500642       7.35387128      12.75419157
Ir      16.13386665       9.00678269      10.04216412
Ir      13.57288551       8.43301816      10.38334126
37
Properties=species:S:1:pos:R:3 config_type=qcd gap_pre_relax_energy=-266.5467014730096 gap_pred_energy=-267.4009244020915 gap_fmax_final=0.0008947561493541367 gap_converged=1 pbc="F F F"
Ir      15.50216935      12.40736071       9.40800536
Ir      13.67650101      14.11129413      10.18113497
Ir      15.47171579      13.22778872      11.84801076
Ir      13.41700818      14.86751795      12.67242528
Ir      15.13413648      13.87630405      14.32328790
Ir      16.05365527      11.39992159      13.52764301
Ir      11.83074038      15.89063886      10.85437390
Ir      12.47941283      14.01713686      14.86327917
Ir      10.89513702      14.84565019      13.00485555
Ir      14.86634677      10.70075474      11.35338804
Ir      13.89935868      10.20205902       9.11064151
Ir      13.07451372      12.39811230       8.37638958
Ir      11.24683825      13.85920850       9.43026565
Ir       9.36417157      14.97735658      10.78171720
Ir      11.79733846      11.14409685      10.31800514
Ir      13.75101026      11.83459297      14.50472766
Ir      13.08829458      12.40706227      12.11718857
Ir      10.45924513      12.70965086      11.78228953
Ir       8.50021959      13.78549169      12.98474182
Ir      14.31660800       9.39864176      13.46484895
Ir       8.97233536      12.59463072       9.61004579
Ir      11.36069319      11.82205140      15.51208172
Ir      10.64236513      11.51927717       8.06038117
Ir      12.44353970      10.20325481       6.89873967
Ir      12.91042499       8.95575226      11.29145796
Ir       9.91752876      13.94518404      15.19849987
Ir      11.64999935      10.48632810      13.10924525
Ir       7.09138063      13.70368838      10.90218903
Ir       9.32790844      11.62557977      14.02745804
Ir       9.54710715       9.91793003      10.04423498
Ir      12.76194937       9.58643313      15.43583768
Ir      11.60243931       8.92088778       8.86884688
Ir       8.18866178      11.41557461      11.69216091
Ir      11.82854930       8.01225364      13.33794615
Ir      10.23842370       9.51480868      15.02326153
Ir      10.68996025       7.79940434      10.94873149
Ir       9.40258465       9.31659294      12.53193473
38
Properties=species:S:1:pos:R:3 config_type=qcd gap_pre_relax_energy=-273.43800848046084 gap_pred_energy=-274.20261556101485 gap_fmax_final=0.0007695619211333226 gap_converged=1 pbc="F F F"
Ir       9.88058627       8.27477172       7.59146362
Ir      12.05763492       9.47219629       8.21708252
Ir       9.87495730      10.84835748       7.78875892
Ir      11.99243953      12.13709386       8.41000413
Ir      14.22148968      10.82022421       8.96091696
Ir       8.61936077       9.44021404       9.47894745
Ir      10.75243420       7.73048075       9.89935338
Ir       9.69424808      13.24125691       8.22777825
Ir      16.19546578      12.28356466       9.81966182
Ir      13.99122845      13.47183325       9.53533259
Ir      13.03693996       9.00480976      10.60302318
Ir      10.85267331      10.42951782      10.27327360
Ir       8.58298735      11.19385123      11.37458592
Ir      11.64804057      14.67376210       9.23331895
Ir       9.23718999      15.60634161       9.07351936
Ir      15.08946375      13.18810917      12.02313350
Ir      15.17918163      10.55513397      11.36115934
Ir       9.59024015       8.93130697      12.01186962
Ir      11.69408269       7.36705891      12.15844912
Ir      10.70735763      12.92856222      10.79927826
Ir      14.02647780       8.78926628      12.99985266
Ir      12.97995611      11.75722738      11.09305919
Ir      10.05705582      15.37743593      11.44351850
Ir       9.56445170      10.87275171      13.82997510
Ir      12.64467438      14.39264584      11.71493995
Ir      11.85684792       9.99772582      12.68832640
Ir       8.27840352      13.54487128      10.29011395
Ir      14.05076601      11.35858170      13.69539961
Ir       8.99290304      13.22720264      12.85104892
Ir      10.72485360       8.57694253      14.47143789
Ir      13.85631800      13.94640760      13.99295962
Ir      11.58429855      12.52040942      13.22293065
Ir      12.90203751       9.63210655      15.20417132
Ir      10.62685794      10.52013617      16.16657352
Ir      12.52241280      12.17331721      15.59398445
Ir      10.98228692      14.98628945      13.65900889
Ir      10.12702933      12.92448031      15.33645186
Ir      12.20125487      14.68064307      15.78222485
39
Properties=species:S:1:pos:R:3 config_type=qcd gap_pre_relax_energy=-281.64459726685936 gap_pred_energy=-282.02012153364115 gap_fmax_final=0.0008656821580589761 gap_converged=1 pbc="F F F"
Ir      13.27934473      13.27933886      11.81358038
Ir      15.76180060      13.29047176      11.79782829
Ir      13.29047384      15.76180384      11.79782845
Ir      10.62979105      13.27927181      11.82682705
Ir       8.14042179      13.28257732      11.78696859
Ir      10.62646256      15.76870154      11.78707110
Ir      10.62966053      10.62966164      11.81370948
Ir       8.14726319      10.61858002      11.79780026
Ir      10.61858166       8.14726844      11.79780115
Ir      13.27928542      10.62978484      11.82683203
Ir      15.76870400      10.62646227      11.78708214
Ir      13.28257845       8.14042416      11.78697740
Ir      11.95444267      11.95443762      13.74766451
Ir      14.64457281      11.96204524      13.71153186
Ir       9.26464867      11.94706149      13.71174250
Ir      11.96203918      14.64457823      13.71152317
Ir      11.94705852       9.26465008      13.71174516
Ir      14.61086970      14.61087661      13.86500620
Ir       9.32868376      14.58033685      13.83989194
Ir       9.29830587       9.29830426      13.86526919
Ir      14.58034105       9.32867700      13.83990228
Ir      11.95452089      11.95452113       9.89464071
Ir      14.62362462      11.95216014       9.88725983
Ir       9.28534453      11.95686312       9.88723510
Ir      11.95215660      14.62361402       9.88724985
Ir      11.95686084       9.28534642       9.88724091
Ir      14.63654345      14.63654024       9.77806149
Ir       9.25495086      14.65415645       9.78884948
Ir       9.27232245       9.27231979       9.77815076
Ir      14.65417606       9.25493529       9.78885415
Ir      13.32153733      13.32153983      15.61347090
Ir      10.66283661      13.24629057      15.56812802
Ir      10.58707548      10.58707770      15.61402459
Ir      13.24627967      10.66284680      15.56813363
Ir      13.23665757      13.23666359       8.11485951
Ir      10.55024815      13.35861762       8.03561012
Ir      10.67234700      10.67236098       8.11486136
Ir      13.35861751      10.55025602       8.03565047
Ir      11.95438914      11.95439515      17.35895478
40
Properties=species:S:1:pos:R:3 config_type=qcd gap_pre_relax_energy=-290.00288300157257 gap_pred_energy=-290.4086431966968 gap_fmax_final=0.0006760449760702195 gap_converged=1 pbc="F F F"
Ir      14.12173394      14.12173362      12.80340922
Ir      16.60352149      14.14358406      12.80344734
Ir      14.14358567      16.60352294      12.80344756
Ir      11.48512696      14.12172597      12.80341042
Ir       9.00333260      14.14358179      12.80344646
Ir      11.46325851      16.60351666      12.80344549
Ir      11.48512409      11.48511871      12.80341119
Ir       9.00332939      11.46326303      12.80344865
Ir      11.46325425       9.00332946      12.80344812
Ir      14.12173250      11.48511269      12.80340833
Ir      16.60352147      11.46325643      12.80344922
Ir      14.14358573       9.00332339      12.80344987
Ir      12.80342628      12.80342297      14.73133398
Ir      15.50483114      12.80342421      14.70636402
Ir      10.10200323      12.80342654      14.70636306
Ir      12.80341844      15.50484266      14.70636401
Ir      12.80341785      10.10201304      14.70637000
Ir      15.46622147      15.46621714      14.85791642
Ir      10.14062190      15.46622524      14.85791498
Ir      10.14062052      10.14062303      14.85792125
Ir      15.46622075      10.14062732      14.85792290
Ir      12.80342906      12.80342013      10.87553499
Ir      15.50482179      12.80342387      10.90047112
Ir      10.10202054      12.80342594      10.90047113
Ir      12.80341680      15.50482487      10.90046998
Ir      12.80341594      10.10202312      10.90046861
Ir      15.46622300      15.46621893      10.74891782
Ir      10.14062782      15.46621924      10.74891476
Ir      10.14061996      10.14062038      10.74891550
Ir      15.46622434      10.14062131      10.74891821
Ir      14.12635002      14.12634939      16.56847076
Ir      11.48049597      14.12635552      16.56846963
Ir      11.48049799      11.48049861      16.56847068
Ir      14.12635129      11.48049857      16.56847446
Ir      14.12634655      14.12633989       9.03835570
Ir      11.48050882      14.12633966       9.03835918
Ir      11.48050432      11.48050013       9.03835754
Ir      14.12633658      11.48051148       9.03836168
Ir      12.80342389      12.80342474      18.34599272
Ir      12.80342467      12.80342091       7.26084063
41
Properties=species:S:1:pos:R:3 config_type=qcd gap_pre_relax_energy=-296.8204333099174 gap_pred_energy=-298.1537743518508 gap_fmax_final=0.0009801187471732927 gap_converged=1 pbc="F F F"
Ir      15.70375550      10.71516413      13.91731532
Ir      13.60594164      10.17587085      15.22638169
Ir      14.17421022      12.75342126      14.37397859
Ir      14.46498723       8.37563605      13.58040719
Ir      12.28650045      12.05627051      16.33364188
Ir      15.42471326      12.24465910      11.87770635
Ir      15.07218562       9.74942469      11.59060390
Ir      15.23580089      14.63842117      12.63372811
Ir      11.08637045       9.62361726      16.20202640
Ir      11.72167626      13.69875899      14.31039982
Ir      11.89914002       8.74874739      13.93964849
Ir      12.68606989      10.70696948      10.94045597
Ir      12.20015690      11.25896045      13.46646450
Ir      12.82852002       8.19902550      11.59244807
Ir      14.88055708      11.52093946       9.52340489
Ir      15.67366001      13.91527702       9.98016713
Ir      10.15153975      11.54098392      14.90392750
Ir      12.87811715      15.56563983      13.03623935
Ir      13.05010900      13.19465093      12.07399303
Ir      13.54361129      15.14248995      10.53724079
Ir       9.37907310       9.18368768      14.26718186
Ir      10.23068759       8.66462852      11.90675434
Ir      11.49620059      16.64719785      11.16370366
Ir      10.28470030      11.17107929      11.86722110
Ir      10.36372408      15.62616888      13.34905175
Ir      11.33479584       8.84274991       9.51635584
Ir       9.74652571      14.78163563      11.05722616
Ir      13.40022844      13.49507654       8.63993833
Ir       9.44092325      13.28243481      13.12237804
Ir      13.96520950       9.07892828       9.36880311
Ir       7.74689529       8.93889394      12.03136437
Ir       8.07418782      11.19761982      13.11685771
Ir      11.33850736      15.02228932       9.10014727
Ir      11.32260337      12.69199081      10.08485961
Ir       8.81981570       8.69675053       9.63888694
Ir      12.58283363      11.07938404       8.36520928
Ir       8.99593920      13.19451467       9.22273832
Ir       8.20543428      11.07700950      10.49708315
Ir       9.94721376      10.87969163       8.66117598
Ir       7.56726118      13.38009896      11.40286334
Ir      10.96870951      13.02233359       7.35911304
42
Properties=species:S:1:pos:R:3 config_type=qcd gap_pre_relax_energy=-305.18226599718383 gap_pred_energy=-306.4866989956367 gap_fmax_final=0.00093614278959025 gap_converged=1 pbc="F F F"
Ir      13.94107366      16.56035977      13.69292343
Ir      11.90921491      15.96777099      12.31272697
Ir      15.40424338      14.49946661      14.33198116
Ir      14.23039567      14.77064725      11.99007774
Ir      13.04947142      14.92814569      15.31275088
Ir      10.92492804      15.18891700      10.17006601
Ir      10.64952642      15.51442252      14.47160895
Ir      16.48523731      13.22009866      12.43580499
Ir      16.48904122      12.12977552      14.80337377
Ir      13.38853457      14.75133015       9.56361913
Ir      15.31247987      13.01360975      10.10981818
Ir      14.01334184      12.33195047      14.83106931
Ir      12.25662149      13.53462216      13.25535198
Ir      12.58184465      13.46421065       7.60248155
Ir      17.39827233      11.65798601      10.66075510
Ir      16.22484363      10.65952381      12.72916287
Ir       9.47479606      15.02767787      12.22848283
Ir       8.39609745      14.27993185      10.02150432
Ir      11.35758598      13.01557634      15.51566340
Ir       8.87905289      13.75461462      14.48597352
Ir      12.16249460      12.91334751      10.76531010
Ir      10.02775737      12.51988477      12.58780076
Ir      15.22526684      10.43001427      10.32803459
Ir      14.18231536      12.03075430      12.18619921
Ir       7.50017813      13.21029287      12.14541059
Ir      13.40575288      11.63371931       8.89146011
Ir      10.44492049      13.12312007       8.80634600
Ir      14.68638880       9.92514547      14.67370913
Ir       6.96476536      12.13699864      14.39085495
Ir      12.14154763      10.57130708      14.88052935
Ir       9.52983479      11.33662712      14.88936749
Ir      11.84774220      10.80359518      12.25677749
Ir      14.01638525       9.27604442      12.25600317
Ir       8.91647420      11.79047448      10.39974198
Ir      13.76491637       9.16117289       8.85515624
Ir      11.20143874      10.73200812       9.57162403
Ir       8.26990084      10.69007034      12.77451670
Ir      12.79804442       8.16177380      14.11456668
Ir      10.43483975       9.22144462      13.62046464
Ir      12.23043780       8.62297404      10.66729851
Ir       9.75116718       9.32951021      11.20105110
Ir      11.20507218       7.18332675      12.28682505
43
Properties=species:S:1:pos:R:3 config_type=qcd gap_pre_relax_energy=-312.5551208617637 gap_pred_energy=-313.50884319979434 gap_fmax_final=0.0008880256514969955 gap_converged=1 pbc="F F F"
Ir      10.69742095      15.27466430      10.46896368
Ir       8.52756836      14.73903888       9.38220653
Ir      10.93026415      14.13370432       8.25564117
Ir       9.35290795      12.35311404       9.16487947
Ir      13.01281194      14.77291405       9.60661216
Ir      13.32333713      13.36215589       7.55671054
Ir       7.96482329      13.02296819      11.29312192
Ir      11.35337694      11.64758140       7.66818783
Ir       8.38639112      15.45198575      11.91723879
Ir      10.49146709      15.16599966      13.28869708
Ir      12.70967636      14.88554958      12.22790172
Ir       7.61925274      10.68512990      10.26929135
Ir      10.51443462      13.02424353      11.65249553
Ir      15.37992619      12.89032334       9.32500201
Ir       9.63942308       9.69925926       9.02843252
Ir      15.11827526      14.46232680      11.40339322
Ir      13.68619652      11.06383639       8.77842193
Ir      13.34374334      12.62553665      10.87222638
Ir      12.13996131       9.07120327       8.10666879
Ir      11.45485840      11.10414757      10.09203760
Ir       8.11513013      10.86834009      12.79542507
Ir      15.95391796      10.41599607       9.98992276
Ir      12.78095869      15.29949980      14.78732893
Ir       8.84122440      13.24983408      13.65331354
Ir      14.56726948      13.58379847      13.76192874
Ir       8.90903763       8.85179654      11.44107980
Ir      15.47954258      11.78463063      11.99147101
Ir      12.40844376      12.31146866      13.22966675
Ir      13.16034668      10.20208154      12.01896544
Ir      10.62391519      10.56551473      12.45232561
Ir      13.98941848       8.80560524      10.05309860
Ir      11.08341295      13.41713617      15.02722883
Ir      11.36599299       8.58836968      10.59762297
Ir       9.78705164      11.04537357      14.80192208
Ir      13.56981907      13.14538410      16.01064993
Ir       8.59331157       8.72322285      14.20599900
Ir      15.41696535       9.26749679      12.51762678
Ir      10.82563092       8.09352757      13.18117905
Ir      14.52689356      11.01335575      14.38063419
Ir      13.08795414       8.90735083      14.35222792
Ir      12.23648679      11.03384505      15.54774780
Ir      13.21672059       7.56193042      12.27727387
Ir      10.85841007       8.87272999      15.61120246
44
Properties=species:S:1:pos:R:3 config_type=qcd gap_pre_relax_energy=-323.21002600139093 gap_pred_energy=-323.3444627377665 gap_fmax_final=0.0007483056838889694 gap_converged=1 pbc="F F F"
Ir      12.90696548      14.76027695      12.90696874
Ir      12.90703868      18.47545252      12.90697907
Ir      14.87398978      14.87339658      14.87339907
Ir      12.90693602      16.63914625      14.73251068
Ir      12.90692264      12.90691202      14.76026718
Ir      12.90690966      11.05360750      12.90690696
Ir      12.90695044      12.90696135      11.05359596
Ir      14.76054159      12.90699046      12.90695911
Ir      11.05333656      12.90688297      12.90691426
Ir      12.90690831      12.90688136      18.47545116
Ir      12.90682685       7.33841616      12.90686145
Ir      12.90694878      12.90698921       7.33841690
Ir      18.47611952      12.90709014      12.90696878
Ir       7.33774878      12.90679222      12.90686324
Ir      14.87394169      10.94048981      14.87338587
Ir      14.87396542      10.94049507      10.94047461
Ir      14.87400571      14.87340885      10.94049640
Ir      10.93990570      14.87336654      10.94048722
Ir      10.93989517      14.87335207      14.87340067
Ir      10.93986306      10.94044661      14.87338059
Ir      10.93986679      10.94045083      10.94047189
Ir      12.90692063      11.08136897      16.63912874
Ir      12.90693805       9.17474495      11.08137643
Ir      12.90695049      14.73249079       9.17474116
Ir      14.73312829      12.90690286      16.63966949
Ir      16.63995137      12.90697487      11.08106139
Ir      11.08073972      12.90697363       9.17420513
Ir       9.17390522      12.90689725      14.73280872
Ir      14.73300304       9.17420893      12.90689784
Ir      16.64001333      14.73291105      12.90696036
Ir      11.08086719      16.63965417      12.90697395
Ir       9.17386349      11.08096189      12.90690304
Ir      14.73309971      12.90697973       9.17418420
Ir      16.63998963      12.90695945      14.73282136
Ir      11.08076398      12.90689574      16.63967930
Ir       9.17389564      12.90691418      11.08105646
Ir      14.73323435      16.63969928      12.90698327
Ir      16.63993088      11.08114963      12.90693571
Ir      11.08064617       9.17418429      12.90688709
Ir       9.17393957      14.73271291      12.90692901
Ir      12.90690230      14.73252876      16.63910127
Ir      12.90696085      16.63908723      11.08135278
Ir      12.90696951      11.08133853       9.17476889
Ir      12.90691186       9.17476738      14.73252656
45
Properties=species:S:1:pos:R:3 config_type=qcd gap_pre_relax_energy=-328.80624654523984 gap_pred_energy=-329.411549438598 gap_fmax_final=0.0007283596681073842 gap_converged=1 pbc="F F F"
Ir      14.07182256       9.77581433      10.41387357
Ir      11.83373347      13.65848968       9.00999720
Ir       7.47258289      12.72199131      10.50761226
Ir      13.84794823      16.57544717      11.86588078
Ir      14.15636521      12.01430354      14.46100822
Ir       9.84762506       9.67227595      10.50012402
Ir       7.64599667      10.43265755      11.80824118
Ir       9.79725100      16.47617184      11.94858031
Ir      11.95702832       8.76720539       9.17630030
Ir      11.80929304      15.84242317      10.43470805
Ir       9.79053336      14.24890158      13.19746414
Ir      13.93274439       9.78567087       7.86414383
Ir      12.03182110      11.36162152      15.95403785
Ir      11.89428481      13.57912028      11.88077770
Ir       9.84735728       9.62334557      13.20320108
Ir       9.74360940      11.95655522       9.19609975
Ir       7.54746217      14.87564343      11.83578141
Ir      11.95537168      13.49042822      14.76576321
Ir      16.28513836      10.64436391      11.63182217
Ir      13.98147631      14.38611439      10.47928391
Ir      16.25691901      12.90739935      12.96573483
Ir      11.97937548      11.19752140      13.18881343
Ir       9.76774442      11.95525429      11.85673083
Ir      14.09506928      12.06131132      11.76836202
Ir      11.86818833      15.88453965      13.37095427
Ir      12.01506536       8.70781277      11.94748406
Ir       9.71465406      14.28153683      10.56641296
Ir       7.61767094      12.69569188      13.14218598
Ir      14.06608572       9.70361363      15.76765360
Ir      14.01468049      14.35243651      13.11120257
Ir      11.92414698      11.18732167      10.47108101
Ir      14.18476203       9.72967096      13.11463557
Ir      16.16693274      15.08685958      11.65973291
Ir      11.86528996      11.35466604       7.78959735
Ir      14.01056104      12.06112862       9.10896387
Ir       9.81871526      11.90798539      14.54959237
Ir       9.88191987       9.68639607       7.94686055
Ir       7.60185495      10.51867437       9.26774420
Ir      16.22131776      10.72986704       9.09173032
Ir      16.29297556      12.93812028      10.32744989
Ir      12.06507844       8.69886858      14.38633744
Ir      16.25609064      10.63165617      14.23977373
Ir       7.78196590      10.42394922      14.41281742
Ir      10.07529637       9.60579538      15.84914606
Ir      12.11473105       8.90991503      17.07083879
46
Properties=species:S:1:pos:R:3 config_type=qcd gap_pre_relax_energy=-335.53252404436785 gap_pred_energy=-336.95473982440853 gap_fmax_final=0.0009961805473232294 gap_converged=1 pbc="F F F"
Ir      16.16264933       8.86139625      11.80100585
Ir      13.64252254       8.77606477      10.91595404
Ir      15.26844288      10.91565997      10.46633109
Ir      14.24220204       7.58794687      13.02501715
Ir      11.54719267       8.24630697      12.17322394
Ir      16.77645171      11.41086923      12.47904760
Ir      15.20790827       9.87808020      13.90818405
Ir      13.69569595       9.85370862       8.63264583
Ir      13.45285849      10.88551450      12.33383708
Ir      11.39610445       9.65148994       9.87806487
Ir       9.93124201       8.63527672      14.23464822
Ir      15.49781895      13.35467571      10.07048584
Ir      10.96633600      10.71584436      13.18767133
Ir      12.73463488       9.20905228      14.23423434
Ir      15.75427078      12.16629292      14.78198452
Ir       9.35193449       9.67869089      11.53021397
Ir      14.79893142      13.02082914      12.48201094
Ir      17.36303044      13.79083732      11.84558672
Ir      11.54248166      11.04444014       7.74768555
Ir      13.51707416      12.32437082       8.87847010
Ir      11.88085501      12.04020039      10.80309487
Ir      13.43847351      11.26814198      15.66305112
Ir      16.23860001      14.50818576      14.07679292
Ir      15.21016487      15.43604698      11.51584989
Ir      14.08118167      13.74992605      15.78507511
Ir      11.18842104      13.44372848       8.78102062
Ir       9.63573987      11.49413757       9.72009300
Ir      11.02149154      10.45751701      15.86522808
Ir      12.55421172      14.43014714      11.71907610
Ir      12.56809898      12.83694237      13.81825922
Ir      13.58869376      14.81404424       9.39940214
Ir       8.61879651      10.76727620      14.13420830
Ir      13.05477444      16.91028151      11.24329794
Ir      11.82576186      12.73298077      17.02610323
Ir       8.24458414      12.04295494      11.94138234
Ir      13.86540514      15.36738357      13.78251093
Ir      11.18498875      15.67943285       9.94628749
Ir      10.41475440      13.12741196      12.48924959
Ir       9.20470143      14.06190527      10.43259855
Ir      10.09490086      12.74512802      15.11398729
Ir      11.69163839      14.75614835      15.33813009
Ir      11.60090837      16.34682921      13.20713037
Ir       7.62622443      13.10951381      14.15613215
Ir       7.54638771      14.76931326      12.15015144
Ir       9.53663726      16.36306712      11.69332408
Ir       9.50389454      15.00408090      13.86233346
47
Properties=species:S:1:pos:R:3 config_type=qcd gap_pre_relax_energy=-344.54604086763004 gap_pred_energy=-345.81956551600473 gap_fmax_final=0.0007901795089174121 gap_converged=1 pbc="F F F"
Ir      13.20013794      16.03994147      11.54355282
Ir      10.91788915      17.05388440      12.25518836
Ir       8.75086270      16.05274479      10.93145320
Ir      12.74173356      17.04424561      13.91706607
Ir      14.93330412      15.59669754      13.40637088
Ir      11.09809600      16.15922215       9.78526881
Ir      15.60424812      15.38413891      10.88402896
Ir       9.77676621      14.93593513      12.90201873
Ir      13.39859641      14.67922466       9.38984350
Ir      13.18419148      13.82916418      12.95341668
Ir      11.48524878      14.07662103       7.88125519
Ir      13.85911746      15.26843710      15.73729943
Ir      15.45341703      13.14335204       9.55428989
Ir       9.45147321      14.15855929       9.28400324
Ir      13.30450808      12.44506156      10.81713802
Ir      11.34407354      14.08805761      11.11242888
Ir       7.37589995      14.05065881      10.65660662
Ir      13.71250944      12.81605191       7.54634999
Ir       9.99824569      12.85890350      14.48549721
Ir      15.58369086      13.15072585      12.14492972
Ir      11.64454534      14.89392241      14.63508729
Ir       9.87451348      11.98902811      10.31754921
Ir      11.89934121      11.67197928       8.82328314
Ir      15.43765093      11.06068316       8.11252219
Ir      15.16834863      13.20372703      14.65487726
Ir      11.97251944      12.91445383      16.18150321
Ir      11.26619230      11.86534237      12.54520664
Ir      11.27862362       9.72858273      10.47675892
Ir      14.29662941      13.29705430      17.12708430
Ir      15.55363711      10.85199730      10.91522375
Ir      13.12217076      11.64000538      14.33617289
Ir      15.42886843      10.78509587      13.56047979
Ir       9.44129595      10.11118863      12.22880566
Ir       8.44957439      12.73252653      12.34625850
Ir      13.28845291      10.20304218      12.11554288
Ir       8.47758897      10.86394451      14.42484349
Ir      14.76800718      10.87559552      16.10523197
Ir      10.42295189      10.88262054      16.15903061
Ir      13.67896330      10.01096308       9.45324505
Ir      12.73922522      11.06119852      17.67372091
Ir      10.42867208       9.08802236      14.30457127
Ir      10.70867225       7.79962167      12.09306273
Ir      14.92891790       8.58664364      14.89257654
Ir      15.27033490       8.51739145      12.37695415
Ir      12.51743423       9.50796897      15.64114045
Ir      12.73486302       8.15169044      13.52251536
Ir      13.11601016       7.96209736      10.87676033
48
Properties=species:S:1:pos:R:3 config_type=qcd gap_pre_relax_energy=-352.3302840335943 gap_pred_energy=-354.5028414237152 gap_fmax_final=0.0008824477500209503 gap_converged=1 pbc="F F F"
Ir      13.86396609      12.26968212      17.46757835
Ir      14.15194555      10.93103820      15.41374786
Ir      11.84161038      10.77027048      16.48085319
Ir      14.71352064       8.77011598      14.03609646
Ir      11.71927225      13.36115411      16.49678012
Ir      12.27883021       8.88045770      14.78450326
Ir       9.88042451       9.32959607      15.64630139
Ir      14.25144138      13.93212634      15.63630321
Ir      15.81929948      11.11289777      13.41633438
Ir      12.57903724      12.60207253      14.24385856
Ir       9.87747459      11.89065058      15.32752891
Ir      17.67458988      12.65158569      12.84113775
Ir      13.25575483      10.47349546      12.83181158
Ir       9.56437121      14.46040339      15.37436979
Ir      15.81758516      14.06419250      13.72722147
Ir      10.84231624      11.23663782      12.97565414
Ir      12.69875422       8.02574498      12.30837439
Ir      11.97049670      15.18539350      14.64603463
Ir      10.32420857       8.77095689      13.13870263
Ir      14.22237259      12.78699621      12.18896004
Ir      15.04280983       9.14443940      11.46216009
Ir      14.29317931      16.09811714      14.23175309
Ir       9.93427648      15.43375159      13.02749778
Ir      10.31220852      12.76857143      11.16217642
Ir      16.22738132      13.87515942      11.04636401
Ir       8.71232297      13.14021664      13.33253805
Ir      12.08666034      14.15543263      12.24607672
Ir      16.34166895      11.28986154      10.93844406
Ir       8.48295164      10.57792926      13.63114551
Ir      12.14010052      16.62471764      12.49556291
Ir      15.31759514       9.92569494       9.03202852
Ir      10.68619883       8.22949454      10.63093212
Ir      10.01859693      16.55942357      10.70808865
Ir      12.94556684       9.27618013      10.04011041
Ir      12.27092047      15.61045468      10.11660863
Ir       8.50408936      14.47625198      11.09728286
Ir      12.52368888      11.77288486      10.53197100
Ir      14.33559627      15.45644579      11.80612612
Ir      14.59939842      15.06147061       9.26240910
Ir       7.35737846      12.02230173      11.50127825
Ir      10.24759720      14.38274432       9.13710021
Ir      14.79555235      12.49228529       9.34998420
Ir       9.16041189      10.22669923      11.17944948
Ir      10.75140633      10.35283259       9.14018836
Ir      13.01636511      11.06733521       8.18512724
Ir      12.59740673      13.58308917       8.56522736
Ir       8.83878936      12.10444471       9.26252285
Ir      10.68011212      12.35380388       7.46519616
49
Properties=species:S:1:pos:R:3 config_type=qcd gap_pre_relax_energy=-360.06358753363406 gap_pred_energy=-361.4864615900081 gap_fmax_final=0.0009008554465855042 gap_converged=1 pbc="F F F"
Ir      14.74145980      10.51350262       8.19002342
Ir      13.26689413      12.49279285       7.96325830
Ir      13.83159987      14.58683300       9.33536874
Ir      15.10319352       8.06648789      11.84611397
Ir      15.52626433      12.66865146       9.53722834
Ir      13.59164196       8.80687872       9.74761629
Ir      12.00781628      10.32834273       8.17163150
Ir      13.88169783      15.67719424      11.62307391
Ir      10.92354647      12.11289778       6.69844544
Ir      11.51432244      14.36147643       8.15596942
Ir      12.06430505      16.35737194       9.80777781
Ir      15.87166240      10.20120352      13.25304596
Ir      15.34424463      10.46266681      10.74682106
Ir      15.50422774      14.88743102      13.37484470
Ir      11.54080352      12.28985434       9.91892402
Ir      13.42809844      13.10873237      11.33899057
Ir      13.58584607       9.16559295      13.53387586
Ir      12.46466161       7.67221832      11.81124301
Ir      14.86983615       9.90714911      15.59897277
Ir      10.89999149       8.88317335      10.05584187
Ir      14.47067557      14.52783148      15.80967151
Ir      15.71227463      12.58025778      12.21481476
Ir      13.03145548      15.85618990      14.08407126
Ir       9.48346388      10.22838628       8.30575619
Ir      13.45309080      13.35447764      13.79566205
Ir      12.84905647      10.55573510      11.32545956
Ir       9.39529719      12.70732299       8.61405630
Ir      10.34691321      10.86831772      11.75964004
Ir      11.59980794       7.65269825      14.20231593
Ir       9.96136518       8.25254335      12.30955386
Ir      15.59097499      12.28680991      14.74474775
Ir       8.34453124       8.65868166      10.28713218
Ir      10.17716493      14.66631567      10.26973108
Ir      12.28296456       9.69464944      15.67348680
Ir      10.99815252      13.42030667      12.45061843
Ir      11.37309823      16.05412072      12.22258361
Ir      10.45226045      16.17903668      14.60304267
Ir       8.23667416      11.16076378      10.27235882
Ir      13.40090114      12.06756249      16.05536714
Ir      12.03971931      11.23906379      13.66563600
Ir       9.97934283       9.72463631      14.39307585
Ir       8.07864058      10.04373104      12.67850145
Ir       7.85053945      13.70648944      10.40535781
Ir      11.81538512      14.28485993      15.79814683
Ir      10.76739763      11.84111648      15.84519364
Ir       9.03949789      15.04575377      12.51182225
Ir       8.50543619      12.55637232      12.56540320
Ir       9.62445563      13.78770524      14.67198480
Ir       8.32469127      11.59515489      14.90308342
50
Properties=species:S:1:pos:R:3 config_type=qcd gap_pre_relax_energy=-368.8491462658923 gap_pred_energy=-370.2481653057436 gap_fmax_final=0.0009449865952398966 gap_converged=1 pbc="F F F"
Ir      13.29025889      13.60261656       8.64539523
Ir      14.10610730      11.44764866       7.17861301
Ir      14.62483905      15.05256541      10.32663275
Ir      15.43253425      12.43015113       9.16970234
Ir      16.53062409      13.44831927      11.41323423
Ir      11.52623388      12.09561772       7.49963267
Ir      12.44425050       9.83042947       8.34682872
Ir      11.89594084      11.72869636       9.96751007
Ir      14.85342397       9.89706018       9.08783784
Ir      12.41741072      15.92653922       9.46343011
Ir      15.45719909       8.35375917      11.28081168
Ir      14.67302383      14.60565743      12.88047405
Ir      15.91570583      10.99556538      11.26290702
Ir      15.71078955      12.24767023      13.65991131
Ir       9.89343603      10.49105245       8.66787323
Ir       8.83341629      12.70225225       8.00899031
Ir      10.70233843      14.02369656       9.03613968
Ir      13.49609577      10.10970323      11.33596132
Ir      13.96952154      12.76048271      11.26220767
Ir      10.66538561       8.10023445       9.15245399
Ir      13.10594185       7.97026481      10.00668406
Ir      10.52049687      15.52168713      11.21556859
Ir      10.25619257      12.86466605      11.48902192
Ir      13.44601943       7.85551940      12.72246607
Ir      12.90605430      16.24347838      11.92158885
Ir      12.19549495      13.98962097      12.90833179
Ir       9.06880895       9.31094663      10.79415055
Ir      15.08534526       9.69195416      13.58104470
Ir       8.46307028      14.21783876      10.34222161
Ir      11.11912680       8.00652948      11.70638003
Ir      13.11646370      11.56481104      13.47336469
Ir      10.55443306      15.81025642      13.69637438
Ir       8.20180251      11.66312868      10.23788097
Ir      13.09512781      15.82858073      14.60093243
Ir      11.05904251      10.50631836      12.04655308
Ir       8.20106981      15.53895339      12.65815909
Ir      14.04603391      13.40077263      15.20417401
Ir       7.92775687      12.95946473      12.53789658
Ir      14.86851050      11.02368089      15.76582792
Ir      10.61625933      12.10525167      14.00851138
Ir      12.74977863       9.37189536      14.71563144
Ir       7.28324662      10.44319538      12.29083665
Ir       9.31846756       9.25384871      13.37698870
Ir      11.12373850       7.65601845      14.24427868
Ir      11.43495342      14.10017101      15.42087871
Ir       8.90602172      14.01804703      14.60685730
Ir      12.38009797      11.56618205      16.09169514
Ir       8.23924917      11.34199176      14.52266796
Ir      10.37359633       9.98416931      15.57314329
Ir       9.81845783      12.26023325      16.51253667
51
Properties=species:S:1:pos:R:3 config_type=qcd gap_pre_relax_energy=-375.2786622580434 gap_pred_energy=-376.69348831192525 gap_fmax_final=0.0007663178625319326 gap_converged=1 pbc="F F F"
Ir       9.37937420      11.32113101       8.55777760
Ir      11.60342755      13.45788191       6.95592798
Ir      12.15916005      11.22214954       8.08022993
Ir      10.13481689      13.62403031       8.96081507
Ir       8.80614942      11.08550434      11.03232719
Ir      10.92943972      10.04613971       9.99740142
Ir      11.90530399      15.57293422       8.61414415
Ir      11.98771679      12.46893727      10.27998858
Ir       8.64306186      13.58742914      11.00370540
Ir      13.52255935      13.53028609       8.59322337
Ir      10.29125840      15.57896501      10.60872818
Ir      13.44484032       9.64237109       9.72445458
Ir      10.64076331       9.72901426      12.56473499
Ir      12.21827072       8.15460902      11.35278264
Ir      12.56458750      11.12071003      13.49774159
Ir      14.92696421      11.30658668       8.38201907
Ir       8.55100364      15.84750095      12.45196431
Ir       8.77664048      11.00638980      13.85644036
Ir      12.17618174      14.37356927      11.97956839
Ir      12.16536321      17.37222004      10.45732807
Ir      13.98842324      11.49894914      11.37703174
Ir      13.77610740      15.36178335      10.35278604
Ir       8.62609336      13.52413643      13.50099285
Ir      15.42854112      13.15350379      10.15623205
Ir      10.55764433      12.34228365      12.35990958
Ir      16.14178059      10.48968742      10.59914755
Ir      11.05651639      16.56294198      12.80345596
Ir      14.05030432      13.19813942      13.23012103
Ir       9.84074682      15.36250219      14.69844126
Ir      13.61839916      16.51548258      12.66707980
Ir      15.57050202      14.89055526      12.17812722
Ir       9.67946369      12.64058965      15.66586191
Ir      14.46034346       9.11178430      12.13036798
Ir      10.89202548      10.40573501      15.36146704
Ir      11.77515052      13.56600227      14.42891620
Ir      16.55298165      12.46068613      12.43484232
Ir      12.64185293       8.67642532      14.01189682
Ir      12.32600936      16.01501661      14.95911102
Ir      16.84380985       9.96815332      12.93831475
Ir      14.79939631      15.13221489      14.70785746
Ir      17.13642739      14.06933702      14.29498740
Ir      10.73375939      14.73077008      16.98298158
Ir      11.86301631      12.17794134      16.87508060
Ir      14.06055773      11.90421673      15.47073029
Ir      14.95249638       9.53965131      14.59563885
Ir      13.27101876      14.23491026      16.56289051
Ir      13.07441115       9.82791744      16.49924824
Ir      16.66220992      11.63682649      14.84125834
Ir      15.82207130      13.51537417      16.47881024
Ir      14.29711170      12.08510197      18.08172188
Ir      15.74452666      10.42360275      16.87397061
52
Properties=species:S:1:pos:R:3 config_type=qcd gap_pre_relax_energy=-382.3647532404654 gap_pred_energy=-384.126024943038 gap_fmax_final=0.0008626263708390125 gap_converged=1 pbc="F F F"
Ir      13.39093612      11.62218672       7.60035387
Ir      15.64148016      11.86121237       9.17266425
Ir      14.17100010      13.92395356       8.41053540
Ir      13.15472520       9.51852278       9.08226293
Ir      17.55977321      12.46413132      10.59722240
Ir      17.31662434      14.61897024      12.12320118
Ir      11.71278650      13.60693956       8.65620401
Ir      15.37556840      14.12754875      10.66538404
Ir      11.11499868      11.04323483       8.77206464
Ir      17.24158799      10.20144489      11.68045984
Ir      13.40317110      12.00886311      10.23716516
Ir      15.02619821      10.01325361      10.70492782
Ir      17.08648993      12.29205566      13.12865091
Ir      12.66692269       8.79780559      11.48756823
Ir      10.76194604       8.77395805       9.75789563
Ir      12.83947075      15.49787631       9.95196680
Ir      14.66288351      16.63758701      11.10188231
Ir      14.62982688      12.58674897      12.89406339
Ir      14.48961892       9.71745705      13.14598962
Ir       9.92918855      14.92762549      10.25500886
Ir      16.77570538      14.38743285      14.71829302
Ir      10.22392768       9.23441706      12.26116162
Ir       9.23392377      12.75780504       8.91604128
Ir      10.64783436      12.56777813      10.90997117
Ir      16.64874245       9.97400512      14.20392792
Ir       9.05076558      10.63439474      10.46402587
Ir      12.70900494      13.86526167      11.95605814
Ir      12.34534766      11.13098704      12.40031252
Ir      15.07558137      15.19249073      13.06982541
Ir       8.09823533      13.17552455      11.41711795
Ir      13.32935102      17.02672316      13.26135851
Ir      12.07934779       9.36342586      14.19616777
Ir      14.24237203       9.93395285      15.76952269
Ir      11.38313733      16.09190965      11.90161178
Ir      15.59570140      12.08385002      15.33123848
Ir       9.60283029       9.58287438      14.72341446
Ir      14.85416228      14.32807148      16.29793350
Ir      10.89554618      12.87810466      13.54549986
Ir       8.83298261      11.34642687      12.98218551
Ir       9.39052401      14.79159017      12.91430773
Ir      12.94032146      11.87321761      14.75892639
Ir      13.00549539      14.41885084      14.52072288
Ir      13.57451760      12.25339273      17.18063054
Ir      11.44447804      10.62290918      16.37693080
Ir      11.06872063      16.15079782      14.44870456
Ir       7.51453061      13.40001449      13.98123032
Ir      13.23577195      16.38568547      15.91742808
Ir       9.30923221      14.56649001      15.46876454
Ir       9.39363384      12.02359728      15.38733379
Ir      13.13982381      14.77107405      18.00634067
Ir      11.42358649      13.33102903      16.52388065
Ir      10.97247955      15.82735189      16.97647258
53
Properties=species:S:1:pos:R:3 config_type=qcd gap_pre_relax_energy=-390.9464113704505 gap_pred_energy=-392.89819705778683 gap_fmax_final=0.0009021053513219301 gap_converged=1 pbc="F F F"
Ir      16.12603675      11.58654660      10.88348187
Ir      15.57589634      11.16840726       8.49742689
Ir      15.65223160       9.63521014      12.51881758
Ir      14.79370468       9.25096707      10.08203953
Ir      15.90191559      14.09799967      11.75811112
Ir      13.11580446      10.43172523       8.58002864
Ir      14.25424559       8.43864955      14.31953147
Ir      16.32685764      12.09983074      13.40820729
Ir      15.19945696      10.67268618      15.39948488
Ir      16.38547574      14.60655241      14.16915405
Ir      12.73187434      10.36492643      11.13376141
Ir      16.14958261      13.69753149       9.29672730
Ir      13.83483201       7.78900110      11.97992315
Ir      14.72311876      13.13415702      15.35971036
Ir      13.82668884      12.64965671      11.25472847
Ir      12.52940289      10.08415895      15.50898906
Ir      13.83196712      11.18889862      13.35182914
Ir      13.38395136       7.20995294       9.50428942
Ir      13.78750390      12.93037525       8.75888906
Ir      14.26256198      15.53037385      13.14618986
Ir      11.47395029       8.65676276       8.53072977
Ir      11.69787597       8.15878809      13.63995597
Ir      12.78568221      13.46995918      13.55436072
Ir      13.38006244      11.87112564      17.10758023
Ir      13.93043571      15.13025497      10.29318438
Ir      14.36015700      15.66782349      15.67570595
Ir      11.37806479      10.66067687      13.28821630
Ir      10.88672455      11.90905972      16.46229962
Ir      12.02180889      15.85040647      14.37512853
Ir      12.33737689      13.94753988      16.06181893
Ir       9.97298597       9.91298915      15.17637105
Ir      11.48706580       8.12569553      11.03552985
Ir      12.20984642      16.43191778      11.87974047
Ir       9.47918235       9.00273269      12.55326530
Ir      10.30916153      12.87785193      13.07077191
Ir      11.28118736      12.10503186       8.29643914
Ir      11.78768093      14.51632265       8.84966672
Ir      11.99607890      16.92748867       9.47550746
Ir      11.70708558      13.97955245      11.34075298
Ir       9.52039289       9.58449146      10.05505280
Ir      10.66673070      11.69951986      10.76155929
Ir       9.82987203      15.47363076      13.01970117
Ir       8.42655467      12.11368460      15.84129453
Ir       9.95811224      14.07863168      15.32801598
Ir       8.31854209      11.13806274      13.55181252
Ir       9.77915976      10.33631641       7.64572139
Ir      10.01048065      15.66530941      10.39581521
Ir       7.40796561      10.07283616      11.30808723
Ir       9.24537270      13.42707313       9.24669672
Ir       8.00316410      13.71726323      13.58378692
Ir       8.06148995      12.45763561      11.30015663
Ir       7.85562083      14.95226843      11.23577751
Ir       7.87552314      11.34819366       8.98268038
54
Properties=species:S:1:pos:R:3 config_type=qcd gap_pre_relax_energy=-399.28838680003946 gap_pred_energy=-401.56926804331084 gap_fmax_final=0.0008774091390355541 gap_converged=1 pbc="F F F"
Ir      13.26135333      13.73410243      15.07565135
Ir      13.73236629      13.60615130      18.48760801
Ir      11.64491421      13.37998116      17.12561027
Ir      11.04177897      13.40854144      13.83862582
Ir       9.32008861      13.56686922      15.66996627
Ir      16.89398651      13.95509849      15.18273904
Ir       7.59067113      13.94256107      13.85599518
Ir      10.83063827      17.80570955      13.51045331
Ir      13.20676221      13.41814122      12.35915655
Ir      13.66346880      13.71357325       8.97761239
Ir      12.86006457      11.16802958      17.30977502
Ir      15.00790076      12.63525845      16.66409736
Ir      15.82736514      15.05587790      17.20383691
Ir      13.34050579      15.56945330      16.92181963
Ir      11.56352139      13.87120337      10.39588578
Ir      12.80766386      16.05181855       9.97966839
Ir      14.90655364      14.69406300      10.86145385
Ir      15.77386669      12.29362366      10.26864745
Ir      13.23193473      11.71840222      10.42293688
Ir      12.80960463      11.18246416      13.83090886
Ir      15.19966483      12.42819982      13.82299298
Ir      14.98704832      15.05596646      13.71386029
Ir      12.35593986      15.69047756      13.40782148
Ir      12.31351294       9.32302061      15.41782372
Ir      17.04344459      11.37534035      15.37521019
Ir      17.63340725      16.31497280      15.59955439
Ir      12.62358391      17.45793438      15.23988344
Ir       9.44807682      13.87639719      11.96926730
Ir      12.12957026      18.22947335      11.28969533
Ir      16.60894449      16.26471827      12.20513316
Ir      17.53544064      11.09537955      11.92489590
Ir      12.54662962       9.54722923      11.91881327
Ir      15.11589556      16.83108665      15.52991081
Ir      11.02719781      15.55626211      15.68015280
Ir      10.93202100      11.45560413      15.67936733
Ir      14.63017090      10.35281926      15.59670272
Ir      16.92656352      13.54666806      12.10205761
Ir      14.99451774      10.65754589      11.96297068
Ir      11.04289209      11.67476203      11.84384696
Ir      10.75895970      16.04961364      11.44776750
Ir      14.13863375      16.99364621      11.98845167
Ir      11.81558717       7.68103262      13.45533684
Ir      18.99800004      10.05875619      13.68638558
Ir      19.16442684      17.40828243      13.93919375
Ir      12.28777779      19.79555369      13.20733448
Ir       8.96953687      11.75245607      13.70265569
Ir      14.27087338       8.66910245      13.62429910
Ir      18.64654324      12.52426201      13.83120767
Ir      16.78097263      18.04032204      13.85808188
Ir      10.33002946       9.77079529      13.62349225
Ir       9.32085920      15.76246843      13.74486732
Ir      14.34459067      18.63018312      13.77752838
Ir      18.50268073      15.11174499      13.46237553
Ir      16.57313162       9.55913458      13.74074851
55
Properties=species:S:1:pos:R:3 config_type=qcd gap_pre_relax_energy=-410.0817481582002 gap_pred_energy=-410.5647930114561 gap_fmax_final=0.000720917466489934 gap_converged=1 pbc="F F F"
Ir      17.26664340       9.79527452      10.54107135
Ir      17.26148472      12.37304418      10.44199081
Ir      17.19503321      15.03016365      10.45379106
Ir       8.26637420       9.82466158      10.45957043
Ir       8.14739562      12.45975270      10.44266654
Ir       8.14996618      15.08843591      10.47131602
Ir      10.54405335       8.45578810      10.44667231
Ir      10.44483218      11.14145558      10.18875042
Ir      10.36135761      13.84495895      10.18794754
Ir      10.36202495      16.49191882      10.45468220
Ir      12.74165511       9.81584085      10.20667934
Ir      12.78478498       7.18109886      10.54462141
Ir      12.66522293      15.18896345      10.18639925
Ir      12.67308939      17.72601070      10.46858712
Ir      15.01604549       8.50478467      10.52469914
Ir      14.99445695      11.13056158      10.20518023
Ir      14.97527782      13.78421526      10.18574397
Ir      14.96171177      16.43356910      10.43833358
Ir      16.18126654       9.00068124      12.78202221
Ir      17.45565685      11.24007406      12.70701381
Ir      17.43818964      13.73563584      12.68851509
Ir       7.95943222      11.22541656      12.67591824
Ir       7.91346201      13.71544043      12.69426561
Ir       9.20105026      16.00445711      12.70636530
Ir       9.27417963       8.97644644      12.69420419
Ir      10.49402817      11.18262921      12.69109226
Ir      10.41820472      13.80796989      12.69024352
Ir      11.35997048      17.26356375      12.70501089
Ir      12.72816265       9.87825130      12.73649654
Ir      11.43650914       7.72993427      12.71139512
Ir      12.67185271      15.12257835      12.68876829
Ir      13.98651318      17.25645304      12.69052190
Ir      14.01365226       7.73605316      12.78375385
Ir      14.94962911      11.17468652      12.73502355
Ir      14.91762923      13.76296113      12.68808901
Ir      16.13043112      15.98898526      12.67071096
Ir      17.23679365      12.41556090      14.92144714
Ir      17.20987269      15.05291455      14.91891640
Ir       8.24305376       9.82617121      14.92516250
Ir       8.13306044      12.42536998      14.93825580
Ir       8.15872585      15.05686581      14.93033304
Ir      10.52347661       8.50153315      14.92602173
Ir      10.44904009      11.11965958      15.18569378
Ir      10.36355294      13.81575534      15.19543851
Ir      10.37778659      16.46990046      14.94814637
Ir      12.74930008       9.85081341      15.18969553
Ir      12.69434499      15.17500804      15.19395590
Ir      12.70043788      17.70503890      14.92754674
Ir      14.99230511       8.55197827      14.94555348
Ir      14.96597568      11.14411465      15.18824262
Ir      14.99726380      13.77207886      15.18258836
Ir      15.00297386      16.43115369      14.93384759
Ir      12.64454879      12.58122539      15.25168558
Ir      12.65119041      12.56689766      12.67945438
Ir      12.65586185      12.55603904      10.12069631
