3
Properties=species:S:1:pos:R:3 config_type=qcd gap_pre_relax_energy=-1.0083822706193526 gap_pred_energy=-1.0560465271129993 gap_fmax_final=0.000840706127164243 gap_converged=1 pbc="F F F"
K       12.50701258      12.57119599       9.49709500
K       10.07936811       9.92373077      11.97910618
K       12.74050615      12.83196008      13.85068566
4
Properties=species:S:1:pos:R:3 config_type=qcd gap_pre_relax_energy=-1.7088664459039373 gap_pred_energy=-1.7470960822162105 gap_fmax_final=0.00031912570759027643 gap_converged=1 pbc="F F F"
K       12.79348016      15.44983362      14.30546048
K       14.06071375      11.40218019      12.55470708
K       17.03512702      14.30894630      13.99895062
K        9.81966311      12.54802393      12.84986587
4
Properties=species:S:1:pos:R:3 config_type=qcd gap_pre_relax_energy=-1.5773176699517246 gap_pred_energy=-1.7470959676219067 gap_fmax_final=0.0004600017832952812 gap_converged=1 pbc="F F F"
K       14.32926790      14.09647832      16.59824429
K       15.15306043      13.86508798      12.27957068
K       11.15496230      12.45141277      14.02985360
K       11.98368878      12.20800034       9.71331084
5
Properties=species:S:1:pos:R:3 config_type=qcd gap_pre_relax_energy=-2.438581585332285 gap_pred_energy=-2.452767895102899 gap_fmax_final=0.0007874353059909072 gap_converged=1 pbc="F F F"
K       13.58177760      12.24472803      11.46873391
K       10.52122288      10.07160305      14.10459372
K       14.79990478       9.09694511      14.29969784
K       11.97982032      15.33339277       8.76580987
K        9.10678410      13.24284072      11.35067434
5
Properties=species:S:1:pos:R:3 config_type=qcd gap_pre_relax_energy=-2.3295613313800954 gap_pred_energy=-2.4527741313081175 gap_fmax_final=0.00043323672073392283 gap_converged=1 pbc="F F F"
K       12.45708299      16.35391732      13.57580736
K       13.99955141      12.20438298      13.77011353
K       16.28538966      15.52300434      15.96290052
K       17.65692040      11.33788775      16.04392135
K       14.60105554      19.58080762      15.64725723
6
Properties=species:S:1:pos:R:3 config_type=qcd gap_pre_relax_energy=-3.1816213779823617 gap_pred_energy=-3.2033169366807996 gap_fmax_final=0.0007965478899275049 gap_converged=1 pbc="F F F"
K       11.65649904      15.17519364      10.35769554
K       14.79484595      12.00460363       9.98479630
K       11.86015370      11.86337198      13.38107189
K       16.19727209      10.95188022      14.10502493
K       11.12457119      16.08921573      14.70927326
K       13.92906063      13.47813741      17.02454067
6
Properties=species:S:1:pos:R:3 config_type=qcd gap_pre_relax_energy=-3.1254611034455353 gap_pred_energy=-3.1673555888495475 gap_fmax_final=0.0007417839152126582 gap_converged=1 pbc="F F F"
K       12.36068399      11.81658731       9.14061778
K       15.53314925      12.67645713      12.05179977
K       11.12033432      13.68785304      12.91559481
K       18.53041488      13.63700998      15.11559533
K       10.12625115      15.56766761      16.75834947
K       14.36044523      14.64570377      16.04932167
7
Properties=species:S:1:pos:R:3 config_type=qcd gap_pre_relax_energy=-4.1784291720667905 gap_pred_energy=-4.192361794857849 gap_fmax_final=0.0008438946131852562 gap_converged=1 pbc="F F F"
K       17.57434559      13.70627123      13.70627123
K       14.90106069      17.38522805      13.70627123
K       14.90106069      10.02731441      13.70627123
K       10.57633745      15.97990059      13.70627123
K       10.57633745      11.43264187      13.70627123
K       13.70737837      13.70627123      16.10726300
K       13.70737837      13.70627123      11.30527946
7
Properties=species:S:1:pos:R:3 config_type=qcd gap_pre_relax_energy=-3.99165955600048 gap_pred_energy=-4.192360859796619 gap_fmax_final=0.0009471646466134013 gap_converged=1 pbc="F F F"
K       13.13093285      15.16593310      11.61792382
K       16.81948379      16.25013511      14.05567548
K       16.03527786      11.91472598      12.91039467
K       12.80997936      18.18716923      14.99892260
K       17.51098396      12.92912826      17.09031152
K       13.17937275      13.74998309      15.94374366
K       15.51396943      16.80292523      18.38302824
8
Properties=species:S:1:pos:R:3 config_type=qcd gap_pre_relax_energy=-4.873540350909179 gap_pred_energy=-4.921539314935396 gap_fmax_final=0.0009118618236732376 gap_converged=1 pbc="F F F"
K       11.04108726      13.54572359      16.74798829
K       14.54059747      14.88070386      11.11438146
K       12.66526434      17.08231320      14.54184069
K       12.45951193      10.34594386      13.94291657
K       12.56389709      11.17452390       9.53398943
K       10.37760770      13.92111205      12.32708468
K       15.27804119      13.50940586      15.27377883
K       16.38823095      10.85451161      11.83225798
8
Properties=species:S:1:pos:R:3 config_type=qcd gap_pre_relax_energy=-4.882647661870408 gap_pred_energy=-4.921539183626424 gap_fmax_final=0.0009378433152509565 gap_converged=1 pbc="F F F"
K       12.91502394      15.34638946      18.61020258
K       16.38621037      16.73215758      12.97131915
K       14.57553367      18.89813959      16.45690658
K       14.25679646      12.17954447      15.72932932
K       14.33616787      13.09189604      11.33672963
K       12.21817620      15.81747522      14.20221526
K       17.13840624      15.27161998      17.09741058
K       18.17368527      12.66277765      13.59588690
9
Properties=species:S:1:pos:R:3 config_type=qcd gap_pre_relax_energy=-5.64449315779374 gap_pred_energy=-5.668685619266451 gap_fmax_final=0.000798949090760906 gap_converged=1 pbc="F F F"
K       15.90195476      14.43026773      19.60041379
K       17.64584777      16.16109343      15.78275731
K       12.10988595      12.69465223      17.83823947
K       13.36648507      16.84479331      16.77688838
K       16.02623698      12.01969848      15.80528086
K       14.81150371      17.85959078      12.65906407
K       16.97233267      13.94283603      11.87110616
K       12.65248795      13.87412765      13.46467152
K       13.56373556      15.22341078       9.25204888
9
Properties=species:S:1:pos:R:3 config_type=qcd gap_pre_relax_energy=-5.560336513792034 gap_pred_energy=-5.650323725801908 gap_fmax_final=0.0009382520260810178 gap_converged=1 pbc="F F F"
K       10.91132302      16.09504364      13.96750524
K       18.28694018      14.14340325      12.60393858
K       13.91301479      13.33128453      12.10784386
K       15.25242240      17.32950494      13.57986531
K       16.36885421      10.62597000      14.71596736
K       12.80117079      12.82791278      16.39152275
K       16.89326068      14.55465058      16.79476888
K       17.32456484      18.94161654      17.18310303
K       13.24844910      17.15061376      17.65548498
10
Properties=species:S:1:pos:R:3 config_type=qcd gap_pre_relax_energy=-6.536269283819095 gap_pred_energy=-6.5870152675968 gap_fmax_final=0.0009050358014910214 gap_converged=1 pbc="F F F"
K       17.08609447      14.50455369      10.79953770
K       13.07258141      12.33921560      10.91404450
K       17.00474684      10.01316018      11.25961897
K       13.70235849      16.36256063      13.11527503
K        9.56186921      15.03722754      11.72985789
K       13.51537746       8.93617142      13.91661264
K       11.33055017      12.65836118      15.19534239
K       15.94463505      12.68890510      14.82404178
K       10.02070647      17.01359251      15.76579039
K       13.88591165      15.57108336      17.60470994
10
Properties=species:S:1:pos:R:3 config_type=qcd gap_pre_relax_energy=-6.2674284805445675 gap_pred_energy=-6.405183675063154 gap_fmax_final=0.0009434231975714634 gap_converged=1 pbc="F F F"
K       15.31564060      13.29914821       9.49882014
K       13.98628596      16.34826470      12.45394998
K       10.64817797      13.93218716      14.25804819
K       18.29724331      14.76662357      12.50359763
K       14.74466785      12.14929972      13.76291058
K       16.88508245      17.78667003      15.57095143
K       13.30911949      13.20548839      17.84662094
K       17.62434360      13.68209577      16.85206611
K       12.56437328      17.32647435      16.56004139
K       15.67721148      16.55589410      19.74513962
10
Properties=species:S:1:pos:R:3 config_type=qcd gap_pre_relax_energy=-6.305264143819085 gap_pred_energy=-6.381654661105516 gap_fmax_final=0.0009848083987971728 gap_converged=1 pbc="F F F"
K       14.47892437      17.04318593      13.27939543
K       12.93557431      12.84951196      13.89384705
K       15.57170986      21.17212559      14.45256806
K       18.79143965      18.06054829      14.47765181
K       17.41786012      13.77831103      14.16625899
K       15.83395838       9.91076380      15.63118270
K       19.04466956      15.23045202      18.02072449
K       15.51596326      18.02277932      17.61446202
K       11.52099613      16.29264276      16.49158429
K       14.85201547      13.60279043      17.93543626
10
Properties=species:S:1:pos:R:3 config_type=qcd gap_pre_relax_energy=-6.353793010948065 gap_pred_energy=-6.587011980264881 gap_fmax_final=0.000849282279020478 gap_converged=1 pbc="F F F"
K       17.11546992      13.99043534      14.03153568
K       16.36033613      21.22470090      15.35184815
K       14.03374790      17.43240230      14.25234415
K       18.25757778      18.12737010      12.66949183
K       15.31518332      10.45253465      16.32639641
K       12.62722608      13.16865493      13.91977546
K       13.95648129      19.06970005      18.50881210
K       18.51392766      12.98873913      18.25700134
K       17.94212437      17.31494916      17.14689203
K       14.26527668      14.61786456      17.92325395
11
Properties=species:S:1:pos:R:3 config_type=qcd gap_pre_relax_energy=-7.36293107181468 gap_pred_energy=-7.421084486125689 gap_fmax_final=0.0008930882969436229 gap_converged=1 pbc="F F F"
K        9.13042115      11.82107236      10.25626784
K       10.89305304      15.93280541      11.23524774
K       13.50418555      12.26925496      11.42253513
K       15.44451232      16.49357777      11.12437612
K       11.05357932       8.79685379      13.08144298
K       17.68257659      17.32496422      15.03224414
K       13.92147070      11.01300760      15.82262806
K       17.37790182      13.06987139      13.54465016
K        9.89403539      12.90493560      14.57459872
K       13.50462081      15.52674259      15.07076789
K       16.68840586      13.94167685      17.93000375
11
Properties=species:S:1:pos:R:3 config_type=qcd gap_pre_relax_energy=-7.176297593573965 gap_pred_energy=-7.237777792369804 gap_fmax_final=0.0008318108599245789 gap_converged=1 pbc="F F F"
K       17.87163366      14.49407036      10.03276378
K       19.42575203      17.34293098      13.21641820
K       14.98594132      16.99652233      12.50271625
K       14.51710590      12.46001303      12.30394176
K       18.36799814      13.15311214      14.34219220
K       11.87697614      14.82747512      15.04553620
K       12.93047699      19.08599004      16.05465408
K       14.88209889      12.15805572      16.97178396
K       10.67232909      12.11932191      18.49819371
K       16.52687218      16.49862731      16.68901875
K       12.94281564      15.86388104      19.34278112
11
Properties=species:S:1:pos:R:3 config_type=qcd gap_pre_relax_energy=-7.295799254286092 gap_pred_energy=-7.3429792907670794 gap_fmax_final=0.0008970217350065677 gap_converged=1 pbc="F F F"
K       16.41433859      11.10240293       9.98931403
K       13.14690616      10.21690321      12.89164049
K       16.02132417      18.06832626      12.65483641
K       18.00192668      15.26591335       9.80892631
K       13.52123571      14.63035365      10.80390554
K       10.05495586      13.46158695      13.34145926
K       16.52331825      13.62431038      13.87626985
K       12.79494458      16.46799133      15.28179800
K        9.78992183       9.91474348      16.07194387
K       13.49606201      12.30919259      16.86532421
K        9.54806553      14.25127523      17.72758139
12
Properties=species:S:1:pos:R:3 config_type=qcd gap_pre_relax_energy=-8.038386313786589 gap_pred_energy=-8.069531101965929 gap_fmax_final=0.0009987375419987122 gap_converged=1 pbc="F F F"
K       17.09401901      13.41134272      17.47287877
K       17.15337174      17.84376664      17.36072472
K       13.18773585      15.60506480      17.36800018
K       13.68435519      19.70862059      15.19150943
K       17.15356543      17.84354682      13.02298935
K       17.09465813      13.41133894      12.91049278
K       13.18764272      15.60446853      13.01711535
K       20.43969393      15.48984379      15.19224491
K       19.99608705      10.96568152      15.19211368
K        9.80060489      13.26616187      15.19369722
K       13.83695297      11.42929377      15.19145922
K        9.67716487      17.72672178      15.19262618
12
Properties=species:S:1:pos:R:3 config_type=qcd gap_pre_relax_energy=-8.121242581655526 gap_pred_energy=-8.251858116098543 gap_fmax_final=0.0008895704173042425 gap_converged=1 pbc="F F F"
K       13.70403323      15.84677993       9.79713046
K       17.16470662      18.45126347      11.51544653
K       13.01975763      18.12316938      13.56337269
K       11.74660070      13.67272511      13.35421190
K       16.19924259      14.50746506      13.32655212
K       20.22003409      16.32971124      14.32334760
K       17.78744265      14.12125985      17.55173821
K       14.78997343      11.05213728      15.72434444
K       10.71843638      11.86627121      17.44341142
K       16.71061244      18.39722776      16.12823455
K       14.50298350      12.14784425      20.07314076
K       13.43617674      15.48414546      17.19906931
13
Properties=species:S:1:pos:R:3 config_type=qcd gap_pre_relax_energy=-9.027862813948627 gap_pred_energy=-9.10195821951172 gap_fmax_final=0.000996704783250163 gap_converged=1 pbc="F F F"
K       16.15692956      17.86992665      12.96745360
K       15.04374703      10.75445044      15.00694389
K       13.13027026      14.55315155      13.49138708
K       10.46495574      11.31423327      15.17852536
K       19.60724312      11.42144741      14.83215418
K       16.86633105      14.60664678      16.49841882
K        9.64984985      15.84662465      16.01698373
K       13.76170729      17.85471271      16.99973991
K       20.31467885      15.96534197      13.96342720
K       11.68040726      18.80188558      13.12982572
K       17.11361257      13.53070693      11.81693392
K       18.21504862      18.89121658      16.83143647
K       12.90804682      13.50248351      18.17959813
13
Properties=species:S:1:pos:R:3 config_type=qcd gap_pre_relax_energy=-9.253917122348046 gap_pred_energy=-9.25475456877767 gap_fmax_final=0.0009769205117809007 gap_converged=1 pbc="F F F"
K       14.40570353      14.40570354      14.40570354
K       14.40304419      14.40570356      18.86452301
K       15.63644889      10.61402790      16.39616134
K       11.17880702      12.06306098      16.39552290
K       11.17880698      16.74834606      16.39552288
K       15.63644882      18.19737922      16.39616130
K       18.39297694      14.40570358      16.39736433
K       13.17495825      10.61402786      12.41524577
K       10.41843014      14.40570349      12.41404275
K       13.17495819      18.19737918      12.41524574
K       17.63260006      16.74834610      12.41588417
K       17.63260010      12.06306101      12.41588420
K       14.40836289      14.40570352       9.94688407
14
Properties=species:S:1:pos:R:3 config_type=qcd gap_pre_relax_energy=-9.855410167106417 gap_pred_energy=-9.926662793756568 gap_fmax_final=0.0008020094271260658 gap_converged=1 pbc="F F F"
K       14.02156841      17.08162950      13.40912695
K       18.47400253      17.29146297      14.11663213
K       17.24959159      15.76805128      10.00236129
K       15.72872543      17.17093222      17.63219757
K       14.42541656      12.98186528      17.63256916
K       17.20689984      14.34292779      20.96637808
K       12.94747569      15.81019432      20.96641750
K       20.51990321      13.65445819      12.52535524
K       16.13246583      13.07404306      13.40962861
K       12.90449788      14.38674441      10.00251237
K       19.02401510      13.77597452      16.88683324
K       11.68027499      12.86302155      14.11667149
K       11.13041592      16.37807941      16.88696954
K        9.63411259      16.49998109      12.52571244
14
Properties=species:S:1:pos:R:3 config_type=qcd gap_pre_relax_energy=-9.918051753098283 gap_pred_energy=-9.988998685580494 gap_fmax_final=0.0009628472731870777 gap_converged=1 pbc="F F F"
K       19.28086276      15.63523765      10.66675717
K       15.83548444      18.39542296      11.94957928
K       11.71458447      16.20752029      12.17419125
K       15.54168049      13.89720361      12.57368731
K       19.47340095      12.14921855      13.73890625
K       12.14511275      20.28526972      13.93241998
K       15.60072670       9.76488536      14.57864973
K       12.09090129      12.87356750      15.23814383
K       18.80106354      16.49708295      15.01892884
K       10.01989914      16.94152607      16.36671367
K       14.46666924      17.01481633      16.06383932
K       16.56225189      13.24352704      17.26480411
K       13.50326502      10.14462749      18.60116951
K       12.53325395      14.51925111      19.40136639
15
Properties=species:S:1:pos:R:3 config_type=qcd gap_pre_relax_energy=-10.591803575951067 gap_pred_energy=-10.704024279523969 gap_fmax_final=0.0008145645407015785 gap_converged=1 pbc="F F F"
K       10.80390865      12.91106659       7.61431996
K       14.46451870      10.54520394       8.25305083
K       14.43998274      15.10553754      10.13477625
K       10.41373436       8.69046160       9.36527706
K        9.59667747      15.93638958      10.57645791
K        7.60390164      11.80557109      10.70822106
K       13.93813938       7.69990196      11.81293347
K       16.90672458      11.19632387      11.86011544
K       12.18777607      12.18720669      12.18839444
K       12.04098261      16.58720628      14.18240506
K        8.31604052      13.93241414      14.49803555
K       14.64733446       9.81625207      15.60997958
K        9.93833076       9.26925577      14.24312770
K       15.69371757      14.21318562      14.82994509
K       11.83436334      12.93015607      16.94909340
15
Properties=species:S:1:pos:R:3 config_type=qcd gap_pre_relax_energy=-10.52909701295662 gap_pred_energy=-10.78693041046835 gap_fmax_final=0.0009429939486887729 gap_converged=1 pbc="F F F"
K       13.06747769       9.45909016       8.01150771
K       11.45638167      13.96882406       7.72497439
K       15.87445719      13.09059082       8.63513250
K        8.93714239      10.58659980       9.32951402
K       13.52419921      16.39422424      11.03372929
K       16.18954774       9.30563828      11.29249611
K       16.60711814      13.71110368      13.12596783
K        9.19910870      14.69632191      11.80285183
K       12.65847871      12.08097183      11.64449009
K       11.40623348       8.25494743      12.69951369
K       12.46263309      14.51177040      15.22601043
K       14.72155192      10.30779990      15.40797807
K        7.59534916      10.82800836      13.47427893
K        8.00379746      14.38813618      16.21404614
K       10.54761114      10.66706060      16.62859666
15
Properties=species:S:1:pos:R:3 config_type=qcd gap_pre_relax_energy=-10.716086399470353 gap_pred_energy=-10.948468006619306 gap_fmax_final=0.000888748177959903 gap_converged=1 pbc="F F F"
K       14.02314764      15.09779061       9.97110885
K        9.85062486      14.51883291       8.30201970
K       16.35457445      11.22518299      10.64327873
K       11.67221154      10.93229397      10.37592277
K       10.88998773      18.30965484      10.60491771
K       17.42338803      15.13390220      13.02420076
K        9.67481788      14.55285278      12.82905971
K       13.69106834      12.84406683      13.82023115
K       17.56452787      10.99063849      15.12107452
K       14.01567308       8.38967793      13.45359402
K       13.39702262      17.24373996      14.21849183
K       10.07431885      10.43119783      14.76199954
K       13.71453176      10.49940935      17.64698614
K       11.14801768      14.33790672      17.15193934
K       15.75057662      14.73734155      17.31966417
16
Properties=species:S:1:pos:R:3 config_type=qcd gap_pre_relax_energy=-11.682585311293419 gap_pred_energy=-11.703092007137162 gap_fmax_final=0.0009764827821059392 gap_converged=1 pbc="F F F"
K       13.08177088      16.21543750       9.88478613
K       15.08272772      12.65877633      12.16370998
K       17.47626722      15.07775698       9.20220161
K       11.95096346      15.28940284      14.23776308
K       16.23023692      17.63428182      12.71061773
K       19.40366272      14.16327487      13.21919275
K       16.06629883      14.80173814      16.03544531
K       12.09066832      19.57921233      12.94682676
K       17.56624234      10.57760201      15.47938469
K       14.50916201      18.88498283      16.82082379
K       13.10655055      11.34092590      16.17775782
K       10.04684960      18.39395601      16.89226983
K       19.96211839      13.69536864      17.81843256
K       12.59565094      15.16779833      18.87294173
K       16.90696675      16.54088325      19.97997598
K       16.01346247      12.06820132      19.64746933
16
Properties=species:S:1:pos:R:3 config_type=qcd gap_pre_relax_energy=-11.414349308982935 gap_pred_energy=-11.45718851918468 gap_fmax_final=0.0009001817200673931 gap_converged=1 pbc="F F F"
K       14.38161322      14.38000739      14.37954301
K       17.80523206      12.56760250      16.34697043
K       12.63791014      18.02517383      15.97726135
K       12.69682104      12.54383871      10.82060507
K       17.48902707      11.86753741      11.53222047
K       17.41265459      17.42289728      16.74889865
K       19.14741205      15.67702451      13.06606900
K       16.07008954      15.65646176       9.73115153
K       16.03142964      18.96570514      12.83495822
K       12.25078858      17.39403063      11.14864854
K       14.74637504      15.05543132      19.22384301
K       14.80265716       9.50887698      13.99297681
K        9.58010824      15.04088031      13.63157162
K       13.74389624      10.89936950      18.06337593
K       10.62703848      14.18868626      17.84884068
K       10.65985025      10.88937981      14.73596905
17
Properties=species:S:1:pos:R:3 config_type=qcd gap_pre_relax_energy=-12.164520645429048 gap_pred_energy=-12.705269979162319 gap_fmax_final=0.0009115094234085149 gap_converged=1 pbc="F F F"
K        9.62954977      14.71242032      16.81262660
K       15.93461306      17.24571631      11.02897743
K       14.55851230       8.96116310      14.37619759
K       10.91850756      11.63895352      13.57394095
K       13.41234765      16.92965359      18.41344828
K       13.66072232      12.52818042      17.01332762
K       14.66629850      19.80907834      14.81930943
K       17.11008389      14.28175935      19.43697966
K       20.58287567      15.36983599      16.63618425
K       16.31123726      15.67468934      15.23096281
K       19.43196407      14.50049619      12.25211207
K       19.13430756      18.91156188      13.86677620
K       17.66778891      18.69901625      18.23403246
K       18.05872882      11.58341284      15.64478552
K       10.32358672      19.18313495      16.04008592
K       12.23510770      16.03474391      13.40722769
K       15.17601107      12.74842655      12.02526836
17
Properties=species:S:1:pos:R:3 config_type=qcd gap_pre_relax_energy=-12.150138961087565 gap_pred_energy=-12.213139757925108 gap_fmax_final=0.0009569014372282697 gap_converged=1 pbc="F F F"
K       15.04360864      15.04252482      15.03852892
K       15.04235516      20.45958471      15.88794928
K       11.21436578      18.87241100      14.20186292
K        9.62690338      15.04247013      15.88785719
K       11.21413744      11.21457841      14.20160527
K       15.04414383       9.62719300      15.88745747
K       18.87187599      11.21417682      14.20150910
K       18.28736793      15.04384061      11.82600399
K       15.04358883      11.79941195      11.82576772
K       11.79913934      15.04314826      11.82623612
K       20.45949733      15.04427683      15.88774412
K       15.04281211      18.28720650      11.82638908
K       18.87237775      18.87200462      14.20190598
K       17.33524092      17.33514954      18.25859048
K       17.33540912      12.75099236      18.25870917
K       12.75127069      12.75116198      18.25865274
K       12.75118239      17.33514511      18.25850709
18
Properties=species:S:1:pos:R:3 config_type=qcd gap_pre_relax_energy=-12.963297423506502 gap_pred_energy=-13.259444952831752 gap_fmax_final=0.0009985412681158706 gap_converged=1 pbc="F F F"
K       18.92071402      12.89737715      18.34909730
K       15.15451395      13.16397786      10.27235475
K       11.11327130      15.13865360      10.53748962
K       21.09087116      15.06822352      14.86343806
K       18.88267058      17.23512762      18.22846608
K       11.19857881      12.90899197      18.26084311
K       19.19663614      15.12229737      10.62835647
K       15.06405801      10.74893863      17.72601985
K       11.24956197      17.24977684      18.15189141
K       15.16670575      17.49222148       9.82818921
K       12.81726801      17.60936230      13.78259989
K       12.70301560      12.44531596      13.93547821
K        9.12643958      15.09213400      14.72968230
K       15.04265597      15.14472627      20.54996041
K       15.07571696      19.42457848      17.63946460
K       17.42274399      17.59103050      13.83550610
K       15.07488268      15.04022300      16.50226820
K       17.51600455      12.44335243      13.99520343
18
Properties=species:S:1:pos:R:3 config_type=qcd gap_pre_relax_energy=-13.100856963320265 gap_pred_energy=-13.306388948112945 gap_fmax_final=0.0008709724716102078 gap_converged=1 pbc="F F F"
K       14.59826602      16.35785733       8.71051229
K       12.27573886      13.63168016      11.33096882
K       16.89624474      13.62485367      11.60034997
K       14.56073208      21.72948248      13.61639568
K       17.02843659      18.19775434      11.97967712
K       12.43032979      17.93391215      12.47596281
K       18.67180358      10.83123861      14.81336478
K       14.17113030      11.16878706      14.45118057
K       15.10819180      15.54325931      15.23754849
K       10.93208600      14.47084710      15.61287262
K       17.73098972      19.72798307      16.01760515
K       15.85780567       8.23970637      17.38073409
K       16.49812590      12.57642256      18.37603022
K       13.19415331      18.95358248      16.97616823
K       12.21187862      10.84624323      18.43175774
K       19.31108534      15.35278579      15.35882192
K       12.85155785      15.13575148      19.59185860
K       16.93687446      16.94328346      19.30362155
19
Properties=species:S:1:pos:R:3 config_type=qcd gap_pre_relax_energy=-14.370913863548184 gap_pred_energy=-14.399088406379263 gap_fmax_final=0.000934949057390446 gap_converged=1 pbc="F F F"
K       16.09645680      10.90905100      19.01755859
K       15.94276018      18.80782473      11.37128537
K       14.82437022      21.22693481      15.17573541
K       11.53708650      18.65999486      12.83744184
K       19.14514626      11.27381212      15.17575479
K       11.53689662      18.65988511      17.51370673
K       14.83694491      16.77913391      15.17566714
K       11.61539807      10.88393514      17.54549178
K       13.51827635      14.76025680      19.15794305
K       18.04179000      14.88535016      12.50978007
K       15.94243964      18.80765956      18.98021654
K       11.61561589      10.88402252      12.80531022
K       16.09682292      10.90926259      11.33368236
K       13.51863515      14.76046386      11.19318037
K       18.81437455      18.77493060      15.17588713
K       10.66156104      14.72012330      15.17546028
K       21.63717004      15.16492707      15.17598219
K       18.04154782      14.88519217      17.84178424
K       14.91417520      12.58470789      15.17560005
19
Properties=species:S:1:pos:R:3 config_type=qcd gap_pre_relax_energy=-14.049746174828242 gap_pred_energy=-14.099865487902418 gap_fmax_final=0.0007743311232099556 gap_converged=1 pbc="F F F"
K       15.76418874      15.76608457      10.50840431
K       15.76810303      19.48233173      20.36729547
K       10.59473205      15.76640504      15.88267487
K       15.76463358      11.38098813      12.57959535
K       11.96381823      17.98952393      12.27734824
K       13.41238447      19.41071540      16.44949094
K       13.41203549      12.12187825      16.44952287
K       18.08653921      15.76606516      19.24157424
K       18.12040235      12.12167621      16.44768102
K       19.56616528      17.98894274      12.27464654
K       19.56595684      13.54289938      12.27464269
K       15.76509243      20.15130073      12.57956924
K       20.93768095      15.76586825      15.87863277
K       15.76771117      12.05007440      20.36734202
K       15.76901285      15.76622857      23.09161546
K       11.96358347      13.54311814      12.27735370
K       18.12080987      19.41040678      16.44764910
K       13.44840860      15.76631174      19.24330081
K       15.76574198      15.76618146      14.91866095
20
Properties=species:S:1:pos:R:3 config_type=qcd gap_pre_relax_energy=-14.949357615210886 gap_pred_energy=-15.198894997171294 gap_fmax_final=0.0009433098144445158 gap_converged=1 pbc="F F F"
K       14.37511012      14.46605783       7.82051863
K       10.65605835      11.71015872       8.46159422
K       14.96119350       9.96776342       8.95709657
K       10.53977128      16.05170006      10.04744611
K       14.93565787      17.13614189      11.50401002
K       17.69295272      13.32093681      10.82848978
K       11.66169791       8.66547065      11.91974960
K       11.42308829      19.73989380      12.59731596
K        8.83047020      12.42621466      12.60799693
K       16.06409055       9.65519399      13.39690897
K       13.28513655      12.91928294      11.88272635
K       14.25977491      18.54856049      16.02682379
K       19.74146367      11.92650834      14.66765715
K        8.59608378       8.82613671      15.30541694
K        8.83865181      12.93619758      17.36646813
K       11.17263344      15.68939931      14.64619225
K       16.54524870      11.20331524      17.90222882
K       16.01917822      14.51320079      15.00571007
K       12.53235383      11.03124155      15.83406974
K       13.19788049      14.59512142      18.55007618
20
Properties=species:S:1:pos:R:3 config_type=qcd gap_pre_relax_energy=-15.144929158783132 gap_pred_energy=-15.214528921774438 gap_fmax_final=0.0009248973193433349 gap_converged=1 pbc="F F F"
K       10.73924543      11.80008434       8.01548459
K       14.75753364      13.48548801       9.42486535
K       15.66487972      17.87092251       9.33624075
K       11.24372485      16.44190131       9.17762339
K       13.36106823       9.29814372      10.92670304
K       17.86904939      10.79357340      11.43399083
K        8.77982328       9.32762084      11.48742043
K       10.85668477      13.17582263      12.17380456
K       17.86328315      15.38043257      12.52891969
K       13.52594605      16.87831072      13.14435665
K       14.63377920      12.59286946      13.95139268
K        9.01369273      16.77966555      14.01969618
K       15.82024928       8.35771752      14.79451657
K       12.09067986      18.41708841      17.09437440
K       11.34054170       9.60188699      15.31634176
K        7.56209970      12.28222320      14.92262917
K       15.80471282      15.69301778      16.99074493
K       18.65122192      12.20190887      15.83090384
K       11.33707728      14.00874507      16.85682115
K       14.73860114      11.26647125      18.22706421
20
Properties=species:S:1:pos:R:3 config_type=qcd gap_pre_relax_energy=-15.159443717291737 gap_pred_energy=-15.25198219862812 gap_fmax_final=0.0009730335848280063 gap_converged=1 pbc="F F F"
K       13.88505213      16.95775284       9.82421696
K       18.26516558      14.86480110      10.03713640
K       17.08323731      18.22601125      12.91648723
K       13.44591885       9.86318599      13.65647621
K       11.95225620      17.33579595      14.00276208
K       15.07680328      13.94574418      12.89233210
K       10.98504111      13.50350841      11.60306701
K       19.49454205      14.54518386      14.50900565
K       13.66516090      21.00205508      12.08791072
K       18.00984027      10.75865969      12.25648821
K       11.70416939      13.32838446      16.16805952
K       16.66414551      11.44824604      16.58061257
K       15.51347422      15.90699944      16.57279252
K       14.71784468      20.29751706      16.50805338
K       19.08426359      18.55471458      17.04226686
K       12.95884340       9.57462250      18.26179725
K       11.81948022      17.25325551      18.64048373
K       18.83366221      14.51712264      19.22532438
K       14.29829135      13.54422630      20.15803866
K       15.95925382      17.98865917      20.47313462
21
Properties=species:S:1:pos:R:3 config_type=qcd gap_pre_relax_energy=-16.176423643001918 gap_pred_energy=-16.230790199027616 gap_fmax_final=0.0008800860583455319 gap_converged=1 pbc="F F F"
K       14.68131817      15.53433532      11.76723514
K       17.36371002      11.68173316      11.78571803
K       12.47564498      19.50381218      13.85322037
K       19.39112609      15.80825208      11.46533295
K       13.74459240      11.76529500      14.68733140
K       17.02720719      18.77060953      14.09478984
K       15.41238860      22.89705291      14.85938060
K       10.61121735      15.21754383      13.88700382
K       17.51600299      14.39221507      15.30644750
K       21.44388751      12.68854095      14.21733303
K       20.95715120      17.18014119      15.94241777
K       17.90767753      10.07739468      16.16468792
K       14.05480457      16.22276209      16.44813024
K       18.84465106      21.08701512      17.41472911
K       20.23080975      13.29473188      18.66142133
K       14.28883606      20.24383848      18.29358088
K       10.24601974      17.99780384      17.68758549
K       11.15956364      13.37179225      18.18821451
K       17.66344114      17.07268314      19.17850916
K       15.63489362      12.72915097      19.27560155
K       13.37250782      16.49074778      20.84878081
21
Properties=species:S:1:pos:R:3 config_type=qcd gap_pre_relax_energy=-16.203889107901595 gap_pred_energy=-16.225650130157874 gap_fmax_final=0.0009669137759475507 gap_converged=1 pbc="F F F"
K       16.20737893      14.18345846      15.72779541
K       16.22672292       9.79932600      16.03993529
K       12.45889106      12.15334659      14.43490617
K       13.69445511      12.44329723      18.98009483
K       18.71715584      12.46643452      18.99809990
K       19.98592730      12.19123791      14.46367924
K       16.23347299      12.25658591      11.73603440
K       12.05833220      16.18717412      16.58850041
K       16.18827738      16.21286691      19.85347213
K       20.34590708      16.22136522      16.62065995
K       18.71111860      16.20324371      12.23988116
K       13.72812470      16.18385479      12.22033023
K       16.20450972      18.22346788      15.72357631
K       16.18252552      22.60861934      16.01283479
K       11.89750964      16.19682743      21.03520292
K       20.47296149      16.23428441      21.07050737
K       13.66820904      19.95573997      18.96362859
K       12.43621903      20.20845525      14.41802659
K       18.69162757      19.97954652      18.98446737
K       19.96187120      20.24589246      14.44862515
K       16.20943349      20.12560619      11.72037261
22
Properties=species:S:1:pos:R:3 config_type=qcd gap_pre_relax_energy=-17.051347412897428 gap_pred_energy=-17.107328690175407 gap_fmax_final=0.0009628023879754572 gap_converged=1 pbc="F F F"
K       16.29679379      20.57923426      16.97283291
K       18.69780240      16.73682540      10.88472584
K       20.09410553      18.82427016      14.84837049
K       16.43269562      20.67678710      12.23585215
K       13.97274127      17.00268920      10.52308784
K       12.41877659      19.48821079      14.45782059
K        9.56755112      16.86710938      11.92848900
K       11.84000395      12.88037682      10.51792166
K        9.39228998      16.80107833      16.72371457
K       12.39263164      14.70161094      14.41088242
K       13.61301253      17.14238056      18.48798087
K       16.22316787      12.97286849      11.87893822
K       16.15688380      16.94401942      14.48278359
K       18.42534834      16.70160298      18.67939567
K       20.02421599      14.14093418      14.62546353
K       15.88364275      13.40962475      16.60248834
K       17.98715634       9.90081132      14.91027081
K       19.40056274      12.06871074      18.83802339
K       15.57774026      13.74977070      21.00750022
K       13.32924658      10.27597468      14.28001339
K       11.65446044      12.95050423      18.51706853
K       15.09072618       9.65616128      18.65793167
22
Properties=species:S:1:pos:R:3 config_type=qcd gap_pre_relax_energy=-17.080870063939066 gap_pred_energy=-17.120461165831856 gap_fmax_final=0.0009568075520298082 gap_converged=1 pbc="F F F"
K       19.41948605      12.81094605      15.76475262
K       15.86481724      15.70711384      17.17131895
K       23.53285317      19.34220439      16.67083533
K       19.05305041      14.34453493      20.44216521
K       23.03221781      14.76387149      18.06497554
K       15.86368633      11.47468746      18.48117555
K       21.58919007      18.30215911      20.75105076
K       14.55245688      14.83553678      21.32253670
K       11.89737862      13.85519953      17.47021644
K       12.70734046      18.31321976      18.93243268
K       13.04075744      16.85700158      13.90370249
K       11.74418214      21.09144855      15.55581600
K       15.05734216      12.70157616      14.08285189
K        9.21055840      17.32532248      16.23152331
K       16.14270111      19.89717487      15.31909168
K       17.59948293      16.29546174      12.71492154
K       19.59943761      17.31842642      16.88176783
K       22.20440223      15.85926412      13.58834803
K       17.03602726      18.72599063      20.52261021
K       20.33130241      20.08579134      13.40403495
K       14.97522804      22.40289900      18.73274896
K       19.52055083      21.66461938      17.96557291
23
Properties=species:S:1:pos:R:3 config_type=qcd gap_pre_relax_energy=-17.854522025235898 gap_pred_energy=-17.96804419078592 gap_fmax_final=0.0009645156971247019 gap_converged=1 pbc="F F F"
K       16.14642031      14.05447212       9.77914287
K       12.32586582      16.38834613      11.15123399
K       12.45361980      11.62658884      11.12020121
K       16.81294824      17.84642976      12.39664461
K       16.81208870      10.04943233      12.36543703
K       19.42945544      14.07216730      13.10215275
K       10.32164744      13.74694326      14.81543934
K       15.01421592      13.69638761      14.01140759
K        9.36953967      18.33117457      14.26822427
K       13.20590489      20.69668914      12.96112722
K       20.59155552      18.11390062      15.04582760
K       13.38804359      17.15364625      15.61679763
K       13.07446157      10.00567383      15.40024802
K       16.62575334      20.42829956      16.23732905
K       17.26926259      11.22335599      17.05526026
K       20.83595890      10.08678935      14.59204635
K       17.36023815      15.98132894      16.94201478
K       21.12350616      13.75737283      17.39431614
K       12.07179142      20.84508180      17.55806822
K       13.45303559      13.41452683      18.54625770
K       10.13374973      16.64579362      18.58100752
K       14.51646080      17.64641926      20.09761646
K       17.46715942      13.99186305      20.76488235
23
Properties=species:S:1:pos:R:3 config_type=qcd gap_pre_relax_energy=-17.92196526944461 gap_pred_energy=-17.965192181437 gap_fmax_final=0.0006994468065149299 gap_converged=1 pbc="F F F"
K       16.86050099      15.91596637      19.91655842
K       21.19607269      15.87564053      21.02304888
K       19.34869830      12.12539248      19.05500388
K       14.28209052      12.27467710      19.14612551
K       12.45020235      16.18853953      21.03680734
K       16.73014807      19.72264689      11.75290065
K       20.96975398      15.84521329      16.56796903
K       16.83139786      13.89460934      15.78213379
K       16.73883328      11.85664448      11.81986630
K       12.76783975      15.89993223      16.67295178
K       14.85079335      19.90720158      19.29409125
K       12.71103255      23.34929638      17.28875827
K       19.51667620      19.63675171      18.88264552
K       16.78867641      17.96445601      15.78085177
K       16.75927153       9.50259212      16.19686553
K       20.52750181      11.77562983      14.49473812
K       13.02457455      11.81376437      14.57183638
K       10.47006785      19.49022258      18.36777263
K       19.21963733      15.79062761      12.24269019
K       20.54892151      19.86620525      14.33684709
K       14.26927205      15.82930596      12.27411678
K       12.98346352      19.87864846      14.42073952
K       16.90957302      22.35103536      15.82968085
24
Properties=species:S:1:pos:R:3 config_type=qcd gap_pre_relax_energy=-18.931374629134012 gap_pred_energy=-18.97334067078065 gap_fmax_final=0.0009186101844785062 gap_converged=1 pbc="F F F"
K       15.89470291      18.93160210      10.25590936
K       15.70783003      14.15641569       9.43596673
K       11.68336805      16.44613745       9.90157630
K       18.99936682      15.90280435      12.26378354
K       12.08586226      19.75263910      13.14821282
K       16.95387885      11.88213364      13.33013538
K        9.98385701      15.72946183      14.39820764
K       13.91350567       9.07911355      15.36928555
K       12.32963492      12.10623720      11.99609229
K       14.46926459      16.05314588      13.21104312
K       19.90493272      20.26722558      12.15297777
K       20.73822078      13.25770876      15.71005999
K        9.71438743      11.20540353      15.87663303
K       16.41620450      19.89517374      14.90811092
K       13.48579683      13.35069656      16.32404396
K       17.08303457      15.58580514      16.47060805
K       20.64418950      18.08431997      16.17398018
K       17.22782283      11.22711570      18.09824142
K       12.98426784      18.01831747      17.39591410
K       12.76954815      10.66114344      19.68400306
K       10.30202504      14.65562794      19.06696325
K       19.69114696      15.01132484      19.89153135
K       17.11680211      18.85696620      19.41249192
K       14.87756221      14.86069289      20.50144088
24
Properties=species:S:1:pos:R:3 config_type=qcd gap_pre_relax_energy=-18.692868744355643 gap_pred_energy=-18.763556124180525 gap_fmax_final=0.0009606518400734797 gap_converged=1 pbc="F F F"
K       17.06417229      14.39449728      10.67754940
K       15.92682764      10.12889590      12.23974543
K       13.09785616      17.53076199      10.76636951
K       14.55628531      21.22178694      13.44677495
K       17.62532000      19.05683735      10.57923418
K        9.29060903      15.47659262      12.50962517
K       13.22738364      13.55533790      13.14488709
K       20.46989609      16.50085291      13.54725662
K       11.55901350      18.11582774      15.26164277
K       17.95495612      12.96315092      15.01025190
K       18.91378200      20.62681759      15.07183700
K       15.97173667      17.12493091      14.08018868
K       14.25576436      10.62525059      16.58663392
K       21.69090303      13.90183421      17.38451756
K       14.82212483      19.83968957      17.90644477
K       10.28351146      13.73083306      16.71942974
K       17.62094338      12.67320754      19.57275713
K       22.37213901      18.42863790      17.38796185
K       11.52511196      17.14528202      19.84183188
K       14.43631577      15.06056503      17.31871595
K       18.31149253      16.99078892      17.74277096
K       12.88779039      12.68085691      20.58383139
K       20.51531431      15.94135673      21.31000075
K       15.84937470      16.51403167      21.53836560
25
Properties=species:S:1:pos:R:3 config_type=qcd gap_pre_relax_energy=-19.748654176570412 gap_pred_energy=-19.81720604215572 gap_fmax_final=0.000999222206588426 gap_converged=1 pbc="F F F"
K       17.20291420      17.97624080       9.61211045
K       19.30276673      13.72175035       9.71694005
K       14.56909624      14.03907692       9.94988599
K       10.39343561      14.66369088      11.98838996
K       12.43750696      10.45629202      12.24836283
K       21.18647730      17.55161500      12.11124364
K       13.50644572      18.06355303      12.38844243
K       17.08756988      10.86442981      12.97892793
K       17.49198613      15.50877949      13.25026095
K       17.55588346      20.14142874      13.89425970
K       21.18247558      13.22729217      14.01950272
K       13.86083183      13.75545180      14.60205283
K       20.17900243      17.08567780      16.71780440
K        9.97107908      12.25095850      15.92993044
K       13.42823584      20.87928556      16.11445158
K       17.86570044      12.78546431      17.16465295
K       15.51877586      17.04599903      16.65642949
K       14.16231429       9.79611640      16.54782948
K       10.88813483      16.92579399      16.12076021
K       17.29304604      20.45596245      18.67638462
K       13.87942989      13.63315107      19.18905371
K       10.95807817      10.29818583      19.84150436
K        9.67635230      14.77294251      19.92431858
K       13.00483573      18.12589794      20.08438363
K       17.60793586      16.18527402      20.48242749
25
Properties=species:S:1:pos:R:3 config_type=qcd gap_pre_relax_energy=-19.711156830365805 gap_pred_energy=-19.76722087306194 gap_fmax_final=0.000995171289394157 gap_converged=1 pbc="F F F"
K       14.89099011      18.56076148       9.93329480
K       19.27849856      19.81279786      10.85082489
K       18.01992303      15.32338922      11.17949243
K       15.67223112      22.75983639      12.27524646
K       12.14410806      19.98136117      13.36699229
K       16.10099711      11.56489449      13.36492249
K       19.41797737      22.05379197      14.89092786
K       13.34203475      15.35883419      12.93906939
K       17.13880594      15.11491324      15.65254710
K       20.98310743      17.53645156      14.53385580
K       16.42332710      18.80393649      14.06875793
K       20.60010553      12.84671236      14.30580053
K       13.23420091      12.85826647      16.87362387
K       17.83878544      11.13207376      17.77045110
K       13.21651140      17.55724629      17.09848993
K       14.94747073      21.78722087      17.04090074
K       20.87270252      15.03503821      18.46804578
K       18.41773596      19.04042429      18.18478867
K       16.26928579      15.26631514      19.63540011
K       11.93933030      15.23577041      20.83274166
K       14.58244764      11.45490065      21.10453765
K       14.83875363      19.25822895      21.01996934
K       18.97049131      12.71042200      22.02274492
K       19.21250134      17.31480407      22.34567801
K       15.35312974      15.33706127      23.94634910
25
Properties=species:S:1:pos:R:3 config_type=qcd gap_pre_relax_energy=-19.53293612727229 gap_pred_energy=-19.579526159438487 gap_fmax_final=0.0009769144211962016 gap_converged=1 pbc="F F F"
K       18.87471197      15.16363405      10.55259056
K       15.24471241      17.88263780       9.65931189
K       14.57832229      13.67658575      11.45880813
K       19.43838537      19.65854992      11.61129099
K       18.07472039      12.53517093      14.30084492
K       16.37033068      17.10961424      13.72420705
K       21.01240710      16.41456416      14.43457853
K       11.88711731      17.04217671      13.20715768
K       18.15047718      20.43190738      15.97089651
K       13.71039057      13.88548492      15.97781003
K       21.10797385      13.13430558      17.84242937
K       22.38760494      20.71226151      15.42723907
K       16.82943956      11.65315845      18.74759173
K       20.30500924      22.08433684      19.69700151
K       13.93138643      18.97039080      16.86138623
K       10.52839991      16.60533688      17.93585442
K       21.48812673      17.74286695      18.85278479
K       17.60683194      15.79374964      17.42079913
K       17.03940201      18.98133964      19.96115095
K       16.68129515      21.90825779      23.07302789
K       12.75450295      19.47046957      21.28936317
K       20.22293038      18.93698207      23.11968522
K       14.18379164      15.21252068      20.39659072
K       18.86363584      14.74284129      21.64912749
K       15.92582453      17.44858677      24.02620236
26
Properties=species:S:1:pos:R:3 config_type=qcd gap_pre_relax_energy=-20.600861078437116 gap_pred_energy=-20.659561342161165 gap_fmax_final=0.0009350528658059774 gap_converged=1 pbc="F F F"
K       18.90455564      14.37359898       8.99208330
K       17.42492808      18.41971493      11.09641096
K       14.21130026      14.42362059       9.66849892
K       16.69043577      10.56251120      10.75619688
K       13.25102123      11.91570990      13.47978057
K       20.82205369      11.57461739      12.65083850
K       10.36117665      18.80636464      15.28273453
K       13.91421745      16.86287634      13.40018125
K       21.37440199      16.17828860      12.54301165
K       10.17043026      15.12271409      12.18854396
K       17.37788365      14.26091881      13.06888034
K       15.11813481      21.04353481      14.46098098
K       17.38854715      10.06879265      15.41265317
K       18.42338680      18.03067805      15.57747186
K       11.05828535      14.40998927      16.67760012
K       15.71147270      14.07940507      16.80080893
K       20.36103236      13.91035177      16.70960589
K       13.47521431      10.53125808      18.03224223
K       14.25296639      17.81240776      17.62318274
K       12.45924457      21.70399435      18.39247915
K       17.08526363      21.05551648      18.80403811
K       17.62089649      11.76584429      19.91493693
K       10.44913880      17.66068387      19.85858908
K       18.11020691      16.46928448      19.99279781
K       13.64601129      14.32055778      20.86404987
K       14.48315290      18.78212496      21.89676138
26
Properties=species:S:1:pos:R:3 config_type=qcd gap_pre_relax_energy=-20.461336561907956 gap_pred_energy=-20.54927806913763 gap_fmax_final=0.0009143511288226086 gap_converged=1 pbc="F F F"
K       13.53778607      16.16932867       9.21081922
K       11.92078014      12.99733191      12.38677972
K       16.43154779      13.31595199      11.52995539
K       10.03439643      17.37758588      12.16846326
K       17.58917133      18.33247961      10.51447933
K       21.09905217      19.40400759      13.70630718
K       13.39516445      20.53356643      11.05763482
K       14.17958625      16.97500131      13.44122942
K       19.02442712      11.85010952      15.19276253
K       15.09394984       9.72098496      14.07991692
K       18.30690727      16.22255023      14.40898659
K       16.75468315      20.81355383      14.30234249
K       11.67116308      20.35593821      15.51041628
K       14.54864663      13.52190181      15.98658401
K       10.81003756      15.95810143      16.56001340
K       22.05976672      15.80291147      16.83348489
K       15.03496591      18.14815986      17.49502681
K       19.34741713      19.34598470      17.96653545
K       17.74924855      14.95372199      18.48634798
K       16.39355031      10.46635632      18.70644812
K       11.68812948      18.75874249      20.10779590
K       20.82406155      12.04657689      19.50771293
K       13.40598273      14.48821762      20.22799121
K       20.68069508      16.41083031      21.35724279
K       16.14183132      17.82502402      21.83073185
K       17.32369759      13.25172662      22.47063719
27
Properties=species:S:1:pos:R:3 config_type=qcd gap_pre_relax_energy=-21.452465584380676 gap_pred_energy=-21.518680607917982 gap_fmax_final=0.0009631375051944945 gap_converged=1 pbc="F F F"
K       16.68976255      17.34859168      11.18798277
K       12.10460320      17.93809995      10.96049934
K       13.77012429      13.74781104      12.01700262
K       21.08922010      16.33605466      13.21959579
K       18.39227849      12.90405504      11.25198782
K       19.68628047      20.72966406      12.23514463
K       16.19001337      10.29373966      14.60500993
K       13.48053125      17.74903949      14.99799466
K        9.94808932      15.07627921      14.35023074
K       17.19814478      14.73634435      15.01531078
K       20.59929397      12.03789894      15.27499381
K       15.05657088      21.37344220      12.90129965
K       11.48435572      10.61733726      14.56036528
K       17.69786102      18.76498578      15.60854244
K       18.24296011      22.99756625      16.22413164
K       21.88948105      19.86181726      16.25082343
K       13.62227213      13.74403149      16.76466266
K       14.28974058      21.01006844      17.96387857
K       20.48971487      15.85650430      18.12422902
K       13.69522144       9.75738889      18.57411008
K       11.22042496      17.22810375      18.83211094
K        9.87132584      12.67487571      18.59792397
K       17.57645939      12.26366844      18.94841313
K       15.68684164      16.88361904      19.01630543
K       18.90092719      19.86757572      19.90661608
K       13.79221892      13.57238393      21.35454260
K       18.24032464      15.53409564      22.16133437
27
Properties=species:S:1:pos:R:3 config_type=qcd gap_pre_relax_energy=-21.59113825176463 gap_pred_energy=-21.65398664662795 gap_fmax_final=0.0006497279747789895 gap_converged=1 pbc="F F F"
K       15.99646266      19.83754215      11.44484836
K       19.34058588      16.40023173      10.42659543
K       11.57499448      18.54400296      10.55009384
K       14.77371501      15.02464079      10.62801077
K       10.33412613      14.50452215      12.56088688
K       13.23444450      17.32644424      14.37237406
K       14.02213814      12.74888985      14.66847228
K       12.41348994      21.59966047      14.04949127
K       17.31825855      16.49189954      14.17881281
K       21.65179658      15.28179826      14.59754193
K       18.17713865      12.27548123      12.52897165
K       20.17418943      19.73405884      13.74757698
K        9.05203874      18.38439319      14.84046658
K       21.17531098      10.80506288      15.90959730
K       16.73696138       9.34313723      16.13816547
K       11.93375282      19.58456787      18.34220890
K       17.96908289      13.50979354      17.01749571
K       10.78250701      14.77392755      17.40144370
K       16.27394994      20.62502481      16.28234784
K       19.53547596      17.99418076      18.10507170
K       15.07103224      16.35350318      17.98491618
K       21.68662321      14.12577718      19.21962273
K       14.19502769      12.02845251      19.30787146
K       18.65547142      10.64169027      20.20382941
K       15.97981990      19.47235428      20.86563433
K       17.58881736      15.02522517      21.49372208
K       12.78006498      15.99101380      21.56120679
28
Properties=species:S:1:pos:R:3 config_type=qcd gap_pre_relax_energy=-22.479475249757144 gap_pred_energy=-22.526799599967497 gap_fmax_final=0.0009991329759637712 gap_converged=1 pbc="F F F"
K       16.37484235      20.60447138      12.17337262
K       21.14151655      23.61629143      17.64113065
K       16.73394225      23.06814458      16.28764181
K       12.58086984      20.48570914      14.94454436
K       14.03973117      20.37572493      19.54196724
K        9.76495649      18.81808036      18.32138937
K       20.41934529      20.47972817      14.55066196
K       18.78409177      20.46006791      19.73200372
K       16.56796449      18.75108851      16.08227427
K       10.11137971      16.33620640      14.33072855
K       14.32452758      16.39508780      12.57122394
K       13.29370828      16.44756294      17.30460456
K       23.16773054      19.48809121      18.24350644
K       18.90382767      16.52464743      12.51788716
K       12.12094133      16.43385425      21.58251435
K       16.61317847      16.50808713      20.58508551
K       19.97287581      16.66047117      17.29394075
K       23.14661697      16.66627964      14.29909156
K        9.97180824      13.84868824      18.32628695
K       21.14319771      16.74696057      21.55213117
K       16.69681276      14.32781389      16.11370363
K       12.79559969      12.40815962      14.87693117
K       16.75544677      12.33372973      12.25621052
K       14.36156655      12.54156962      19.65517274
K       20.75905517      12.64512817      14.96757248
K       23.55780561      14.43382055      18.35447344
K       19.22017855      12.72995826      19.63947784
K       16.88290055      10.07099514      16.46088941
28
Properties=species:S:1:pos:R:3 config_type=qcd gap_pre_relax_energy=-22.22681785490326 gap_pred_energy=-22.333134781855037 gap_fmax_final=0.0008855166844822835 gap_converged=1 pbc="F F F"
K       13.69897294      23.28336087      19.00668937
K       12.57974604      20.33550986      15.54745499
K       20.93027889      20.99367715      14.46421233
K       12.95153985      19.54118514      10.94706060
K       11.00076125      15.97907470      17.72137829
K       13.26357714      19.06191483      20.33069384
K       15.64635103      17.64974913      23.99981477
K       19.13213061      12.60682434      10.78852101
K       21.17389127      20.43440767      19.23170185
K       20.31166806      18.48774050      23.43169548
K       17.14234656      14.65908022      14.08036375
K       15.18682320      16.89485358      16.90564019
K       17.13746902      21.11078534      17.21645538
K       18.47697589      14.12858627      22.97892669
K       13.75294929      12.45034389      16.49085611
K       16.76393488      19.24958534      13.21202958
K       19.91950970      17.24343103      16.30211639
K       12.61572706      15.83751249      13.38316171
K       18.01561614      13.07990619      18.41685542
K       21.34527371      13.15823267      15.06148431
K       17.70372056      17.45361289      20.09498478
K       17.04530132      21.55424409      21.76478876
K       14.15523591      14.43607678      20.75824223
K       21.80749112      15.44337640      19.97112178
K       14.50333671      11.96867468      11.77295564
K       17.69226808      10.26289255      14.66509475
K       15.95345264      16.09014846      10.00861359
K       20.48283928      16.99440106      11.83627454
29
Properties=species:S:1:pos:R:3 config_type=qcd gap_pre_relax_energy=-23.105004399593113 gap_pred_energy=-23.201219805679965 gap_fmax_final=0.0009784811620532417 gap_converged=1 pbc="F F F"
K       12.98672055      16.95971898      11.26724074
K       17.34183840      18.90270021      11.88511366
K       13.28087243      12.33389004      11.50987042
K       16.86311431      14.94108001       9.64105762
K       13.52942472      21.51339118      12.50910271
K       11.44433213      14.57142578      15.07850886
K       16.05833429      14.67163255      13.86569445
K        9.93058483      18.96483216      14.47015499
K       14.13043700      18.36808970      15.47618640
K       21.05541132      20.34006633      14.37812127
K       20.55567891      15.58397874      12.85634247
K       16.98015450      22.18176835      15.72341101
K       23.11533270      12.92819766      15.76520167
K       18.17796607      17.69784350      16.18990243
K       22.42504049      17.01804253      17.35534072
K       18.80573861      13.01409077      16.78667555
K       12.31626749      22.13002595      16.98725989
K       14.41724776      11.07054445      16.07490293
K       20.07645243      20.75954862      18.99234181
K       14.65633428      14.97546203      18.27429248
K       11.28198666      17.93275945      19.01715136
K       15.47792339      19.91334684      19.65163489
K       21.73245618      13.29316357      20.23825452
K       18.51813026      16.38161328      20.02467890
K       22.30210236      17.67721254      21.88318651
K       17.01863712      12.15231653      20.82401790
K       18.25353347      19.35005304      23.34122689
K       14.76551417      16.27398573      22.57385855
K       19.16291424      14.75970057      24.01974947
29
Properties=species:S:1:pos:R:3 config_type=qcd gap_pre_relax_energy=-22.95462509410018 gap_pred_energy=-23.057063419941507 gap_fmax_final=0.000977355263095952 gap_converged=1 pbc="F F F"
K       18.42198750      16.31271322      10.98574167
K       14.27833081      13.89465807      10.64222496
K       18.16109376      11.69583179      12.24953797
K       13.74347667      18.25187414      12.32088276
K       20.62209210      14.72078418      14.85873597
K       15.97265222      14.78557049      14.52453835
K       11.32808054      14.72499505      14.37700784
K       21.82072398      18.75741906      13.29751014
K       10.19594103      19.22293637      15.07137494
K       14.19509951      22.08880356      15.61351762
K       18.97969416      22.79142237      16.29978703
K       14.12692284      10.84443455      14.42822654
K       17.52867940      18.95032580      14.54017458
K       24.38862020      16.55882210      16.83088442
K       10.15760359      16.05210052      18.71529623
K       20.79142852      18.81569343      17.71488273
K       18.13277229      11.38999663      17.06945497
K       13.72444397      17.65889023      16.93930417
K       17.58608353      15.76987399      18.22287447
K       21.47636746      14.13684620      19.50991173
K       16.58978935      19.87269391      18.95871174
K       23.30343953      18.10395406      21.17416007
K       16.25128252      24.08514316      19.75797827
K       20.11143005      21.70056888      21.10133360
K       13.71186138      13.13195128      18.44783080
K       18.89942954      17.32607888      22.23406678
K       17.32200463      12.94882248      21.45661011
K       14.19318433      16.65026394      21.52393911
K       16.01201865      20.78306572      23.16003450
30
Properties=species:S:1:pos:R:3 config_type=qcd gap_pre_relax_energy=-23.979317560033262 gap_pred_energy=-24.059761829543515 gap_fmax_final=0.0009235232293872625 gap_converged=1 pbc="F F F"
K       14.42699052      13.24499151      20.74596917
K       13.58428550      15.50099380      16.61225861
K       16.92667264      20.89488693      20.65483125
K       16.90053158      21.01547605      12.59318809
K       10.06202415      14.61171977      14.29940855
K       12.24698584      11.31313542      16.87895648
K       10.40831619      18.84147178      16.67124048
K       20.88139496      17.95722016      12.68630020
K       12.47815947      22.34053519      19.01883639
K       23.64581628      14.50074163      14.25669819
K       16.88557277      16.54272678      18.86344242
K       18.97553005      19.69089385      16.54446655
K       14.83069013      19.72406390      16.55813971
K       20.75839249      18.04319610      20.66634185
K       14.38687262      12.93978803      12.89181282
K       23.57109445      14.68583763      19.13782800
K       12.37514580      22.32342246      14.20597272
K       21.45782594      22.24838659      14.17603854
K       23.38496401      18.73517862      16.62748539
K       19.28661912      12.89850114      12.87731642
K       21.42486793      11.23727659      16.85097369
K       12.87334174      18.02406189      12.71093325
K       21.38787832      22.26635513      18.98933309
K       13.04787519      18.10566328      20.69205807
K       16.86981231      16.53370450      13.86398327
K       10.17166809      14.79632679      19.18073298
K       16.90018806      16.60935954      23.10416792
K       16.84198377      12.17012264      16.76724771
K       20.15463868      15.44665815      16.59067182
K       19.30099653      13.20443929      20.73050153
30
Properties=species:S:1:pos:R:3 config_type=qcd gap_pre_relax_energy=-23.999525509012575 gap_pred_energy=-24.079890515811982 gap_fmax_final=0.0007004204676024178 gap_converged=1 pbc="F F F"
K       20.19671022      16.61684985      10.41027798
K       17.58145886      13.83028993      13.03233342
K       15.43824970      17.65133623      11.65400069
K       21.25235026      12.16101676      11.09393638
K       23.02977112      19.76186692      13.09882946
K       11.92182601      18.70778534      14.92486194
K       15.61852915      16.44246956      16.07537587
K       12.65348767      14.17723771      13.74936284
K       22.67129931      15.22960148      14.07406236
K       15.79399800      21.21756161      15.31325869
K       19.13997289      18.36466216      14.27086237
K       16.03125069      11.92483501      16.97026753
K       20.36595300      22.23755704      16.25490279
K        8.77710124      15.63287463      15.77239882
K       20.53303747      11.08794919      15.50466283
K       19.41697961      15.00996082      17.21000125
K       23.35943127      13.81518028      18.52833152
K       22.79694970      18.34178751      17.46579393
K       12.09960844      22.47904837      17.73698093
K       12.21579168      14.59426076      18.45657479
K       19.56320162      11.55752180      19.99898766
K       12.73382258      21.43807197      22.24748512
K       18.62030584      19.05952455      18.83754843
K       14.21809108      18.83895706      19.08728895
K        9.81088950      18.59622016      19.15466945
K       16.24388933      14.84442511      20.67288562
K       20.53805652      16.11036298      21.61806913
K       16.40753799      22.87605745      19.53709870
K       12.46714636      16.80699966      22.60457002
K       16.76696636      18.85139154      22.90798400
30
Properties=species:S:1:pos:R:3 config_type=qcd gap_pre_relax_energy=-23.951548284434338 gap_pred_energy=-24.09344249206877 gap_fmax_final=0.000930869891300303 gap_converged=1 pbc="F F F"
K       18.63164471      17.24381955      10.70277633
K       14.12979630      18.28354476      10.62965185
K       21.59667467      20.88548331      11.26945929
K       15.38639362      14.08517000      11.54092702
K       17.00777720      21.47505777      12.26776608
K       23.02528073      16.65123820      12.65733688
K       19.47592919      14.23785649      14.27417804
K       12.92556122      20.61997885      14.26195965
K       19.80557739      18.90373345      14.78404916
K       15.88513626      17.25880232      14.66485985
K       20.45075431      23.30070598      15.10547174
K       11.89667437      15.64107708      15.05434835
K       23.96624333      20.24412944      15.46863525
K       15.56667682      12.23675954      15.58936553
K       16.67716743      21.45496162      17.00662627
K       22.45158714      16.18671743      17.48936553
K       11.45124925      11.77557543      17.69811773
K       19.28786646      12.89990466      18.71083114
K       13.18773233      19.01639249      18.47233597
K       14.44713065      14.87590051      18.89558382
K       20.89786523      20.55671989      18.99027094
K       18.05630627      16.99107741      18.28281337
K       15.51555784      10.53137029      19.81854596
K       10.12361935      15.78119494      19.53081848
K       16.85050041      19.77115631      21.37474414
K       20.55482242      16.77968480      21.80729644
K       12.26708259      12.68896120      22.23452438
K       16.86731902      14.09061013      22.50309118
K       13.36547348      17.12249318      22.88437828
K       17.42109162      17.58241459      25.20236297
31
Properties=species:S:1:pos:R:3 config_type=qcd gap_pre_relax_energy=-25.130937562692996 gap_pred_energy=-25.20177261780135 gap_fmax_final=0.000982471312859039 gap_converged=1 pbc="F F F"
K       17.29608478      16.39927982      19.84312627
K       18.68928013      12.27705537      20.79245438
K       13.63580345      14.05038260      20.96956990
K       13.69782214      18.99467503      21.06739759
K       18.36696984      20.60788095      20.99195415
K       21.64553388      16.36939405      20.80767768
K       16.19959776      13.12206481      17.06297528
K       14.68731514       9.96278950      14.53601954
K       13.58731917      16.49561374      17.06775077
K       10.05924798      16.60349762      14.61197443
K       16.04605840      19.89982804      17.07723436
K       14.84169665      23.22105563      14.62755977
K       20.06930314      18.48125512      17.08134443
K       22.60264573      20.92005445      14.57064029
K       20.80407280      13.87611946      16.94589575
K       17.33155076      16.38729256      14.75322299
K       17.28527929      16.43750932      10.52065571
K       14.72253030       9.79195962      19.33524717
K       18.77030869       9.59626699      16.81396847
K        9.98179663      16.56978868      19.37789052
K       11.55032616      12.54215371      16.98593342
K       14.83300307      23.28763503      19.39541847
K       11.52480234      20.57708507      17.00120787
K       22.75680774      20.92228391      19.37278832
K       19.15858968      23.07485455      17.01968150
K       24.23062662      17.15457430      16.84039017
K       13.76542205      14.19078225      12.92595039
K       18.47026720      12.44241414      12.95582709
K       13.83792847      18.91647544      12.91657372
K       18.29972430      20.46996942      12.94857737
K       21.44422511      16.54994819      12.97503162
31
Properties=species:S:1:pos:R:3 config_type=qcd gap_pre_relax_energy=-24.985321458046332 gap_pred_energy=-25.0770786149335 gap_fmax_final=0.0007840137940768281 gap_converged=1 pbc="F F F"
K       16.51223974      19.81746357      10.16528102
K       20.62347240      17.40412842      10.26522374
K       20.38333336      21.97748125      11.85427049
K       16.49813664      15.26331228      11.35954245
K       13.64094560      18.52592260      13.56254478
K       16.21644571      22.79893440      13.92787878
K       18.49731877      18.61321865      13.82923652
K       23.03569286      18.91393169      14.31664130
K       12.60172204      13.80507304      14.62880719
K       20.44974471      14.27923059      13.79545446
K       16.73688252      11.24810562      14.84646126
K       16.45282112      15.47873890      15.80782716
K       20.33139330      22.00536103      16.55233540
K       16.40916963      19.72218734      17.24898796
K       12.78896065       9.65502671      16.66192944
K       10.36467148      13.21327961      18.64316004
K       14.69690046      12.90948444      18.86106013
K       23.32258382      19.70642755      19.22680980
K       12.62186962      21.86210731      16.80525143
K       20.44205162      17.10193327      17.49162106
K       12.45309593      17.21493491      17.88606279
K       19.50534019      12.81139456      18.26681014
K       16.85933616      16.52984688      19.98113372
K       14.26310086      20.10699934      21.27155730
K       16.47690542      23.77272871      18.69715381
K       21.02324750      16.31577024      21.92020723
K       12.96763349      15.61698453      22.15939364
K       16.88761507       9.16834888      18.98279945
K       19.08816487      20.46784224      20.98140445
K       17.55746213      12.87265856      22.46369683
K       16.91647733      17.44587785      24.16419121
32
Properties=species:S:1:pos:R:3 config_type=qcd gap_pre_relax_energy=-26.116566075443835 gap_pred_energy=-26.160281016831405 gap_fmax_final=0.000995933570960574 gap_converged=1 pbc="F F F"
K       17.28873404      16.33938641      19.08307945
K       17.23664755      16.36135669      23.27508210
K       18.39452435      12.31612865      20.69208340
K       13.72695023      14.08922539      20.82445895
K       13.80996902      18.85450350      20.87374077
K       18.31136343      20.41734788      20.84555085
K       21.44923095      16.54657695      20.70833815
K       16.09261549      13.03408883      16.72774999
K       14.59230470       9.85693167      14.30135048
K       13.52889137      16.45124231      16.74448471
K        9.99406267      16.56262535      14.36352360
K       16.02127900      19.88825839      16.75541228
K       14.82071018      23.22426794      14.38517656
K       20.06296004      18.51735556      16.74744548
K       22.61708157      20.94461598      14.33569497
K       20.74881965      13.84220988      16.73410970
K       17.28398575      16.35748399      14.39719176
K       17.21752949      16.41697645      10.20312586
K       14.60676537       9.84048866      19.14021574
K       18.70667648       9.58406741      16.70874566
K        9.99918616      16.54413270      19.13818108
K       11.43947155      12.51179225      16.73953903
K       14.82875591      23.20358593      19.16096389
K       11.49710582      20.54085307      16.76280451
K       22.62316757      20.92140271      19.17183074
K       19.10290529      23.10761721      16.77083329
K       24.15479166      17.11710840      16.73384146
K       13.72121357      14.11792907      12.64534380
K       18.36320770      12.34475130      12.74893406
K       13.79996158      18.88759991      12.63545810
K       18.30270245      20.44639498      12.66355786
K       21.43569265      16.59095788      12.76141499
32
Properties=species:S:1:pos:R:3 config_type=qcd gap_pre_relax_energy=-26.00193168172607 gap_pred_energy=-26.06027740955092 gap_fmax_final=0.0009090515546521968 gap_converged=1 pbc="F F F"
K       21.16870642      17.97767630      21.11163454
K       14.40279189      13.27794781      13.09848342
K       18.98851344      19.54998441      17.26584572
K       12.96761082      17.94771582      13.11059436
K       20.73772279      17.98531993      13.05580900
K       12.69950986      22.50207225      19.57699527
K       16.83770386      20.72738243      13.12097359
K        9.88528098      14.51904722      19.39418330
K       10.16666781      14.57741481      14.68536087
K       16.85647013      23.57522237      17.23223036
K       20.27669638      15.49601103      17.24650981
K       10.31743586      18.74492009      17.09147761
K       23.59236836      14.64030928      14.58835337
K       16.87418767      16.43831320      15.01500928
K       14.76054801      19.52971505      17.29558099
K       12.65200359      17.93485942      21.17450806
K       16.91096579      16.57637309      20.17427945
K       16.91096007      12.59767141      17.69752748
K       16.89464442      21.00977819      21.18588369
K       12.71982604      11.11741715      16.82923435
K       23.43595597      18.80310457      16.99370178
K       20.96517138      22.42535753      14.75645180
K       19.81164165      13.29391999      21.23537285
K       21.10158829      11.15680669      16.77104801
K       16.84138671      16.64695761      10.72565220
K       14.05477121      13.26716049      21.27695051
K       21.04600750      22.54923175      19.51717040
K       16.90136505       9.69043615      14.59978903
K       23.94197384      14.58871673      19.29299894
K       13.51076434      15.46361212      17.29604988
K       12.71582204      22.38174826      14.81363191
K       19.34584177      13.30070079      13.06361211
33
Properties=species:S:1:pos:R:3 config_type=qcd gap_pre_relax_energy=-26.983982729476775 gap_pred_energy=-27.034883087022553 gap_fmax_final=0.000985388020923213 gap_converged=1 pbc="F F F"
K       16.84983754      13.19717795      17.07595701
K       14.24456110      13.18036447      20.95050246
K       16.74752404      23.72694038      17.04925746
K       16.79126961      21.17472548      21.05963118
K       20.93174868      11.26983032      16.90071954
K       20.99383672      18.16747185      21.03401923
K       13.38237612      15.66769058      17.09960280
K       18.92671645      19.76990562      17.16738752
K       12.85501889      18.12944819      12.94381672
K       20.92733808      22.58947028      14.67671352
K       12.52585379      22.61194417      19.43749990
K       20.27315483      15.73210026      17.11757899
K       14.66808073      19.72722978      17.16055704
K       20.77626967      18.19958944      12.95862814
K       19.43445356      13.22225331      20.96195970
K       23.54372109      14.73702121      14.57978026
K       16.81286324      16.78018484      19.98517453
K       16.80032240      21.04196201      12.99128793
K       14.41076460      13.48610635      12.88294025
K       12.64616848      22.52103401      14.66053145
K       12.59916066      18.07763761      21.00900496
K       12.80559243      11.19556247      16.87752889
K       16.82309187      16.85295278      14.73461316
K       16.88652992       9.80659220      14.49726472
K       23.71209195      14.60223418      19.35583293
K       10.23289233      18.89679381      16.96534937
K       21.04995725      22.66229561      19.45872388
K       23.37257755      19.02371484      17.00426852
K        9.95212859      14.47576270      19.31917914
K       19.30399189      13.53058686      12.89647272
K       10.13915698      14.62375767      14.54398334
K       16.83164626      16.90205363      10.50961234
K       16.88567142       9.55397387      19.27098919
33
Properties=species:S:1:pos:R:3 config_type=qcd gap_pre_relax_energy=-26.957136483773343 gap_pred_energy=-27.004166239214985 gap_fmax_final=0.0009826879706501593 gap_converged=1 pbc="F F F"
K       17.79231417      18.94514615       9.51235697
K       13.81260902      21.01049729      11.26137485
K       13.82331739      16.37728271      10.04834063
K       18.09994614      14.48441046      11.19266806
K       20.88893677      18.10139085      12.88699010
K       11.45752249      17.71897488      14.06873286
K       21.94178376      13.51134325      14.07956975
K       18.46611594      15.33971164      15.57569451
K       18.04766999      22.30034188      13.06843317
K       16.09336652      18.05550632      13.33843483
K       14.23821101      21.70911617      15.83061009
K       14.09987118      13.78569695      14.00929397
K       17.93611554      10.90710075      15.19381559
K       18.36554709      19.65847205      16.61926764
K       21.98647308      21.70542189      15.77562841
K       10.99977182      19.07622496      18.61754112
K       14.59674767      17.36181903      17.22539179
K       22.40395852      17.10202082      17.30880453
K       13.54122712      10.15732480      17.00816532
K       18.19936820      23.73460418      17.94331384
K       11.30588640      14.39474382      17.79023102
K       15.88747647      13.52235238      18.41203174
K       20.65204989      12.88717530      18.72911019
K       20.94116920      20.48815057      20.27135406
K       15.44349842      20.68203730      20.22211183
K       18.23913110      16.86661303      19.74231553
K       17.37645613       9.75679094      19.79763315
K       18.23984701      23.19637085      22.56716677
K       13.99847165      16.48446871      21.67762448
K       21.73461240      16.12010199      22.03092939
K       13.39942386      11.88528706      21.47436395
K       17.65702843      13.64487253      22.73703265
K       17.97653526      18.67108816      23.62612686
34
Properties=species:S:1:pos:R:3 config_type=qcd gap_pre_relax_energy=-27.926056462716105 gap_pred_energy=-27.963072176390334 gap_fmax_final=0.0008386441645195109 gap_converged=1 pbc="F F F"
K       16.66962554      16.67317612      19.08003138
K       16.65403059      16.66140421      23.25031875
K       17.96677560      12.67355079      20.76243121
K       13.29222831      14.17558708      20.76253235
K       13.27709470      19.14792166      20.75894851
K       17.95735352      20.67567998      20.76608936
K       20.87328725      16.69488863      20.75611980
K       15.54607735      13.18570262      16.67380750
K       14.52218426       9.86818927      14.26201896
K       13.03606972      16.66555256      16.67389227
K        9.57840350      16.64731142      14.26380066
K       15.54115527      20.15087989      16.67481770
K       14.47058955      23.44860668      14.26131806
K       19.61807726      18.82960755      16.67500480
K       22.40536932      20.88975367      14.26367051
K       19.61874180      14.53449447      16.67449259
K       22.45080289      12.54289392      14.26619778
K       16.67020074      16.67384938      14.26901240
K       16.65545226      16.66312770      10.09841587
K       14.52183680       9.86673445      19.08370753
K       22.45052633      12.54228187      19.08279435
K       18.79380265      10.08745456      16.67307185
K        9.57872536      16.64637743      19.08404427
K       11.07566731      12.62197246      16.67342992
K       14.46918721      23.44886457      19.08805996
K       11.07968416      20.72435890      16.67430150
K       22.40375503      20.88906291      19.08848466
K       18.80446463      23.26198880      16.67534254
K       23.57671183      16.66518048      16.67572410
K       13.29259680      14.17784070      12.58459335
K       17.96790204      12.67471625      12.58549156
K       13.27737649      19.14795743      12.58975047
K       17.95982989      20.67651071      12.58442012
K       20.87441752      16.69652437      12.59386686
34
Properties=species:S:1:pos:R:3 config_type=qcd gap_pre_relax_energy=-27.728886160397394 gap_pred_energy=-27.864867377507846 gap_fmax_final=0.0009067449715653575 gap_converged=1 pbc="F F F"
K       17.26794997      19.14022798      10.75081378
K       20.05247016      15.30044100       9.93518832
K       17.95232089      11.34556382      11.49844909
K       15.34575870      14.89887191       9.46651481
K       20.99777768      18.11070794      13.57900047
K       13.55677565      12.44824259      13.29952033
K       12.89657772      17.20199987      12.71341277
K       18.99363724      22.42743042      14.21445395
K       17.26452511      15.19252931      13.27510706
K       17.24303572      11.35061962      16.10705539
K       14.47224676      15.14435422      16.59130946
K       21.46698181      13.37041252      14.12961800
K       14.24170445      21.96625100      13.32447662
K       10.27585092      14.82278395      15.83949870
K       12.15733165      19.36828885      16.78908407
K       23.26751825      21.26540768      16.27712689
K       16.42658271      18.87701251      15.14245673
K       18.90201462      15.48378460      17.14434674
K       15.70548284      22.39256839      17.96747352
K       19.60212650      19.59342142      17.87356450
K       23.22026980      16.65242584      17.68326565
K       20.07139033      23.74122955      18.80160282
K       12.95945282      11.34827598      17.92208315
K       15.95725283      17.89902074      19.42868153
K       21.29459330      12.49880444      18.92260744
K        9.04957841      12.65552877      19.70934940
K       11.84988496      16.14757057      20.14335703
K       22.57921103      20.18781615      20.88569592
K       16.57617155      13.23958772      20.37514075
K       13.30711804      20.54539669      21.54110170
K       19.92244215      16.40785870      21.47337349
K       18.02051321      20.84534319      22.05672329
K       12.69585149      12.51783388      22.54521023
K       15.22626587      16.43105334      23.41200151
35
Properties=species:S:1:pos:R:3 config_type=qcd gap_pre_relax_energy=-28.738025109803775 gap_pred_energy=-28.786644670296383 gap_fmax_final=0.0009939121943625634 gap_converged=1 pbc="F F F"
K       17.83144811      12.84291117      10.39021446
K       16.62393331      17.29864723       8.98031705
K       13.29676708      14.22370713      10.61710923
K       20.73721343      16.62439957      11.37229821
K       15.19237798      11.68567971      14.25035336
K       16.43564272      15.96372758      13.03409565
K       14.21803690      22.96533258      14.37816316
K       19.91605801      13.08133990      14.60993696
K       13.10035443      18.93156776      11.77124374
K       17.76612345      20.54339356      12.11691417
K       23.53204127      16.11699892      15.69866639
K       22.25879086      20.52502952      13.91794442
K       12.13952195      15.41178932      15.02348194
K       10.91914818      19.95618600      16.43337958
K       19.44475862      17.83817378      15.44385795
K       18.55376203      22.36207016      16.53161270
K       15.21799536      19.11743447      15.67376040
K       16.30446182      14.79271636      17.11914103
K       22.85074507      11.96748481      18.12737890
K       22.02387562      19.79983458      18.71951366
K       20.17531761      15.30055959      18.81952780
K       14.47373692      22.06478686      19.12351264
K       18.13549958      11.17148614      18.76567323
K       17.60892017      18.69267535      19.36903989
K        9.44851899      16.01057752      18.84769173
K       13.55968329      17.29728741      19.18237581
K       12.96677453      12.71545955      19.03864882
K       24.05404603      15.99657378      20.46752091
K       18.77525050      22.15134918      21.40626762
K       10.89448347      19.94989597      21.21378296
K       16.52494072      14.64944214      21.82609403
K       20.87565516      12.89350217      22.34547241
K       20.23499722      17.69160840      22.81107076
K       15.23355990      19.16125216      23.09294452
K       12.01123809      15.54079803      22.81667226
35
Properties=species:S:1:pos:R:3 config_type=qcd gap_pre_relax_energy=-28.59279925290452 gap_pred_energy=-28.704648336940426 gap_fmax_final=0.0009326403997343334 gap_converged=1 pbc="F F F"
K       13.58141151      15.98188572       9.68460904
K       17.83224769      14.15957504       9.54518456
K       17.29118780      18.93988238      10.57876254
K       14.44110043      11.78524868      11.59669539
K       20.73167871      16.11868347      12.44059783
K       16.57639205      22.69038074      13.78180254
K       11.56114810      14.82642534      13.68729216
K       13.42896704      19.12616294      13.13938908
K       20.95261134      20.97114342      12.58725008
K       16.01140264      15.51099532      13.38704340
K       18.78313868      11.70502358      13.46097549
K       18.77112294      15.14895687      16.54689249
K       22.58129335      18.00298873      16.18847969
K       18.01812399      19.04696943      15.05955745
K       12.49714829      22.33328254      15.96159714
K       15.09431847      12.03263802      16.22648622
K       22.55751817      13.23048318      15.76809156
K       20.66435351      22.42772256      16.96540839
K       11.53193571      13.92362522      18.08960825
K       14.54784510      17.87745742      17.48468371
K       10.30573067      18.19791302      16.76579179
K       18.94537453      11.44242231      18.73819792
K       16.25960469      22.37622014      18.43435192
K       19.13063889      18.90586204      19.16428470
K       21.89357232      15.08422967      19.97907359
K       23.22166988      19.54941919      20.52834290
K       17.15443131      15.57787191      20.46903641
K       12.17716266      20.84913115      20.18509357
K       19.75774027      22.33825730      21.80329347
K       12.62874928      16.51574341      21.51878251
K       14.72839612      12.25409965      21.05018442
K       15.92103472      19.68916624      22.50036654
K       20.00069215      17.68326677      23.47856166
K       19.16177864      12.74318996      23.09854216
K       15.81283326      15.50803152      24.66004431
36
Properties=species:S:1:pos:R:3 config_type=qcd gap_pre_relax_energy=-29.58767602997208 gap_pred_energy=-29.638404357378718 gap_fmax_final=0.0007596447463919752 gap_converged=1 pbc="F F F"
K       17.41306206      16.94798243       9.00744792
K       21.42226367      19.00731093      10.65368394
K       20.59642739      14.45315499      11.64113633
K       17.22481198      21.42232078      10.52058350
K       15.63700050      14.02204744      12.26883814
K       13.67303585      18.40846326      11.77187365
K       18.06870223      18.06413172      13.14689193
K       18.28277216      10.59477762      14.43384765
K       11.43652207      14.56929229      14.69518319
K       22.54085086      17.54146911      14.95113211
K       20.28442691      21.96237520      14.36702385
K       18.94834729      14.79396829      15.76543757
K       14.86987642      17.09086496      15.79138788
K       13.45164781      10.23204454      14.02272397
K       15.49988661      21.66338157      14.89044280
K       11.36259049      19.56446986      16.60669276
K       15.67867146       8.89924407      18.06924039
K       18.90089320      18.97638971      17.27081385
K       12.24212093      15.82151910      19.46612948
K       22.63618985      12.80285363      15.73423118
K       15.16362861      19.56412545      19.24785746
K       18.06818949      23.17340464      18.44159471
K       22.33547809      20.98290679      18.76765581
K       11.48371529      11.31801795      18.22913090
K       13.26884778      23.39377212      18.67498753
K       17.05747969      15.67642067      19.64039121
K       15.20192311      12.98213252      16.87342699
K       21.76177054      15.81289912      19.34374559
K       11.57585697      20.11951415      21.56439910
K       20.32675870      23.25020144      22.29422229
K       14.95252928      17.28276566      23.21807860
K       19.18556890      18.98312194      21.84380391
K       15.82899924      22.13823733      22.65188827
K       19.28177535      11.66353364      19.15178296
K       14.94321476      12.19618397      21.45720372
K       18.98238327      14.21291992      23.11330761
36
Properties=species:S:1:pos:R:3 config_type=qcd gap_pre_relax_energy=-29.400758250533016 gap_pred_energy=-29.487911704867813 gap_fmax_final=0.0009464758974442603 gap_converged=1 pbc="F F F"
K       18.58993617      15.87885810      14.31369630
K       11.48669908      16.46477110      21.81506956
K       17.68658473      16.58291982       9.99231347
K       22.87818437      17.26335257      20.23956464
K       19.47783413      15.41525205      23.09594337
K       12.98492786      12.14701053      21.20416593
K       13.13583870      15.24676654       9.77627964
K       17.47267327      22.73357769      17.19159610
K       16.14759186      18.43309284      17.02084733
K       17.51567303      11.77897053      21.00150787
K       16.17395021      12.70250208      12.41041954
K       14.28216558      19.82251835      10.24388748
K       14.65468816      13.36563526      16.92984197
K       24.63273298      19.47164205      16.35764795
K       11.76330132      17.36685658      17.21631469
K       17.81131566      20.51211159      13.07462046
K       10.00509167      13.49583054      18.27716449
K       20.83563731      13.35286883      11.76310570
K       15.39087684      19.00893174      23.91313999
K       15.39535755      16.03563176      20.47487434
K       17.17976429      23.03044822      21.83708579
K       14.56104929      16.88047570      13.54415875
K       19.06264730      15.29396481      18.57138155
K       10.56705275      18.37520071      12.60026114
K       19.30004903      11.72406888      15.87872483
K       18.65739517      19.20727978      20.78974798
K       13.52190916      21.37149878      14.78152574
K       20.39156803      19.06719714      16.65760038
K       21.66881096      22.69352446      14.62511387
K       22.06743897      12.67583421      20.05583435
K       11.23085237      13.92307844      13.93115601
K       13.75800860      20.54090726      19.96504902
K       22.86424747      15.03779454      15.96242259
K       22.00621369      18.31597236      12.52605763
K       21.59608571      22.37150414      19.39559016
K       15.18042807      14.34673133      24.50087073
37
Properties=species:S:1:pos:R:3 config_type=qcd gap_pre_relax_energy=-30.381259439660237 gap_pred_energy=-30.466393752954094 gap_fmax_final=0.0009659536436493869 gap_converged=1 pbc="F F F"
K       15.97598764      20.18232890      11.23083071
K       20.61988078      13.44931934      12.46569780
K       18.84665573      16.78092726       9.64653614
K       15.80185260      14.81174687      12.67065614
K       17.48029369      10.74180690      14.81877126
K       20.51720508      21.23074449      11.09655481
K       23.13911929      17.44703977      11.69941924
K       11.77559727      19.35944137      12.71877545
K       18.07122214      22.12207292      15.24133495
K       19.27099427      17.92688831      13.73529444
K       11.22249944      15.87651212      15.49129695
K       21.83767071      11.57088401      16.62771347
K       18.87337720      14.59426127      16.38858893
K       12.82666052      11.53572223      14.29156223
K       23.21063109      16.08662033      16.07750481
K       22.72015373      20.76824403      15.24285256
K       13.84875570      23.06046633      14.23258080
K       15.21586823      18.36079822      15.48334100
K       11.72048722      20.47025167      17.30993238
K       19.71115717      18.59180735      17.91313487
K       14.77784011      13.90551059      17.27387736
K       23.51200391      19.24590991      19.70098500
K       14.48413242       9.64448201      18.35653646
K       19.78112112      22.58313031      19.51477876
K       10.82950270      12.45797020      18.65761632
K       15.13658375      23.77931696      18.59892748
K       18.37718322      11.54594747      19.82506628
K       21.59659284      14.92372364      20.31748698
K       15.88660559      19.84331719      19.58755012
K       12.30849749      16.80181560      19.95610761
K       17.03315478      15.90264068      20.20255530
K       12.43517178      21.28812228      21.83701937
K       19.71783747      18.80814787      22.52185403
K       14.25110742      12.85223103      21.86261497
K       16.75542794      22.42435669      22.95188378
K       15.13785265      17.88516560      23.73595870
K       18.43839562      14.28540854      23.86188284
37
Properties=species:S:1:pos:R:3 config_type=qcd gap_pre_relax_energy=-30.4113397983191 gap_pred_energy=-30.469489764546488 gap_fmax_final=0.0009370854424466653 gap_converged=1 pbc="F F F"
K       19.56266513      15.07895608      24.52672506
K       15.94872995      12.00419631      22.56599444
K       23.03434663      20.85232833      19.56406850
K       21.21099369      21.55543837      15.08410131
K       18.25173788      20.67348543      11.37612045
K       22.69091081      16.02987994      21.00139499
K       16.93571029      19.96889456      15.56160726
K       11.07155456      16.22513219      12.84692496
K       18.60570803      22.62275534      19.02794090
K       16.83006144      15.42997245      16.54767573
K       11.55850371      18.98782277      20.47117156
K       21.11380928      13.57692605      17.02563268
K       17.10912131      11.29018534      18.06862123
K       13.54601962      22.27419131      17.72086953
K       18.22861927      15.20075246      20.50031102
K       14.63213721      13.38142436      10.57828551
K       15.97447502      18.80845823      19.61474965
K       19.43828007      19.41078148      22.56082237
K       19.76090449      17.05777143      14.02040896
K       18.95042158      15.63375904       9.89475343
K       15.50367883      17.05367869      12.44665158
K       13.27906767      17.69879831      16.34993952
K       20.60026128      11.70776922      21.36237838
K       20.10228441      18.25487985      18.12933102
K        9.65998925      19.81886878      16.09417937
K       23.89707315      17.49784906      15.91120886
K       10.00467227      14.95083876      17.35088823
K       13.30738778      21.08834146      13.15364817
K       22.64658559      18.83547190      11.47083882
K       18.20712928      12.62230308      13.42703579
K       13.52823610      13.00930591      15.07459867
K       13.73448759      14.91974726      19.91451447
K       22.68294381      14.23004949      12.58646409
K       12.61361252      10.93797061      19.12950796
K       15.13799749      21.80063367      22.39202429
K       15.34978611      17.13580683      23.69137532
K       16.94102303      24.02550181      14.60816203
38
Properties=species:S:1:pos:R:3 config_type=qcd gap_pre_relax_energy=-31.237657685009193 gap_pred_energy=-31.31146200056671 gap_fmax_final=0.0009783357618395729 gap_converged=1 pbc="F F F"
K       17.06517371      11.51641501      22.54500280
K       21.29699515      22.24034205      15.14575397
K       10.42104466      18.16106135      15.16037076
K       17.07023091      19.77265865      21.87258357
K       19.47142919      15.60711463      21.82030435
K       17.04412360      12.98937597      18.46199762
K       14.87501228      18.31963518      14.47195121
K       20.55119190      19.04870432      18.50130852
K       17.02562085      14.57510579      14.42162135
K       17.04816211      21.64202625      16.86823034
K       14.66279312      15.60989024      21.84482073
K       20.97242630      14.79408094      12.06910899
K       13.04483286      14.81999872      12.11415366
K       13.55484826      19.04449468      18.53884772
K       21.01925029      14.74293416      16.77493311
K       19.38191069      10.77907412      15.05432047
K       14.27044800      23.13048746      20.03226060
K       23.65669039      18.15384071      15.11174485
K       17.01250576      17.10671206      10.48729473
K       17.05467686      17.02931776      18.28523640
K       12.77880934      19.55339659      11.06799991
K       12.33250974      19.72286429      22.64871848
K       17.03928769      21.67365473      12.16660364
K       17.00523938      12.22099023      10.96347649
K       21.24817568      19.54978846      11.01838028
K       19.85024477      23.13307521      20.01205806
K       21.81240440      19.71788095      22.59958395
K       24.26306346      21.17548756      18.76570379
K       13.14447139      11.54158176      19.92773681
K       23.74941956      16.36636796      19.91300745
K       14.66556142      10.78121164      15.08551368
K       13.05976048      14.75018673      16.81846700
K       17.03857389       8.70836378      18.68201406
K       19.19340484      18.31374642      14.44739286
K       10.36377373      16.36432962      19.99409204
K       20.95570111      11.53982964      19.88725128
K        9.85118281      21.18458284      18.83856475
K       12.77725695      22.24759907      15.20979724
38
Properties=species:S:1:pos:R:3 config_type=qcd gap_pre_relax_energy=-31.267638566825866 gap_pred_energy=-31.331016065412086 gap_fmax_final=0.0009728485052758591 gap_converged=1 pbc="F F F"
K       18.89838904      18.07694854       8.90161754
K       14.23751327      19.18823451       9.46851623
K       15.77859480      14.67736396      10.26842207
K       17.64497619      22.24472551      10.88715092
K       20.38079952      14.99447525      12.06980872
K       17.52444022      10.93463653      12.81568136
K       16.98126769      18.40614368      12.72181538
K       12.49530618      16.91510857      13.24174575
K       12.96547126      11.99150931      13.97960550
K       21.41372743      19.80862871      12.51317651
K       13.68675771      21.51127282      13.71009021
K       16.59583779      14.57606587      14.64294032
K        9.37884279      14.65624880      15.99808017
K       18.15939257      22.13953966      15.59244669
K       19.72756778      17.51105142      15.82629719
K       20.65797440      12.85376503      16.31243536
K       15.28968539      18.54610017      16.62069806
K       23.83448763      16.13526470      15.44272474
K       10.98967913      18.97815579      17.24453858
K       18.22516601      19.45558500      19.54114344
K       13.39068406      14.86131634      17.51472449
K       17.52539239      15.13252037      18.89421541
K       24.10636550      13.09812807      19.39674152
K       16.09856621      10.94884117      17.46973661
K       22.19889264      20.86222046      17.62142063
K       11.48683760      11.16519638      18.51473108
K       14.38399558      17.56142579      21.02617773
K       19.06313021      23.59663847      20.13383875
K       21.72339443      16.68178464      19.59071419
K       10.28526109      15.75845825      20.54271400
K       14.59851174      22.30565568      18.77739228
K       19.88729220      12.38922787      21.07364556
K       14.68834594      12.91128017      21.57337350
K       22.68877576      15.15397509      23.48508548
K       18.26129244      16.32500203      23.13894485
K       16.12785597      21.21361360      23.03446321
K       11.40988585      20.48889402      21.60705530
K       21.19056441      19.92591862      22.78701151
39
Properties=species:S:1:pos:R:3 config_type=qcd gap_pre_relax_energy=-31.949605738314666 gap_pred_energy=-32.18272629557975 gap_fmax_final=0.000851411610208858 gap_converged=1 pbc="F F F"
K       12.14569204      16.85208696      10.64838324
K       17.18327193      16.88164228       9.88381859
K       14.26108461      21.13506074      11.23379374
K       19.69035595      13.02623933      10.76222874
K       21.90741251      17.27969963      11.89013780
K       15.01186664      13.25405039      11.99558101
K       18.50343045      20.24265921      12.62554007
K       14.96321374      17.56089579      13.76059974
K       10.90321318      19.53318611      14.45773404
K       17.97589079      24.27846191      14.52002789
K       18.76747748      15.59856486      14.03563084
K       11.20969202      14.88057813      14.86899209
K       21.85726449      21.33114754      15.04115582
K       15.05876581      21.37723786      15.90766726
K       17.98766609      10.89256746      14.74039027
K       22.34299201      12.80529603      14.68445238
K       13.27006511      10.68708633      15.66420928
K       15.49950422      14.20025509      16.50729617
K       22.95022699      17.01067311      16.33966902
K       22.82561858      20.26776535      19.35838894
K       23.63272606      13.58398187      19.40785983
K       13.50755892      17.82967144      17.85878215
K       16.11255310      10.96011292      19.46071759
K       20.61364856      10.08922691      18.51292429
K       19.31960365      23.16188219      18.63353538
K       19.62181564      14.27565100      17.98948261
K       12.09972787      13.62809136      19.43238906
K       11.48984529      21.67207988      18.99178705
K       15.04606984      24.76121597      18.50757531
K       18.71861191      18.91875445      17.49057854
K       16.49582565      15.91510589      20.34713696
K        9.32404759      17.39334654      18.47625129
K       21.06998950      16.82366267      21.48485290
K       14.71228728      13.42310559      23.34626293
K       19.26000365      12.79990774      22.24627697
K       15.80895104      20.62876774      20.69633601
K       19.77682144      20.91304414      22.62847327
K       17.19296032      17.44215146      24.16237162
K       12.67229112      17.47512923      22.19075239
39
Properties=species:S:1:pos:R:3 config_type=qcd gap_pre_relax_energy=-32.19303430023247 gap_pred_energy=-32.37279713193305 gap_fmax_final=0.0009687341292381436 gap_converged=1 pbc="F F F"
K       16.49776321      22.56244720      12.12437226
K       16.17835086      15.55000513       9.08647455
K       12.59166314      14.19294779      11.93514554
K       16.53076620      11.40265441      11.10956703
K       20.72449088      14.41890666      11.40165180
K       14.17821602      18.70076064      12.23194635
K       23.16871604      18.13550053      13.65213621
K       19.51490976      11.23241984      14.73538801
K       10.24553600      13.47920160      16.08302800
K       17.27919404      23.32566546      16.56188246
K       19.07924890      18.67580015      11.01251255
K       20.84871130      22.10176796      13.47563826
K       12.75440647      22.53331678      14.80696486
K       16.86383413      15.08940073      13.35117923
K       20.43783755      15.83423857      15.67057143
K       13.73761749      15.83684229      16.06760838
K       23.87627319      13.57734923      14.84015172
K       10.44033943      18.31802316      14.97537595
K       14.36994528      11.20927065      15.20273633
K       17.64964855      19.12909435      15.23824095
K       21.30506205      20.40830852      17.60926777
K       17.20738290      13.74858354      17.61386078
K       14.05215588      19.87323686      17.68930601
K       17.29226491       9.73392539      18.76089847
K       23.80474025      16.57088386      18.57470712
K       10.03531720      21.22338281      18.53663781
K       21.28659960      12.46845163      18.92094113
K       13.73066027      23.84355366      19.46892523
K       10.84340800      16.69286784      19.51554948
K       13.28717888      12.59407274      19.65265714
K       19.52694407      16.85757810      19.74609215
K       17.59524300      21.04658980      20.52990161
K       15.29856146      16.76651792      20.21409589
K       21.88061178      19.45658722      22.27221741
K       17.41242536      13.12090165      22.13303180
K       13.16577144      20.05997276      22.22610781
K       21.62299438      14.87125251      22.92608724
K       13.40050677      15.31258068      23.65458071
K       17.77604497      17.53648103      23.88390420
40
Properties=species:S:1:pos:R:3 config_type=qcd gap_pre_relax_energy=-32.75029221224397 gap_pred_energy=-32.86577958872298 gap_fmax_final=0.0009412703818456162 gap_converged=1 pbc="F F F"
K       18.47131262      14.56183172      10.18579424
K       14.36713168      12.18078340      10.57217883
K       13.85753448      17.14774472      10.96195301
K       17.80189698      18.96876932      12.67197848
K       22.03033702      17.28407203      10.94525009
K       18.70159736      10.94536346      13.14775546
K       18.64043148      23.53917228      14.78090016
K       13.93588788      21.53915854      13.20666522
K       15.75523528      14.36322262      13.96150789
K       14.00523007      10.27736117      14.97320833
K       22.11345181      21.22728094      12.97248971
K       22.70037811      12.94286522      12.16174538
K       10.02100720      18.93521768      13.02860781
K       11.16183151      14.07540724      13.46638802
K       13.32273922      17.66129331      15.38968059
K       16.96855399      16.55433861      17.44806966
K       22.02282954      11.90879293      16.66519838
K       15.87108817      20.68366476      17.19056105
K       19.94602169      15.28776549      14.58677977
K       14.59774988      24.74523000      16.99865288
K       17.62356827      11.98896753      17.39893410
K       12.99227798      13.72075150      17.72347553
K       22.88062782      22.75891976      17.19156878
K       11.29240749      21.37808618      17.20085893
K        9.45799422      16.64302672      17.51339801
K       20.88692342      15.51759729      19.29355940
K       13.07104239      18.07495545      19.95138395
K       18.92652835      23.24110330      19.44237405
K       23.81663040      17.39707901      15.47989220
K       20.02671727      19.50733019      16.73668096
K       14.71221746      10.49368342      20.58764327
K       16.19896427      14.77120645      20.89182433
K       11.86955764      14.20546292      22.17645053
K       14.22268646      22.29220298      21.13074496
K       19.41785103      11.76844269      21.52819107
K       22.14841015      19.72975850      20.65665819
K       17.74946425      19.21760111      21.10406695
K       19.47941099      15.92930555      23.65694803
K       14.84890914      17.55575661      24.18891254
K       15.94838938      12.84225174      24.69389364
40
Properties=species:S:1:pos:R:3 config_type=qcd gap_pre_relax_energy=-32.87016127157605 gap_pred_energy=-33.10659119176467 gap_fmax_final=0.0007718054397192072 gap_converged=1 pbc="F F F"
K       19.38024567      20.62664307      10.08048455
K       15.06671365      19.72933555      11.46693774
K       17.62182065      16.05487398       9.84641735
K       22.52633456      20.73849035      13.81512155
K       22.08846285      17.02265024      10.69820807
K       19.67238896      13.62518256      13.61108903
K       15.67557487      15.85991894      13.95822362
K       12.67654115      22.66929930      14.86080925
K       13.05519259      15.28460912      10.58355329
K       17.86283218      22.80316094      13.81061997
K       15.62851224      11.71113258      12.51156763
K       11.67380088      18.08160359      14.22061779
K       19.13809316      18.24064202      13.77865721
K       18.59257975       9.66108486      15.88586920
K       16.21285775      12.91215413      17.07801311
K       22.59793939      11.89690225      16.43505137
K       15.69382058      19.77793377      16.04906403
K       11.79508030      13.50621426      14.90005094
K       23.19122034      16.18331650      15.07567489
K        8.65265599      20.65740934      16.24022631
K       13.70421896       9.46066319      16.01229944
K       12.16023565      20.44602409      18.98429782
K       13.87769978      16.31501866      17.99683115
K       19.87415388      11.87999990      19.86783747
K        9.54383246      16.45736446      18.13622135
K       19.86485554      21.13502239      17.64960854
K       16.56248918      19.06849004      20.14787130
K       23.38958116      15.07752875      19.68846172
K       19.47078609      16.14498097      17.91590748
K       12.07881679      12.51407754      19.47831240
K       16.37023287      14.38125207      21.45532511
K       23.91739015      19.36036847      17.98862537
K       15.63057325      23.49650663      18.61772840
K       12.78536516      17.11619797      22.19085693
K       15.79787997       9.69550498      20.05165297
K       20.41845685      14.85058482      23.21797860
K       18.46237637      22.49530744      22.21338867
K       17.29852621      18.06896191      24.20141507
K       21.08756575      18.80587138      21.45161251
K       14.12721997      21.41264054      23.05243435
41
Properties=species:S:1:pos:R:3 config_type=qcd gap_pre_relax_energy=-33.81902368616781 gap_pred_energy=-34.020161605409854 gap_fmax_final=0.0008727069566466414 gap_converged=1 pbc="F F F"
K       16.05277877      18.15885972      10.03285302
K       19.37466850      15.37596817      11.93668967
K       19.76994334      20.42182530      11.66370106
K       15.64282366      22.22136631      12.72028274
K       14.95880491      14.25997401      13.42821309
K       18.50981007      11.23734487      14.84244161
K       12.51159177      18.33263605      13.04978372
K       16.67276614      18.43036352      14.27150146
K       20.03455866      23.73430045      14.97137285
K       24.21258413      21.81230934      14.80752506
K       21.45151335      18.20657578      14.85385043
K       15.80124239      24.75828820      16.63192805
K       13.29935927      21.04699942      16.77611403
K       15.39491700      12.37248555      18.32380756
K       18.29205204      15.16342672      16.27874828
K       13.62436095      16.62604690      17.43926467
K       22.70221422      13.75662967      15.71478547
K       23.26807463      25.06897540      18.12026418
K       17.98986994      20.72814874      17.24950629
K       25.44015547      17.52943226      17.24952971
K       17.40703822      15.80448211      20.43958760
K       18.99275086      24.23976185      19.87382372
K       22.59072297      22.81399377      22.49289949
K       21.47590783      16.54867432      18.98822645
K       24.21632005      18.38578694      22.11143318
K       24.47211334      13.83728512      20.12896290
K       15.48970751      19.56027920      20.76697620
K       20.02837169      12.11096493      19.32556162
K       11.21015208      19.70289680      20.75392129
K       26.21049874      21.67159793      19.39399772
K       16.85579010      12.39984883      22.87961981
K       13.30666190      15.70698350      22.18571812
K       14.27729827      23.47967774      20.88290743
K       22.06730672      20.87700427      18.42922033
K       19.69661534      19.47624030      21.67221730
K       17.69274062      22.49765894      23.96872486
K       21.03234680      15.15464514      23.29098749
K       17.06344791      17.14853150      24.67684817
K       13.62474377      20.33559521      24.65011551
K       21.07112491      19.48674972      25.71079115
K       17.01223305      20.31736741      27.81327864
41
Properties=species:S:1:pos:R:3 config_type=qcd gap_pre_relax_energy=-33.90867479825279 gap_pred_energy=-34.00562089856719 gap_fmax_final=0.000944381617590517 gap_converged=1 pbc="F F F"
K       18.48311945      18.48861959      11.38417581
K       14.95477739      15.85795937       9.34509923
K       23.03592310      17.64000149      12.27419654
K       14.71576144      11.28197081      10.85014131
K       19.18377653      13.94344432      10.34135563
K       13.90000368      19.01187750      12.70517348
K       11.58886542      14.66322493      12.50271059
K       20.92255631      19.21533204      15.66645382
K       17.21562992      17.61393727      15.53156193
K       21.46009424      22.16877725      12.62039800
K       13.30558847      15.77153945      16.43104678
K       16.05592205      14.50115109      13.25380861
K       18.11759327      10.50296757      14.35984395
K       17.08254866      22.04042604      14.34029817
K       12.35284162      23.07901350      15.14177257
K       24.77904226      20.97273421      15.86105468
K       13.48893885      11.32587675      15.46647831
K       20.63364479      14.55386643      14.52441165
K       14.10140882      19.91481342      17.42134803
K       10.03409645      18.80952784      15.82242410
K       18.16212865      20.32051683      18.90693342
K       17.04388691      13.44077753      17.41702568
K       24.19182651      16.31589193      17.08679968
K       20.05223966      16.27957301      18.81212386
K        9.50653261      14.13892353      16.98178646
K       21.17127314      11.88654184      18.35604853
K       15.53107365      23.96654342      18.76330790
K       20.78857685      23.44650362      17.19092799
K       11.13657094      22.02566368      19.58394781
K       15.81156641      16.69678648      19.98545699
K       16.79212833       9.71310896      19.33877450
K       13.18265752      12.93831356      20.02959082
K       19.05055287      22.89846751      22.03004298
K       22.94916378      15.42919687      21.69436841
K       22.61302280      19.88165730      19.99837689
K       18.41274387      13.41377652      21.92189306
K       11.30009821      17.29361483      20.28375307
K       14.86925073      20.54492114      22.11699720
K       19.02206311      18.16303027      22.95231952
K       15.09679191      10.93576839      23.50701000
K       14.53756151      15.54720459      23.83260467
42
Properties=species:S:1:pos:R:3 config_type=qcd gap_pre_relax_energy=-34.77374503851165 gap_pred_energy=-34.89535570285068 gap_fmax_final=0.0009184583838010784 gap_converged=1 pbc="F F F"
K       17.63641187      17.66772770       9.36444309
K       13.26629009      18.47022852      10.59710287
K       14.94141114      14.09805990      10.50210783
K       16.69967997      21.51221576      11.93965109
K       19.37765225      14.26714423      12.11245611
K       24.68047995      20.39796204      13.76742259
K       16.18465985      17.01633387      13.64492073
K       12.01172974      15.36530039      13.94521131
K       13.17086064      20.30404839      14.86326286
K       15.77926339      12.71536732      14.76017200
K       20.53423272      22.99996424      14.21122163
K       26.15949310      19.13375547      17.95982805
K       23.57198647      15.58898632      15.59951671
K       17.70909418      20.03291215      16.15198286
K       20.58297619      18.60671177      12.73625325
K       15.65967682      23.92051774      16.11669986
K       20.42415601      11.57111756      15.54941884
K       15.15948096      16.76344722      18.10831567
K       21.89356139      19.51598807      17.08045217
K       10.54809338      17.77815474      17.47901963
K       24.06664654      23.35601128      17.33041854
K       19.30808569      15.61690192      16.92468221
K       17.04540906      12.15153272      19.01371172
K       19.55197709      23.52487206      18.84373134
K       11.74953013      22.06937696      18.95580060
K       21.80775872      12.38080066      19.77833909
K       12.42933466      13.57599864      18.35128558
K       15.63349927      20.94667589      19.83675238
K       15.21094454      25.20141585      20.52524160
K       23.24539605      16.66366956      20.57949107
K       19.30424595      19.10567687      20.42788649
K       22.97493199      21.34123030      21.47491243
K       12.37853672      17.98873094      21.53000236
K       18.91740250      15.23659020      21.57133293
K       14.80688673      14.15936801      22.50925674
K       18.70516082      11.16150667      23.19791791
K       18.52190431      22.44572997      23.25005636
K       13.35891343      22.13486118      23.43102675
K       16.19178469      18.45340390      23.92572892
K       22.29723913      13.95198911      24.16619547
K       20.95094993      18.52523665      24.53674174
K       18.13448431      14.86468962      25.93224095
42
Properties=species:S:1:pos:R:3 config_type=qcd gap_pre_relax_energy=-34.5876583219438 gap_pred_energy=-34.75695494481849 gap_fmax_final=0.000984186544918131 gap_converged=1 pbc="F F F"
K       20.90013759      22.10894480      11.67489393
K       18.89365738      12.90987891      11.92708939
K       11.85964872      19.11028788      12.83446422
K       19.88909094      17.63677977      12.58513699
K       16.39136797      20.85624633      12.97738848
K       15.48847630      16.18150410      13.15271386
K       24.13902505      19.50200862      13.95239664
K       23.00541867      14.23727781      14.03676830
K       18.32687065      24.86068000      14.49768587
K       15.41710120      11.70529736      15.02093823
K       23.36940358      24.24589918      15.17116393
K       12.88165178      23.05658502      15.19396117
K       11.40022553      15.28437347      15.59226419
K       20.17675608      10.37772346      15.66362144
K       20.41550429      21.28712387      15.90104510
K       18.91449319      14.42246868      16.00744115
K       13.68507170      19.05783694      16.76372669
K        9.48685274      19.65079841      16.95110408
K       17.64672189      18.51624243      16.70439707
K       25.89334925      16.36380525      17.12475740
K       21.79581912      17.37378564      17.18540872
K       15.20902111      15.19316936      18.03232370
K       19.87158652      20.08899304      20.38696479
K       22.35503064      13.11700353      18.88172753
K       16.41246492      22.68783576      17.86637676
K       11.61457503      16.94147714      20.28074668
K       17.65704091      11.56158957      19.48956087
K       15.83622202      18.75889833      20.90669059
K       20.60904449      24.38881670      19.18916107
K       23.63869970      17.05560092      21.17211116
K       12.62334234      11.95780824      18.83717843
K       24.06835608      21.06224500      18.68261542
K       12.45773352      21.68451772      20.23680781
K       16.77818778      23.25040817      22.07488933
K       19.00821706      15.85684242      20.47257343
K       21.30435776      17.64951958      24.71462107
K       22.18536972      22.09413372      23.09738761
K       13.47590006      19.18553242      24.21465454
K       20.28997305      13.14933200      23.25377647
K       18.04504903      20.58192027      25.18432801
K       14.86252589      14.16601683      22.30271471
K       17.16106584      16.26319839      25.24483027
43
Properties=species:S:1:pos:R:3 config_type=qcd gap_pre_relax_energy=-35.72767023390001 gap_pred_energy=-35.92650034967335 gap_fmax_final=0.0008618320399880083 gap_converged=1 pbc="F F F"
K       15.37747395      18.94511309       9.50287677
K       18.89541901      21.19897252      11.60296126
K       14.71921907      23.19948192      11.70933847
K       18.39000688      16.35342349      11.92453809
K       22.63019760      18.58158539      12.45970388
K       13.96295435      14.98548055      12.52674587
K       15.12930887      19.41509398      13.75928017
K       17.33901371      11.99643373      15.05982896
K       21.94066720      22.60523822      15.30749128
K       19.32881508      19.04059604      15.41925642
K       26.08113447      20.66756836      14.88998420
K       21.51864684      14.57396114      14.71899683
K       17.40816392      23.49298957      15.56889305
K       25.94427299      16.01138120      14.60684127
K       16.35034944      15.81820992      16.00358697
K       12.93991789      22.68438794      16.18272005
K       23.07236370      18.22857104      17.15905461
K       20.91487043      11.54494833      18.14413448
K       13.08372755      13.06742688      17.20873325
K       11.98310558      17.64888520      16.41136588
K       16.08468309      19.91602585      18.03976460
K       16.87858417      12.35678729      19.89173562
K       14.62115144      16.22753117      20.01640718
K       20.14267388      19.81626021      20.27927636
K       10.19839698      15.92533124      20.21534873
K       15.57586259      23.57180484      20.23423752
K       27.26673258      18.08071536      18.57079980
K       20.12856637      24.04690384      19.53819277
K       19.49402304      15.80261241      18.71743452
K       24.45809474      21.99452304      19.10864805
K       12.92391659      12.84892547      22.26264812
K       24.47998684      14.31580295      18.80638637
K       12.06038970      20.28433027      20.24064421
K       23.97236341      17.90240910      21.78575952
K       21.12453073      14.22326150      22.25417952
K       16.34961411      19.24856364      22.26159308
K       22.56618109      22.13544484      23.20360620
K       18.19902645      22.75510523      24.01901506
K       12.58167234      17.24697193      24.02195489
K       20.23114131      18.20922084      24.59102960
K       16.84485527      14.94406582      23.90671529
K       13.59700641      22.05896670      24.22683902
K       16.13698225      18.95475184      26.56751606
43
Properties=species:S:1:pos:R:3 config_type=qcd gap_pre_relax_energy=-35.8963150110814 gap_pred_energy=-35.98329064202697 gap_fmax_final=0.000964098179862715 gap_converged=1 pbc="F F F"
K       13.99929510      20.09982500      17.42039999
K       22.27336319      15.87807985      17.71906581
K       25.80667247      22.08069384      19.27430842
K       14.04255242      21.93644507      21.63572863
K       21.81968314      22.31779717      21.73057835
K       15.79932241      14.01181075      13.63830636
K       22.03373760      11.42899481      17.73566034
K       26.28593833      17.94140232      16.77421315
K       25.80128229      13.81202227      19.29095077
K       13.49217811      17.94224965      13.14712670
K       11.29776238      21.97043428      14.52484889
K       10.21005228      21.96122762      18.99075755
K       17.93446847      15.05684241      23.62875884
K       13.85569611      24.51857778      17.75188585
K       20.26493912      14.10036908      14.04969217
K       15.80468378      21.87258242      13.61756474
K        9.91666764      17.95335258      16.50312498
K       18.21810966      21.47492728      18.43141094
K       17.68928480      24.87436377      20.80078074
K       22.04160221      24.46309303      17.70876971
K       17.67687025      11.04553267      20.83432877
K       18.04974319      17.93528199      11.47369873
K       16.18798618      17.95542434      20.54402192
K       11.47215425      17.96304536      20.92756529
K       10.20352823      13.95749284      19.01097310
K       22.67389127      17.93662209      13.44062999
K       22.27571661      20.01462379      17.71070086
K       17.92795956      17.94577322      15.52017992
K       17.90210947      25.30815500      16.02554388
K       18.21414383      14.42685618      18.44282727
K       17.93839860      20.86881324      23.61447600
K       17.89092587      10.58092822      16.06062373
K       20.58724123      17.95557554      21.55056459
K       24.87139080      13.94802375      14.75288993
K       11.29178632      13.92415037      14.54521153
K       13.84643162      11.38875482      17.78456524
K       14.37939211      17.96710359      24.50564353
K       24.89738511      17.95083944      21.13240408
K       21.81190701      13.59315830      21.74811580
K       13.99517454      15.80522257      17.43197045
K       20.26978289      21.77815967      14.03329450
K       14.03333623      13.98833678      21.65967030
K       24.87640124      21.92798315      14.73711558
44
Properties=species:S:1:pos:R:3 config_type=qcd gap_pre_relax_energy=-36.37822026837478 gap_pred_energy=-36.68563942617405 gap_fmax_final=0.0008950346877660561 gap_converged=1 pbc="F F F"
K       18.66965641      15.68050504      12.54326202
K       14.50222386      14.10944560      13.69336554
K       14.91790911      17.86679232      10.84867051
K       22.52149431      22.93222123      13.04395841
K       22.49429757      18.38525413      12.30577323
K       17.99915825      24.84299272      13.78561387
K       18.42156032      20.60664782      12.25287444
K       14.08077153      22.06139525      13.32824229
K       18.53884173      11.56756911      14.80838203
K       11.95943120      20.62961615      17.18749376
K       17.58949976      14.94149154      17.05889987
K       11.39840257      17.65059370      13.79245187
K       22.19015809      14.94010322      15.49154028
K       21.95152849      26.99654078      15.31800300
K       15.56224388      18.24174062      15.24560417
K       14.27385351      11.45166305      17.35053480
K       18.17326481      26.79418742      17.85093492
K       21.05444674      23.00998540      17.02419336
K       24.43990820      19.75368348      16.21896203
K       25.25110060      24.22423612      16.91819240
K       17.02958278      21.90394668      16.94518821
K       20.13542522      18.75925207      16.10859434
K       14.03754343      24.75637610      17.42673710
K       19.92682140      20.56033013      20.32599350
K       18.05844786       9.39616945      18.83604566
K       20.96638535      12.70318265      19.23647200
K       21.98879420      25.73741597      20.18411242
K       23.25616428      16.98749339      19.73195224
K       24.22528973      21.53018376      20.52584654
K       18.98173091      16.51844375      21.14737083
K       14.67903614       9.18651297      21.82064803
K       22.32975739      14.06268066      23.36166936
K       12.85679339      16.10550880      18.23382822
K       17.41365072      24.10174786      21.28951932
K       14.88527097      20.40931174      20.51956720
K       16.32206631      13.28920445      20.83177273
K       18.98617937      10.91738577      23.29654418
K       21.15989881      23.07994499      23.80447213
K       17.59787534      19.90717360      24.15529017
K       14.86370045      12.46960154      25.02589841
K       22.12064826      18.57655481      24.06147071
K       18.36203522      15.37030570      25.28186493
K       14.48279617      16.68997043      22.98486186
K       11.92204347      12.87232613      21.37501523
44
Properties=species:S:1:pos:R:3 config_type=qcd gap_pre_relax_energy=-36.4758907789269 gap_pred_energy=-36.71954444091189 gap_fmax_final=0.0009207143805728724 gap_converged=1 pbc="F F F"
K       14.37464573      12.64718599      10.82221820
K       17.91969844       9.59649992      10.34332350
K       15.83451534      17.07574176       9.39491477
K       18.98172743      13.90426567      10.58277268
K       18.37309718      21.18983721       9.79241417
K       19.13947059      18.08269501      12.65566551
K       23.19011144      15.37948516      12.25682830
K       22.29027660      21.01139379      12.74414168
K       21.36818184      10.83849831      13.26905640
K       11.74748782      16.23481059      12.57523181
K       15.83489850      15.57605079      13.64091481
K       14.80054062      20.07893622      12.53957870
K       16.83515682      10.97678486      14.43500911
K       19.83698636      14.50745376      15.03358900
K       12.64770775      12.80913516      15.61148623
K       18.28930742      22.52940659      14.29127812
K       14.10947272      22.90622650      16.18398750
K       23.00809018      17.92199479      15.95543283
K       18.54720487      19.12850662      17.25521921
K       10.53425109      20.02718141      14.74459106
K       14.22744770      18.30756937      16.63971344
K       23.78464871      13.54249530      17.02054108
K       17.98192575      24.06489807      18.65126002
K       15.22144208       9.95687046      18.65011992
K       10.54442727      16.38996229      17.69462132
K       13.61721106      25.04662463      20.17281269
K       10.93089373      21.02510706      19.13861446
K       20.16403870      15.55149029      19.18215931
K       22.63570384      13.09330207      21.61117199
K       21.89411519      21.89979068      17.45990021
K       16.28026231      14.07659237      17.67906342
K       15.26969660      20.90538931      20.21743780
K       19.74666582      20.45096813      21.43421692
K       23.39585073      17.76491173      20.50127149
K       16.33560057      16.90787573      20.80185941
K       16.86437179      23.77992906      23.23014412
K       12.91645499      13.51784292      20.47630883
K       19.95655041      10.95347612      17.97102668
K       12.08605391      17.75393153      22.07911640
K       12.50799691      22.09556265      23.54410907
K       16.18852499      19.39915619      24.60970102
K       17.67262560      12.44062833      21.74953159
K       19.83441027      16.38384232      23.56620375
K       14.96808842      14.95752938      24.47927754
45
Properties=species:S:1:pos:R:3 config_type=qcd gap_pre_relax_energy=-37.727448638658444 gap_pred_energy=-37.82655113191215 gap_fmax_final=0.0007332645099989747 gap_converged=1 pbc="F F F"
K       21.93706201      11.39211090      17.34204906
K       13.75575756      15.79626143      17.08382457
K       17.93273246      15.11369103      23.22513253
K       14.19818860      17.78242243      24.33576335
K       13.87840835      24.42865144      17.60010710
K       21.87875724      24.45142394      17.57267844
K       17.91077751      14.31410291      17.88018730
K       25.68633432      13.87803621      18.69301020
K       17.89832592      17.95149350      15.18368213
K       24.71746259      21.99840334      14.29051660
K       17.89367452      21.49484995      18.00309637
K       10.15519990      13.82172968      18.74903845
K       22.04400814      20.04308460      17.12339702
K       22.05243494      15.81409511      17.04684933
K       22.57477244      18.00702748      12.85099480
K       15.62800517      21.84386712      13.47029966
K       14.04279712      13.83062834      21.29809971
K       13.74591523      20.02069388      17.15367896
K       24.74445167      13.98216132      14.15285508
K       20.12106397      21.85774773      13.45678788
K       21.79172555      21.86071434      21.40520925
K       21.81119502      13.84965486      21.25924575
K       20.15634667      14.11725123      13.30509137
K       24.51294716      17.88005427      20.73971644
K       17.88249033      18.02364319      11.13744942
K       17.95924760      10.83296811      20.18768363
K       11.06570548      13.93805284      14.20049678
K       19.96469544      17.86998954      20.21646586
K       11.03757829      21.95190298      14.33875799
K       26.10888900      17.96073378      16.24230368
K       13.93682244      11.37473555      17.37803164
K       25.66194742      21.95465723      18.83147217
K       15.85817350      17.86052233      20.23437538
K       15.66325632      14.11315522      13.35188651
K       11.31409515      17.83133055      20.78949669
K       17.86925592      25.35876086      15.69696523
K        9.68614379      17.90449292      16.29925489
K       14.01486142      21.83912507      21.43212045
K       10.12623587      21.90081134      18.88729424
K       17.93281835      10.53355447      15.43889314
K       21.65354639      17.81320314      24.30958885
K       13.19791492      17.97735528      12.88729666
K       17.91423949      20.51689105      23.31365486
K       17.88249993      24.89366386      20.43183114
K       17.93691004      17.75596481      26.90904060
45
Properties=species:S:1:pos:R:3 config_type=qcd gap_pre_relax_energy=-37.5839407648108 gap_pred_energy=-37.71892651076403 gap_fmax_final=0.0009262576007786003 gap_converged=1 pbc="F F F"
K       18.62695323      22.99482280      19.38307001
K       17.36013664      18.63925738      20.51915447
K       18.44513497      11.27404638      16.40329144
K       20.58899769      20.78972948      23.02455191
K       14.20835792      22.62770236      12.37411089
K       16.28868022      18.67413904      11.15699950
K       25.93236372      22.88528978      15.56355556
K       18.04622161      14.55870089      19.31646337
K       12.91439581      18.42625541      22.46918213
K       11.86456544      23.36321988      16.34324993
K       20.66159407      18.58856712      17.49858610
K       23.52889357      21.34680902      19.31470823
K       27.53373062      19.68027885      18.55877010
K       14.46199244      20.95871590      18.66277066
K       16.46128765      24.63641448      15.67883064
K       10.71811061      14.72754891      20.54448659
K       13.44933709      15.29462629      11.92711507
K       23.37850763      21.81194952      11.77995552
K       21.40854710      14.62702037      15.60001072
K       14.10071607      11.97399473      18.69962945
K       11.17190416      22.55489074      21.07345402
K       11.11896079      14.59719025      15.89846236
K       15.87397877      22.01258637      23.00374321
K       19.69632005      13.49991656      23.93631098
K       24.34658991      14.08251808      23.10654221
K       22.02782741      17.19795929      25.67880888
K       14.51526029      11.80225498      14.32443913
K       21.28882381      16.74993802      21.32922505
K       21.21929268      22.71189612      15.57924075
K       25.27478989      18.61981820      22.52159869
K       24.32927449      18.75633379      15.19792177
K       18.80700622      22.48831802      11.68756691
K       20.49434391      18.24457661      12.70008693
K       16.82674875      15.93111724      15.20069145
K       24.83412933      15.95179409      18.79051464
K       21.85100030      12.27129553      19.61958681
K       12.91300964      18.94264984      14.65057671
K       17.20867028      20.35309685      15.40636769
K       10.34713886      18.85585022      18.43164555
K       15.07680771      14.25675220      22.62503831
K       17.55350899      17.63520176      24.65387106
K       14.08767467      16.47707960      18.48188426
K       14.61910473      25.27234482      19.75994188
K       17.79497223      10.51373945      21.00606959
K       18.15391092      13.75136570      11.92749178
46
Properties=species:S:1:pos:R:3 config_type=qcd gap_pre_relax_energy=-38.1444479525878 gap_pred_energy=-38.318809510369995 gap_fmax_final=0.0009234762654022633 gap_converged=1 pbc="F F F"
K       18.75773425      21.53303941      26.73648017
K       23.16189514      18.34056444      25.20248842
K       18.77376138      19.92955872      19.87815384
K       14.72535601      21.85143685      18.20770378
K       18.76931035      25.57794753      24.02046614
K       14.54617277      18.05101583      12.53225257
K       21.32711882      25.92272262      16.47157741
K       16.43616842      10.02073359      16.90554352
K       18.76013738      17.87468174      24.08934367
K       18.77462830      13.76585812      16.63835502
K       23.03752537      18.05492314      12.56895586
K       18.76787056      15.56963250      20.25240594
K       22.83385544      21.84110831      18.21897291
K       18.76346734      11.23725448      20.83645699
K       25.24389674      17.64039672      17.14713932
K       14.35453120      18.34923362      25.18326800
K       22.74553713      25.59197200      20.95118589
K       16.20107130      21.92421907      23.08046392
K       18.79141279      20.21832635      11.95073403
K       11.88790334      20.85847708      21.71139500
K       12.30540660      17.65881355      17.11275430
K       22.68757943      13.85698854      14.49175201
K       14.79769930      25.60277693      20.93701514
K       14.87813029      13.85752042      14.46649324
K       18.78122425      11.22309126      13.05520524
K       22.91099350      13.65390865      19.13808688
K       16.01280152      14.17761429      23.53861853
K       18.78217284      21.93522532      15.97416684
K       15.17836217      17.95353642      20.79049614
K       18.78986265      15.80742846      12.63214075
K       21.33087225      21.91881044      23.09124537
K       16.23287649      25.92519890      16.46170126
K       25.64842600      20.84453947      21.73777458
K       16.60001063      17.86391617      16.29579044
K       14.62529635      13.66137491      19.11592104
K       21.50301902      14.17216752      23.55216219
K       20.95427036      17.86014688      16.31093027
K       22.35631411      17.94789862      20.80601447
K       22.74592884      22.32289404      13.82923569
K       18.78358237      24.77058921      12.77212103
K       18.77906908      28.24522647      19.99015724
K       21.10646579      10.01750619      16.91696204
K       25.83530208      15.91150523      22.21275094
K       14.82466530      22.31622214      13.81725927
K       18.77355975      23.99391084      19.76441601
K       11.69272022      15.92405224      22.18145186
46
Properties=species:S:1:pos:R:3 config_type=qcd gap_pre_relax_energy=-38.28084207932119 gap_pred_energy=-38.59217071782298 gap_fmax_final=0.000997971210158266 gap_converged=1 pbc="F F F"
K       15.36668536      18.18836588      11.50661883
K       12.86145110      14.09248845      11.14324258
K       11.28653082      18.25458399       9.67213195
K       20.05522569      18.75508326      10.92481972
K       22.15675822      14.37986331       9.83132555
K       17.78847704      14.35714911      11.49318898
K       15.85952954      10.80815902      13.46182473
K       11.20545401      12.77681799      15.70576823
K       12.54919693      21.57441303      12.73951241
K       20.86125689      11.09617878      13.21697642
K       14.30415911      19.15196198      15.98647940
K       17.50018055      21.87902613      13.57817194
K       10.72064566      17.21816129      13.99592901
K       24.66304437      17.87252309      11.76649158
K       14.65303112      14.99929504      15.00915022
K       21.89850785      20.25582632      14.98798963
K       21.61846878      15.61123182      14.00268225
K       25.21288694      13.32988464      13.21422369
K       10.31634434      21.03076835      16.72459808
K       18.53837659      13.43891388      16.21057779
K       18.14961372      17.80931890      15.06956789
K       19.37420182      23.09542749      17.68063230
K       19.13050914       9.62068816      17.77635188
K       22.98524747      12.50575325      17.25417535
K       20.88791043      16.61305094      18.20284607
K       14.55515308      23.51105475      16.77119051
K       25.19967390      17.12950859      16.40729685
K       20.11576939      22.10279388      22.25253468
K       17.81208034      19.49364091      19.43039960
K       14.69589433      10.85921863      17.71970210
K       13.55085234      19.99292521      20.05416352
K       23.04912749      20.14040974      19.43246886
K       20.15651211      13.09876320      20.86951193
K       15.99058154      23.59573368      21.14430171
K       11.13477114      16.48910298      18.49464814
K       15.97185243      15.31132906      19.26858610
K       16.56127267      10.76824138      21.65375374
K       11.42166877      23.99243773      20.10610083
K        9.27122363      19.96454881      21.17040342
K       20.48146243      17.44611696      22.65592036
K       24.32544185      15.68250717      20.65553675
K       16.43074003      19.55670560      23.78181004
K       12.45729182      21.73370286      23.99985590
K       12.62460450      13.07822541      21.05336649
K       12.44502998      17.10872185      23.20704612
K       16.58657445      15.01064923      23.49739759
47
Properties=species:S:1:pos:R:3 config_type=qcd gap_pre_relax_energy=-39.550166323220516 gap_pred_energy=-39.655540889965394 gap_fmax_final=0.0009537621048070748 gap_converged=1 pbc="F F F"
K       16.79661910      15.38765342      11.10963798
K       18.88471163      19.40251854      12.18329552
K       21.22541772      14.73157849      12.86770981
K       17.69700008      11.74784101      13.83211939
K       13.72666303      10.09132135      16.21445616
K       21.43671331      22.58036879      14.15271112
K       23.56264412      18.59808838      12.50477623
K       16.45901710      23.50276405      14.13793554
K       14.47655698      19.03397891      13.56747700
K       13.53941034      14.36007122      14.31186880
K       17.82826307      16.17767260      15.21395210
K       24.44108193      25.39107268      16.42504926
K       19.73078611      25.64923924      17.14834883
K       25.78216731      20.52319965      15.96215309
K       24.63973311      15.74329345      16.41292861
K       17.85669822      20.87888606      16.82093918
K       21.47630657      18.39849613      16.40233163
K       20.88878903      13.00984219      17.13609450
K       10.65684321      17.45466310      16.32073465
K       12.93268162      21.40857005      17.23465878
K       14.55202415      10.35165611      20.89505027
K       18.08012788       9.17536611      17.90501165
K       22.56463079      22.11414487      18.55302531
K       11.76404857      13.74103783      18.86553243
K       15.67582893      24.52864779      19.03590804
K       26.65691683      23.09719626      19.82570262
K       14.65155014      17.24643736      17.90978440
K       19.47765262      23.15488702      21.16866186
K       20.93867582      19.07121308      21.17598208
K       25.33070606      18.59794198      20.16975443
K       11.64562124      17.95448658      21.00482700
K       18.96731050      12.11223163      21.60898929
K       16.22431303      20.17454614      20.84921072
K       18.63478055      16.22861686      19.58616873
K       22.73070615      14.77290315      20.99100416
K       18.53566982      27.37949263      21.43713363
K       12.49805035      22.31978860      21.88681157
K       16.24337003      13.15597222      17.97580186
K       23.03591670      26.09732768      20.86629757
K       23.33400801      17.68387557      24.55324432
K       19.42772564      20.57857132      25.17007665
K       14.98546491      14.97998596      22.14707623
K       23.69500855      22.07644381      23.23580607
K       19.02791423      16.01207531      24.13584170
K       16.20118312      23.74620374      24.08649131
K       14.96795391      18.98647690      24.60014649
K       20.64145159      25.11806786      24.92819514
47
Properties=species:S:1:pos:R:3 config_type=qcd gap_pre_relax_energy=-39.326675705624126 gap_pred_energy=-39.468028889283005 gap_fmax_final=0.0009679612950201044 gap_converged=1 pbc="F F F"
K       22.32785045      17.55218376      12.80118056
K       18.72465962      14.54689726      12.71511698
K       17.25070353      19.36849675      12.49532074
K       20.19642600      10.37956707      15.04476271
K       12.64277207      19.94887087      13.85910682
K       23.02091686      12.90862926      12.29855839
K       17.49493948      23.52765141      18.26783301
K       20.31505841      22.26239308      14.97875411
K       15.69931007      11.25793502      14.38369090
K       24.13085495      18.67053896      16.91567719
K       15.61900303      23.50031153      14.03852777
K       19.40717191      17.99856382      16.16168040
K       14.37711152      26.51600801      17.44718392
K       26.15590219      15.15780831      14.81789876
K       17.98218572      13.76903707      17.26036448
K       24.56170113      11.10442674      16.56497281
K       14.75080864      15.85373980      14.74675462
K       15.81902427      19.83087686      16.75547545
K       11.83028158      17.46979673      18.06765683
K       17.10341225       9.69523161      18.55141935
K       18.74550874      26.71691645      15.66127134
K       12.58857894      22.30235991      17.96409021
K       21.98452900      14.62176687      16.26391322
K       15.82103722      16.52543944      19.49252192
K       21.24065150      11.74971816      19.88891634
K       21.83817195      25.54737972      19.05304463
K       13.53588498      12.78735389      18.26265891
K       20.32308148      16.60762014      20.28027575
K       25.23441467      22.53008824      18.91006185
K       21.17515192      20.94706451      19.36101126
K       24.80306262      14.65163493      19.68878588
K       17.84177587      27.62062530      20.41637929
K       17.22711842      20.15924636      20.98265281
K       14.54115235      24.18865455      21.68121342
K       12.87900598      15.02315100      22.27676631
K       17.28189037      12.96585060      21.87769420
K       13.11432595      19.64365012      22.06553353
K       19.22376920      23.65106631      22.29369172
K       24.33720286      18.68549626      21.64939923
K       16.80412338      16.95688466      24.12577436
K       21.81077621      14.70322823      23.57441995
K       23.67028484      23.17193861      23.10397065
K       21.40805761      27.24581897      23.43560210
K       20.65247746      19.44679208      24.18280390
K       17.02751393      26.39877982      24.95895799
K       16.26750939      21.50783049      25.17491883
K       20.48990018      23.60173118      26.47878527
48
Properties=species:S:1:pos:R:3 config_type=qcd gap_pre_relax_energy=-40.19599906753034 gap_pred_energy=-40.34887502591104 gap_fmax_final=0.0009517398440060139 gap_converged=1 pbc="F F F"
K       17.52621110      17.59309280      12.45209415
K       13.99524543      19.60381309      11.11607180
K       21.37417004      15.48624624      12.97742370
K       10.27871220      18.09382693      13.03717989
K       21.15953047      20.31534538      13.59675014
K       17.17099794      22.66272240      12.68311009
K       13.79002269      14.78332097      12.93413810
K       28.49529228      18.76039618      17.03608288
K       12.95184777      22.25546903      14.62479981
K       14.02080677      18.00998916      15.63760638
K       24.69141031      21.98051911      16.27378234
K       24.31482009      17.32530902      15.61768674
K       17.79702614      12.91544712      14.45341592
K       10.54617529      15.22019971      16.47897255
K       22.23494933      12.60061318      16.36370356
K       15.87396195      24.69025721      17.41333630
K       20.37393893      23.99682243      16.48850955
K       18.74114979      16.53163007      16.51866490
K       17.32406603      20.63617689      16.28773500
K        9.81813057      19.79143371      17.29437489
K       21.12777735      19.96680711      18.07879307
K       14.75129114      14.08818243      17.82336041
K       11.17010854      24.26228519      18.30094035
K       25.00482315      18.94928544      19.76897291
K       27.83919288      22.29340864      20.10425381
K       22.00306148      15.76385833      19.40962561
K       18.76962519      12.70994603      19.48782851
K       13.84795245      20.73156532      18.99454760
K       23.20113247      11.86665723      20.88761355
K       17.25160284      17.00435234      20.54493622
K       11.98106079      16.83369565      20.47264191
K       14.25540089      24.28679812      21.73683681
K       26.40169808      14.67988720      18.81432777
K       28.78549336      17.80971634      21.59207440
K       23.17998911      23.12051228      20.62210984
K       17.79455490      21.15900270      20.85373148
K       10.36820644      21.17879779      21.64011628
K       21.50918738      18.91583874      22.32606018
K       24.93589853      15.62999479      23.13442081
K       19.05065530      25.09014126      21.11537104
K       15.41343842      14.61820151      23.15523786
K       20.27069857      14.54938681      23.62133100
K       25.60149652      20.64439719      23.95192738
K       14.24923021      19.44936496      23.40486073
K       18.18691053      18.34593044      25.28127500
K       21.45492390      22.43588396      24.87848031
K       17.05403153      22.90253251      24.94903758
K       22.65800169      18.05684784      26.35975767
48
Properties=species:S:1:pos:R:3 config_type=qcd gap_pre_relax_energy=-40.42362236589939 gap_pred_energy=-40.572323435372326 gap_fmax_final=0.0009007357496335456 gap_converged=1 pbc="F F F"
K       18.28678327      17.20780406      18.77024744
K       18.94244968      17.71449895      23.32096752
K       19.07177064      13.40429807      21.23441331
K       14.79166945      14.86690544      19.94055775
K       14.91586916      19.46907496      20.37635166
K       18.92224559      21.33296021      20.42017204
K       22.49785188      16.45214269      20.54454328
K       17.08775379      13.64340620      16.46122108
K       14.11242164      17.61561712      16.40597308
K       16.99080533      21.08169284      16.30555281
K       21.20564696      19.65282709      16.68961069
K       21.32043111      15.34996333      16.16792549
K       17.85322024      17.28798833      13.96083214
K       15.15531184      15.17954962      24.22190642
K       15.04796506      19.82418267      24.70423735
K       19.15237056      21.93831932      24.81723103
K       15.51905122      10.88342600      22.15139877
K       11.43807692      12.83116799      22.27833797
K       11.51374483      17.38924924      22.37785781
K       11.62679101      21.96003624      22.31259882
K       15.78155617      23.85337406      22.28098537
K       22.77635058      20.66443441      22.16576356
K       22.25190982      11.72426543      18.33112395
K       17.99762145       9.84368807      18.43577378
K       13.20010013      11.06900222      18.17670021
K       10.57448026      15.08742126      18.34122158
K       10.60180654      19.77241866      18.35504845
K       13.55460415      23.41204680      18.27936827
K       18.04299721      25.12470598      18.29296815
K       22.44999357      23.49343939      18.46833515
K       25.23425311      19.54655660      18.43203159
K       25.66197002      15.02649630      17.75109476
K       20.05396768      11.13454490      14.24930335
K       15.61618013       9.88340025      14.43673286
K       12.91689477      13.70453286      14.37469628
K       10.12152345      17.47700399      14.37191030
K       12.69996012      21.28361450      14.17578110
K       15.63839909      24.88729867      14.35090039
K       20.12245877      23.71710708      14.34758018
K       24.41712825      21.98894680      14.56459388
K       24.66079110      17.42159634      13.96413377
K       24.37399577      12.62866024      14.14010120
K       16.79575260      13.47637259      11.70198421
K       13.93058977      17.43173798      11.69237817
K       16.74187827      21.26396237      11.74818688
K       21.16725560      19.74809714      12.02348141
K       21.25746770      14.93519137      11.65714010
K       17.96749674      17.37658638       9.49035766
49
Properties=species:S:1:pos:R:3 config_type=qcd gap_pre_relax_energy=-41.12478587421767 gap_pred_energy=-41.28166577549674 gap_fmax_final=0.0008579974280221381 gap_converged=1 pbc="F F F"
K       15.84842280      17.50540082      10.15529152
K       19.12543919      20.65284729      11.00415232
K       19.93073100      15.85967623      11.51924411
K       14.49633757      21.37887741      12.23371507
K       16.03151499      14.07320707      13.29578522
K       12.54821348      17.28870440      13.35632542
K       22.94122868      19.11189655      13.13295330
K       22.33467515      23.65791089      12.31062012
K       23.98076516      14.40458416      13.27759101
K       17.81807484      24.53809886      12.92937119
K       17.38793522      18.45530421      14.34881462
K       20.14286042      12.18121388      14.66874499
K       13.51383590      25.31443901      14.48485958
K       16.15098714      10.52893224      16.39601612
K       11.46301949      21.35045616      15.85878398
K       12.77912290      13.71283778      16.64409721
K       20.40153024      22.06578128      15.96761900
K       20.94185813      16.34870750      15.96634133
K        9.75312905      17.25693105      17.07041507
K       16.00523603      22.32267768      16.52681935
K       17.16246298      14.69770505      17.63504270
K       24.89196720      22.08839114      15.92657087
K       25.92397757      17.23633339      16.38060596
K       14.13863137      17.96000628      17.36500070
K       18.46789396      19.17850051      18.65824841
K       18.03664301      23.51543441      20.61098375
K       23.72485928      13.19880464      17.73794098
K       26.96367099      20.44527224      19.61857623
K       10.43155487      20.34392588      20.39546184
K       15.08983560      12.12760602      20.60401578
K       16.41644456      16.68330052      21.61580229
K       22.76914997      19.05935554      18.74978038
K       22.67954234      23.01842978      20.20661740
K       25.42545267      16.06525857      20.96671188
K       12.79274914      24.40648746      19.01699059
K       14.67879778      20.59819054      20.62427745
K       12.02448197      15.75227219      20.79876341
K       19.67331860      11.25978173      19.28184788
K       20.68363289      15.64525162      20.52942356
K       16.42691731      21.58518376      24.70502756
K       23.05724939      12.32452165      22.29853923
K       24.40916097      19.82777012      23.26965862
K       12.99773564      18.63304867      24.28025841
K       14.24847764      14.18901673      24.67777057
K       20.03033732      19.92299970      22.83842245
K       22.03664685      16.14731767      24.71050102
K       12.41126794      23.21971672      23.38510259
K       17.60180665      17.21081329      25.75579458
K       18.59633383      13.03673736      23.59462002
50
Properties=species:S:1:pos:R:3 config_type=qcd gap_pre_relax_energy=-41.9183330049769 gap_pred_energy=-42.15389814476188 gap_fmax_final=0.0009952019973824087 gap_converged=1 pbc="F F F"
K       14.76356844      16.84307044      12.32809953
K       14.86583419      16.90971289      16.97185102
K       19.24418294      18.23456711      12.42848316
K       18.95518805      18.14124048      17.00068608
K       16.11917964      20.66915554      14.54023389
K       16.09313329      20.51311979       9.93424931
K       12.26619579      21.04853606      12.57864601
K       19.55813014      22.85018489      12.14611050
K       15.37916887      24.52374183      11.90227093
K       11.66677986      20.61772180      17.20031643
K       19.01527828      22.67700594      16.93569388
K       14.15445393      24.32565353      16.19210194
K       14.62242112      16.66397245      21.69156890
K       18.78011296      18.31702699      21.56037359
K       15.78773294      20.44685818      19.17787150
K       15.28031933      20.75368117      23.86980579
K       11.48696683      19.77233682      21.54260127
K       18.53765342      23.16383582      21.70645855
K       13.54574539      23.82848363      20.77540072
K       21.86348264      20.38543172      19.34007776
K       22.68922839      20.48894743      14.65595947
K       16.86014768      26.45099288      19.13457285
K       18.26910779      26.52397250      14.83036908
K       17.91638684      14.27770245      14.42385264
K       17.95719939      14.56244504      19.25359062
K       11.00526357      16.03305434      18.82796404
K       10.80383242      17.12916422      14.40988179
K       22.28457091      15.86396514      15.06498018
K       22.20022303      15.90943770      19.64321675
K       22.57798235      24.97687250      14.81304255
K       21.42415202      25.74339397      19.09707394
K       13.24120670      13.27779230      15.28598919
K       13.94383485      12.54131692      19.76763787
K       25.63616866      18.22727221      17.43381112
K       25.04230518      23.04032461      18.04589681
K       21.16025318      11.85002905      17.17863437
K       16.71823556      10.69383275      16.80302563
K       25.44081717      13.52610569      17.46377983
K       26.51375327      20.26191468      21.30680085
K       26.37593318      15.67060014      21.36445659
K       23.06156263      23.03964367      22.53160498
K       23.19735295      18.26131733      23.50618269
K       19.86612236      20.75011174      25.32213172
K       17.15994283      16.99475575      25.66881065
K       20.29067368      14.34769468      23.58852387
K       16.09098236      13.00664006      23.72695694
K       23.35015808      11.90456330      21.30017508
K       18.79163264      10.60124139      20.94329702
K       21.36103657      16.82174811      27.28365080
K       24.45105655      14.20446123      25.16788015
51
Properties=species:S:1:pos:R:3 config_type=qcd gap_pre_relax_energy=-42.661206297629406 gap_pred_energy=-43.01059218304039 gap_fmax_final=0.000960118813903214 gap_converged=1 pbc="F F F"
K       19.22742235      20.15813444      16.97483145
K       18.67060239      25.02632309      16.95799172
K       14.74233219      20.24381486      16.61062899
K       10.42206272      21.28015859      16.62332198
K       14.11589413      24.69656132      16.77438407
K       14.59010512      15.97041876      17.04326318
K        9.76589529      16.72697243      16.92989355
K       14.66740201      11.02185296      17.27232220
K       19.08368802      15.74387213      17.16757558
K       19.22622216      11.18648790      17.56148842
K       16.70550175      17.92505905      20.19531760
K       11.94111267      18.60725187      20.33422071
K       16.90076047      22.20434881      19.94784705
K       16.52723578      13.22439659      20.58894112
K       12.22399124      23.04119148      20.45845985
K       11.90713982      13.77157858      19.72786277
K       16.98363653      17.82115160      13.90217339
K       21.73994341      17.95292427      13.62675450
K       11.97751999      18.07608964      13.30889896
K       17.20711730      22.77839200      13.30392113
K       16.76926402      12.95231446      13.86000287
K       21.77414070      22.53884258      14.03350239
K       12.81285044      22.46820056      12.87797549
K       11.94551550      13.45936432      14.53346925
K       21.24126433      13.45316221      13.83570046
K       14.64750495      20.84431145      23.56463937
K       14.02646002      15.95412553      23.32286360
K       19.70912734      20.34933798      10.56086068
K       15.24274218      19.56198066      10.18513835
K       14.26357868      15.12395243      10.89581025
K       18.81866941      15.80942779      10.51101727
K       17.84003165      17.97358879      25.00941950
K       20.44870663      20.06810637      21.51463785
K       20.45936307      15.80337482      21.35078838
K       22.69696681      18.12266464      18.40536328
K       22.78840513      23.09106630      18.38614371
K       23.17150289      13.25235020      18.19729793
K       17.64369123      13.54569465      24.81751121
K       20.74058400      11.52078238      22.04234275
K       18.61935738      22.90407120      24.48923755
K       20.22135033      25.41721482      21.17173730
K       25.16122842      15.53288300      14.94388990
K       25.46398337      20.07722656      15.62346917
K       21.72808468      19.80085139      26.08670773
K       21.82415396      15.18965483      25.54707500
K       24.59840731      18.14569665      23.05434660
K       23.48831276      22.86927926      23.14842659
K       24.77341354      13.76446443      22.31642404
K       26.73874936      16.46714100      19.12603877
K       26.32011935      20.95232521      20.05585687
K       15.68852809      25.82120604      21.51385051
52
Properties=species:S:1:pos:R:3 config_type=qcd gap_pre_relax_energy=-43.885908349668725 gap_pred_energy=-44.10207303709616 gap_fmax_final=0.0009704356290893902 gap_converged=1 pbc="F F F"
K       22.92843767      14.03563043      25.10357393
K       22.92709622      25.34614154      20.72562506
K       14.79981167      13.40299252      16.88068059
K       14.07593569      23.23269902      21.86033103
K       13.95197531      13.36378789      21.49690512
K       22.92496078      18.25868518      27.04031466
K       20.09901238      17.18760009      13.20372209
K       16.91259040      16.12995928      20.71238930
K       22.60096362      21.16621377      12.11233342
K       11.40126890      18.72930403      14.19502048
K       12.86608645      18.48331611      21.96416227
K       13.81332904      20.72607815      25.80238032
K       20.74540953      18.61785742      20.09402161
K       18.10658235      20.45965397      11.05153816
K       20.80237381      21.71335978      23.30780798
K       16.96180128      20.04792164      22.72529885
K       12.06097630      21.37855946      17.98802061
K       26.04687243      20.47354169      15.28711764
K       24.78040307      22.05989511      24.55185063
K       17.31180223      15.64404964      10.04579638
K       13.90442029      18.66178126      10.40364921
K       19.11498481      23.35463504      14.47098267
K       21.51792277      17.84223253       9.14465016
K       24.47647722      16.76739948      17.80694012
K       21.85624821      14.20841369      20.58782635
K       13.24059500      14.54432552      12.60176056
K       21.49372561      25.90848532      24.96604261
K       19.22985158      14.99485850      27.67923172
K       18.00108751      19.43542952      27.35111614
K       15.73273485      17.39360086      14.26532717
K       18.33385103      12.78215521      23.54441905
K       19.74883670      22.65314787      18.98374034
K       19.93931752      26.87128354      17.52461134
K       24.36997457      16.80867067      13.05590458
K       16.06200778      19.87797568      18.18035884
K       24.55446948      21.25199633      19.74751480
K       15.42635334      16.16843239      25.10336868
K       15.74872170      24.43648967      17.72663580
K       18.33244239      11.88821289      19.01644963
K       12.49959728      16.73558761      17.99113990
K       23.44453475      24.23767479      16.21728036
K       21.77676060      19.92405465      16.14838213
K       24.45725809      17.71560808      22.69746337
K       19.07900285      15.90393753      17.06043601
K       14.77966899      21.84412126      14.02522136
K       18.15484591      25.84857449      21.66330486
K       17.88890319      12.96935850      13.73342049
K       22.20570014      13.39459351      15.57251694
K       21.38512417      22.41743453      27.78767857
K       21.54145943      13.60574546      11.00427075
K       17.30582823      23.69454910      25.54208585
K       19.98650083      17.10888379      23.95427546
53
Properties=species:S:1:pos:R:3 config_type=qcd gap_pre_relax_energy=-45.09916262392087 gap_pred_energy=-45.23667948181784 gap_fmax_final=0.0009623339763638657 gap_converged=1 pbc="F F F"
K       15.22130299      18.90326590      10.04296563
K       18.75595401      16.02748469      11.29434710
K       19.39788446      20.72374004      11.04378269
K       14.26310463      15.01474199      12.43555908
K       22.29563647      13.11303867      12.43586948
K       15.38789911      22.74662358      12.63473831
K       12.15059760      19.15027838      13.50698664
K       23.07767085      17.70873636      12.28618690
K       17.94198953      12.00427108      13.67595259
K       23.48386518      22.32843757      12.55578036
K       16.55966962      18.72361075      14.25691816
K       13.61571700      11.35638657      15.22901472
K       19.61469563      24.51468882      13.90316780
K       11.31035985      15.28396126      16.14611682
K       20.37640172      15.60623325      15.54558191
K       12.65575491      22.78705717      16.51395782
K       15.69876204      26.29205838      15.64900540
K       20.77131421      20.13673792      15.28087635
K        9.48240393      19.38202733      17.32077403
K       16.00420626      14.83251836      16.57182212
K       24.81950453      15.02370145      15.82233684
K       21.58066276      11.43458403      16.70002739
K       17.17012793      22.31237603      16.99762628
K       25.44560196      19.73541663      15.87262201
K       13.82735787      18.59756633      17.90083573
K       17.14581880      10.51093208      18.12347272
K       26.89469538      17.12592700      19.42837924
K       11.58294321      21.47598031      20.93603743
K       22.55301966      17.90766901      18.82021941
K       20.49677505      21.83067161      20.19815709
K       24.98342825      21.18967052      20.55643976
K       19.23113773      25.89721613      18.61221816
K       23.04034488      23.63310042      17.04051900
K       13.34584210      12.86478100      19.66376751
K       19.21064882      14.19478672      19.72698695
K       23.72286926      13.73428079      20.25548394
K       14.81059777      25.06213701      20.06616605
K       16.05630102      20.86576926      21.19915724
K       18.41946867      24.42971487      23.06101910
K       11.02754218      16.78516710      20.82771102
K       18.18911284      18.26308944      18.39122591
K       19.77239739      17.82736796      22.46023044
K       20.67875502      10.23026112      21.11792588
K       24.20362862      17.37832985      23.24142854
K       22.04939512      21.46123884      24.28981547
K       14.08742933      23.40156080      24.33563243
K       16.77734205      12.08208927      22.78063333
K       20.97435804      13.79852402      24.11901229
K       13.37217488      18.82641261      24.42582749
K       17.61624455      20.51848849      25.54383542
K       15.48300411      16.26273461      21.55752620
K       17.00261659      15.86120068      25.65672081
K       21.14999350      17.62768575      26.72792887
54
Properties=species:S:1:pos:R:3 config_type=qcd gap_pre_relax_energy=-45.99166946644506 gap_pred_energy=-46.1165257711559 gap_fmax_final=0.0009978461125282033 gap_converged=1 pbc="F F F"
K       16.47177849      15.97655213      10.61428459
K       19.97230025      18.80036546       9.45740890
K       16.05293944      20.63023570      11.36302795
K       17.54961505      11.98600853      12.88796064
K       12.43507128      17.83195342      12.64148370
K       23.47433948      18.81883245      12.50814533
K       20.30211974      22.54461310      12.18180816
K       13.13203023      13.24590730      12.33302095
K       21.04255579      14.84805897      11.67404732
K       19.19678064      18.43348951      13.77672148
K       12.16195688      22.44699720      13.26685050
K       21.88834138      11.03705053      14.19208948
K       22.33908060      18.11948228      16.97587757
K       19.08742151      21.99745572      16.55325377
K       10.63909284      19.66888769      16.66323427
K       11.17937895      14.95442630      16.21674252
K       23.51705852      22.36656058      15.65736030
K       19.78677803      14.32823681      16.05534068
K       14.50883714      11.69022325      16.59303262
K       20.47470555      26.00212639      15.27998819
K       26.60330247      18.80541688      15.93381381
K       15.00136404      20.21196862      15.82971102
K       15.66820485      15.77769648      15.00461149
K       16.26739099      24.48322525      14.11218038
K       24.45124839      14.80433605      14.95673537
K       18.09612828      17.92047315      18.06859475
K       13.08961171      23.84121025      17.59668177
K       21.84215673      24.56198552      19.49439402
K       22.88029435      12.35216448      18.65454571
K       25.07758800      20.85798610      19.82794898
K       25.49450521      16.12807937      19.54597950
K       13.90507193      17.13161435      19.07137095
K       17.18077736      13.81169306      19.53203276
K       16.33687104      21.43614264      20.15370167
K       17.31407610      25.71217206      18.66259598
K       20.71062083      20.40591524      20.65807206
K       20.98719446      15.87836982      20.79414559
K        9.61309928      16.78794636      20.17635907
K       12.54571298      13.19850457      20.58531760
K       15.79826882       9.91614892      20.82252807
K       11.93993600      20.79201395      21.03895593
K       14.20963996      24.85278385      22.00212477
K       19.88653477      11.49002197      22.31812316
K       18.65368561      24.03388638      22.98356049
K       16.97843787      17.51993429      22.36752720
K       23.97382131      13.50164225      23.10489573
K       23.09010013      22.74442569      23.57970571
K       23.74969050      18.13204451      23.50774337
K       12.73146635      16.88042461      23.61605279
K       15.89455681      13.34405595      23.94628351
K       15.11270153      21.06237747      24.54044381
K       19.66429967      19.92649591      25.11983126
K       20.17537437      15.22375555      25.15463644
K       16.20340414      17.08494376      26.68643498
55
Properties=species:S:1:pos:R:3 config_type=qcd gap_pre_relax_energy=-47.20765303592439 gap_pred_energy=-47.2815155639033 gap_fmax_final=0.0009486706967282354 gap_converged=1 pbc="F F F"
K       18.07199810      18.06054198      18.09977365
K       20.35875570      21.78629942      19.07233528
K       22.24894717      17.62680215      19.65561220
K       20.99463601      19.56024351      15.14214148
K       20.76890181      15.10382737      16.10540374
K       16.98949145      21.76549233      15.92547561
K       18.86614335      19.02235434      22.32382003
K       17.28829345      17.08698319      13.84572017
K       19.14489084      14.38317785      20.26534240
K       15.52105886      21.08826096      20.18879886
K       14.70905859      16.73155134      20.63708499
K       13.91317714      18.49584687      16.50144322
K       15.91578813      14.24829949      17.14912334
K       22.26686561      25.59484020      20.22912951
K       26.46416999      17.33667794      20.90133414
K       24.26375710      20.94774358      12.45129600
K       23.10763923      11.90225910      14.15678150
K       16.07215665      25.24855738      13.31095453
K       19.85773554      15.20258277      24.79200957
K       16.60500940      16.61000706       9.47589249
K       20.07139043      10.91813378      22.87997205
K       13.11203885      24.26711837      22.02625942
K       11.75151855      15.23853650      23.58426539
K        9.70416769      18.79000101      15.27369709
K       13.94790623      10.51609663      15.92752076
K       24.54870345      21.58992431      20.68707281
K       19.21825668      25.66446700      16.68596987
K       21.03528251      22.71822889      23.69152105
K       17.69838034      24.92417993      21.10842014
K       25.30517250      19.14006738      16.67716159
K       24.99025454      14.46951247      17.52087872
K       19.54656719      19.49420568      26.68408367
K       23.19846983      18.46241302      23.99964586
K       23.44119802      23.46751664      16.27561419
K       23.87739841      16.35810662      13.12047421
K       20.25401116      23.26015288      12.74295251
K       20.52953618      18.78147464      10.75862031
K       19.92360699      14.15629588      11.58070902
K       23.47489708      13.95941808      22.00011698
K       16.37238727      20.89276306      11.47648427
K       11.71180900      14.59951788      15.58048014
K       21.74560327      11.14002519      18.55397955
K       15.15345390      13.41829014      12.49730289
K       18.53433995      11.24115086      15.03811811
K       10.42923529      16.96099507      19.48339234
K       11.31215854      21.55837607      18.66742843
K       12.97040233      17.67156139      12.17124305
K       12.69786463      22.16762435      14.16736425
K       12.63244832      12.66359895      19.82664837
K       12.19637167      19.81822664      22.99326194
K       16.98412366      10.44758048      19.44522385
K       15.60450651      17.39480085      25.18247412
K       16.27584473      22.02760227      24.58501520
K       14.45284663      25.00041667      17.63492826
K       15.87156025      13.02145826      23.24441363
55
Properties=species:S:1:pos:R:3 config_type=qcd gap_pre_relax_energy=-46.6471358159992 gap_pred_energy=-46.801505002230606 gap_fmax_final=0.000966859963681146 gap_converged=1 pbc="F F F"
K       10.94074503      15.74074256      14.35593476
K       26.83438189      19.91588827      18.34593349
K       21.60865491      14.82177563      21.37489905
K       15.31457572      10.22341944      17.45465746
K       22.60123299      19.47495490      20.46790930
K       15.97058315      15.34501343      25.13912227
K       19.01153024      18.26075564      14.13540281
K       18.02716509      22.59860738      24.96482093
K       22.23810702      13.17858086      17.15009835
K       14.72544031      17.02145850      16.59590526
K       14.79772798      17.08335924      12.05569112
K       16.74291843      15.16800611      20.58299731
K       10.88549651      20.39131462      22.20833553
K       10.71643910      18.04852138      18.30583491
K       12.50165023      16.00870660      22.15528425
K       18.25441895      25.01601203      14.46556259
K       13.74876370      24.43857446      14.32485076
K       25.05120932      21.55895876      14.47547414
K       15.76185621      25.42290941      18.40777261
K       19.06427768      11.07253247      19.55713324
K       21.10873814      21.61420346      16.54116308
K       18.83339482      12.16569043      23.88043123
K       14.75072521      11.62827224      21.79934864
K       18.69479645      22.20530652      20.38405168
K       25.66665953      15.67392055      19.66841732
K       23.53905591      17.47027649      16.16585567
K       14.30413190      23.53055505      22.37653763
K       18.83845333      18.45248720      23.01039161
K       19.33346060      17.75490843      18.39105333
K       20.85551459      15.67001951      25.90329610
K       14.40208880      19.60848406      24.96018386
K       15.04469978      19.47457282      20.45052625
K       28.75452339      17.99619277      21.99626475
K       24.40841716      23.72953021      18.75686794
K       22.77279813      25.45767049      14.63114157
K       22.05147028      20.34610018      25.41824977
K       21.99791140      23.97439415      22.66415202
K       20.41570518      25.98686143      18.50832867
K       16.27157238      21.39755885      11.81821170
K       17.66191779      14.19571340      16.14628125
K       17.98182002      26.33149957      22.34548886
K       17.59376229      13.71736032      11.34548142
K       12.39486525      13.56142269      18.22617606
K       24.77040193      17.02448212      23.95991071
K       21.58827401      14.48668825      12.89115596
K       20.78034873      22.11221303      11.97738690
K       18.06346123      18.80633711      27.52555577
K       19.07905766      17.90720096       9.90060166
K       16.38083161      21.24787953      16.32073895
K       25.83021111      21.36331200      22.67653280
K       23.30313670      18.44391791      11.70207608
K       12.17499460      22.45780155      18.27809660
K       14.09435923      12.56120727      13.84688654
K       19.05186503      10.52859165      14.52781304
K       12.23709908      20.15497385      14.30942218
