3
Properties=species:S:1:pos:R:3 config_type=qcd gap_pre_relax_energy=-0.4268361168580184 gap_pred_energy=-0.4268528186900304 gap_fmax_final=0.00012924512085093657 gap_converged=1 pbc="F F F"
Mg      15.26391054      14.01240231      13.41668545
Mg      14.97769112      16.88351128      14.94285083
Mg      14.75839833      14.10408641      16.64046372
4
Properties=species:S:1:pos:R:3 config_type=qcd gap_pre_relax_energy=-0.9325468255459941 gap_pred_energy=-0.9352281221072041 gap_fmax_final=0.0009153345501554366 gap_converged=1 pbc="F F F"
Mg      15.19620731      13.40282002      13.98126722
Mg      15.98693934      16.40499549      14.17520726
Mg      15.65808858      14.71258889      16.76376585
Mg      13.15876476      15.47959561      15.07975966
5
Properties=species:S:1:pos:R:3 config_type=qcd gap_pre_relax_energy=-1.4547635034155153 gap_pred_energy=-1.5163695324517703 gap_fmax_final=0.0009192352902610206 gap_converged=1 pbc="F F F"
Mg      14.43249414      14.20735999      12.64321515
Mg      14.50420900      16.65166977      14.56412774
Mg      16.68649273      14.48808661      14.76584601
Mg      13.80914776      13.86177709      15.66919027
Mg      15.56765637      15.79110653      17.35762081
6
Properties=species:S:1:pos:R:3 config_type=qcd gap_pre_relax_energy=-2.043152845523458 gap_pred_energy=-2.173938928394296 gap_fmax_final=0.0005429372906070987 gap_converged=1 pbc="F F F"
Mg       9.52191053      10.29671777       9.35990133
Mg      10.61679667       7.77106649       8.06950371
Mg       8.33487469       5.89946614       7.18450091
Mg       7.91097953       8.96947853       7.00891838
Mg       7.97176436       7.59141936       9.76065680
Mg       6.44133845      10.26951596       9.41418310
7
Properties=species:S:1:pos:R:3 config_type=qcd gap_pre_relax_energy=-2.841068791824128 gap_pred_energy=-2.996182052846847 gap_fmax_final=0.0008864641175919931 gap_converged=1 pbc="F F F"
Mg       8.39035246       7.04971584       7.10214669
Mg       5.73775575       8.43770614       8.09290756
Mg       7.76263607      10.07729131       6.48215276
Mg      10.57182186       9.30335312       7.42609725
Mg      10.28369752       7.18335320       9.61839307
Mg       7.29563867       6.65066699      10.03218105
Mg       8.27104467       9.61086038       9.55906860
8
Properties=species:S:1:pos:R:3 config_type=qcd gap_pre_relax_energy=-3.6055362906163735 gap_pred_energy=-3.7707497907655227 gap_fmax_final=0.0007615141601706047 gap_converged=1 pbc="F F F"
Mg      17.16997740      15.78653040      13.53240452
Mg      14.38168942      16.43023519      12.46967916
Mg      14.80275682      13.73116951      14.00314031
Mg      12.37206959      15.66598261      14.63650872
Mg      15.05615368      17.03494249      15.46734580
Mg      13.88740593      14.62582563      17.04309825
Mg      15.42038651      12.02287462      16.49983167
Mg      16.90956065      14.70243956      16.34799158
8
Properties=species:S:1:pos:R:3 config_type=qcd gap_pre_relax_energy=-3.339489894423611 gap_pred_energy=-3.416983438070443 gap_fmax_final=0.0007971661938058194 gap_converged=1 pbc="F F F"
Mg      17.15400551      17.53027266      14.30154315
Mg      16.19358586      14.61714880      13.88071728
Mg      15.91258085      16.12602063      16.75216506
Mg      15.90809127      11.69810624      15.02100394
Mg      14.04175091      12.63060581      12.72124019
Mg      12.88030505      16.39062828      17.25880227
Mg      13.79408664      13.97099165      15.55778913
Mg      14.11559393      17.03622592      14.50673899
9
Properties=species:S:1:pos:R:3 config_type=qcd gap_pre_relax_energy=-4.834522162581207 gap_pred_energy=-4.895596574018503 gap_fmax_final=0.0008980414769305295 gap_converged=1 pbc="F F F"
Mg      12.68713368      15.32275540      15.39947092
Mg      14.64576374      16.98253887      13.75085418
Mg      14.50181821      17.33034729      16.75383850
Mg      14.11125936      14.07196790      13.00832253
Mg      17.01661319      16.06425714      15.64538407
Mg      15.05731120      14.40465287      17.29333187
Mg      16.89463210      15.22889107      12.73918854
Mg      13.60367740      12.44084833      15.50668270
Mg      16.48179111      13.15374114      14.90292667
9
Properties=species:S:1:pos:R:3 config_type=qcd gap_pre_relax_energy=-4.745654128643276 gap_pred_energy=-4.895597244653718 gap_fmax_final=0.0006847310539398173 gap_converged=1 pbc="F F F"
Mg       7.31769499       7.22987499       6.26815200
Mg       9.57928182       9.17894881       5.77307996
Mg       7.12365608      10.10060930       7.28341197
Mg      10.12739570       6.91249329       7.70217053
Mg       9.93349882       9.78298817       8.71692725
Mg       7.70500248       5.33168134       8.59289198
Mg       6.00806167       7.81015219       8.96183539
Mg       7.38022854      10.15349034      10.29825468
Mg       8.81791524       7.49249692      10.39601157
10
Properties=species:S:1:pos:R:3 config_type=qcd gap_pre_relax_energy=-5.695538377338127 gap_pred_energy=-5.72908622598517 gap_fmax_final=0.0008062567565850136 gap_converged=1 pbc="F F F"
Mg      16.71639421      15.91494191      13.23825196
Mg      17.84167929      15.17596779      15.94255469
Mg      15.80390883      17.39414476      15.71404991
Mg      14.49436767      14.17495365      12.16161267
Mg      12.94143907      16.69215024      16.37568132
Mg      15.10233434      14.71682820      17.14821412
Mg      13.83664311      16.80570357      13.49270536
Mg      14.16692948      11.86253843      16.56662062
Mg      13.03486600      14.09970286      14.81360016
Mg      16.06143801      13.16306858      14.54670920
10
Properties=species:S:1:pos:R:3 config_type=qcd gap_pre_relax_energy=-5.4658430457848075 gap_pred_energy=-5.73821485228254 gap_fmax_final=0.0007107718079767063 gap_converged=1 pbc="F F F"
Mg       7.99722009       8.53335047      11.37511372
Mg       6.04078484       9.91088229       9.61831542
Mg       7.67540001      10.66647539       7.25823056
Mg       8.87789423      11.09686895      10.01095935
Mg       8.97346554       8.44335955       5.78009356
Mg      10.64360386      10.21306988       7.69918915
Mg       7.40249603       7.49599963       8.26166113
Mg      10.69825261       7.18213471       7.84065159
Mg      10.85450052       8.81853363      10.39206508
Mg       9.32414449       6.12708775      10.25148268
11
Properties=species:S:1:pos:R:3 config_type=qcd gap_pre_relax_energy=-6.2277338867118175 gap_pred_energy=-6.514135872106021 gap_fmax_final=0.0009508797639749115 gap_converged=1 pbc="F F F"
Mg      16.05591296      16.69945322      12.58762142
Mg      14.32378527      14.24803542      13.00825703
Mg      17.30595797      14.37010298      14.05217518
Mg      13.73225208      16.94036148      14.52000468
Mg      16.07400319      11.74008689      13.08281791
Mg      12.44914943      14.28969540      15.34822978
Mg      11.64184785      16.78503605      16.81233388
Mg      16.57506223      16.97622141      15.54991045
Mg      17.28972142      14.46806668      17.07248014
Mg      15.07373290      12.89189615      15.73451964
Mg      14.47857468      15.59104430      17.23164988
12
Properties=species:S:1:pos:R:3 config_type=qcd gap_pre_relax_energy=-7.038851164562591 gap_pred_energy=-7.237143522861245 gap_fmax_final=0.0009268238858507854 gap_converged=1 pbc="F F F"
Mg      12.67054234      18.79080998      12.01087062
Mg      14.98247044      16.81168421      12.69057097
Mg      15.74789126      11.92299298      13.66910123
Mg      13.79439988      14.21295217      13.88579334
Mg      16.90796908      14.72653484      13.81942192
Mg      12.45118572      16.97153602      14.52078951
Mg      17.28033473      12.67197976      16.15260488
Mg      14.28296589      12.30832798      16.29556405
Mg      18.03139989      15.56743669      16.51395406
Mg      15.30477239      16.62300870      15.76606149
Mg      12.93001541      14.95628590      16.71846082
Mg      15.61605297      14.43645077      17.95680709
12
Properties=species:S:1:pos:R:3 config_type=qcd gap_pre_relax_energy=-7.292524804611106 gap_pred_energy=-7.423832995087504 gap_fmax_final=0.000839337734974746 gap_converged=1 pbc="F F F"
Mg      16.17674398      16.96595526      11.39644124
Mg      15.80035623      14.27118024      12.79329911
Mg      13.99926937      16.69419972      13.52701722
Mg      12.93144953      13.87439883      13.63942848
Mg      17.02826646      16.71223857      14.32443317
Mg      17.95131922      13.90771560      14.91327125
Mg      15.18352892      12.84982750      15.45086331
Mg      14.95641893      17.93670730      16.13338348
Mg      12.20118947      12.53955606      16.25436004
Mg      16.26499249      15.33431743      17.00110619
Mg      13.23943664      15.46506849      16.24277652
Mg      14.26702875      13.44883499      18.32361998
13
Properties=species:S:1:pos:R:3 config_type=qcd gap_pre_relax_energy=-7.868078237754741 gap_pred_energy=-8.086343207195341 gap_fmax_final=0.0007925344760977265 gap_converged=1 pbc="F F F"
Mg      13.97573212      16.45244267      11.95914240
Mg      16.99654423      16.21599119      12.21196540
Mg      15.19423788      13.85018644      12.87941786
Mg      15.44529345      18.02825450      14.04405516
Mg      13.48468203      12.53481297      14.86383338
Mg      18.08069684      13.83217078      13.75712652
Mg      13.42854226      15.71115797      14.87356274
Mg      16.03106652      14.05054981      16.01310706
Mg      17.82824115      16.50734660      15.08773395
Mg      11.39300434      13.73786644      16.62969099
Mg      14.00510894      12.06789808      17.77105405
Mg      15.45779907      16.97372269      16.82902339
Mg      13.67905118      15.03759986      18.08028711
13
Properties=species:S:1:pos:R:3 config_type=qcd gap_pre_relax_energy=-8.016779729105943 gap_pred_energy=-8.259011637294673 gap_fmax_final=0.0009511906934549364 gap_converged=1 pbc="F F F"
Mg       8.32366119       7.29296413      10.04207083
Mg       9.93566834       8.89116791       8.01034064
Mg       9.01427828      10.16136736      11.17526394
Mg       9.08310174      11.79371428       8.54505271
Mg       6.04634504       8.94255995      11.14603092
Mg      11.25547456      12.22843722      10.66448893
Mg      11.55096337      10.07656727      12.80324430
Mg      11.99499961      11.16393184       7.97489465
Mg      11.21116793       7.89893689      10.69573448
Mg      12.88782717       8.25968775       8.17441357
Mg       6.98286113       9.50232618       8.29727169
Mg      13.40423673      10.13823701      10.45475050
Mg       6.46778938      11.80847670      10.17481732
14
Properties=species:S:1:pos:R:3 config_type=qcd gap_pre_relax_energy=-9.194717989105797 gap_pred_energy=-9.325474889428328 gap_fmax_final=0.0008760317195536749 gap_converged=1 pbc="F F F"
Mg      15.20575857      18.14831715      11.97079596
Mg      15.92467499      15.83791563      16.14811260
Mg      16.57113686      15.40939659      12.00844976
Mg      11.85411598      13.20120893      17.40958358
Mg      14.44634732      18.18054219      14.94187749
Mg      13.76997606      15.73070151      13.28916783
Mg      12.49430376      13.33403009      14.48592037
Mg      15.48181962      13.26246096      13.92221650
Mg      14.26578318      11.70011333      16.30962704
Mg      17.34439777      17.57246410      14.02701350
Mg      12.87650561      15.86733260      16.28146718
Mg      18.19595150      14.68742164      14.43230997
Mg      16.95568360      13.00115033      16.58412483
Mg      14.61354518      14.06694496      18.18933338
14
Properties=species:S:1:pos:R:3 config_type=qcd gap_pre_relax_energy=-9.157871145097715 gap_pred_energy=-9.227390039078369 gap_fmax_final=0.000953287576335776 gap_converged=1 pbc="F F F"
Mg      15.20067252      12.60858406      11.51679491
Mg      15.32102218      15.45793499      12.79390627
Mg      12.67523671      14.17905138      11.56229578
Mg      16.97974484      13.07405670      13.89851123
Mg      17.61841129      15.97778136      14.62058348
Mg      12.50501804      15.89402831      14.03086674
Mg      13.89999810      13.13150921      14.30948110
Mg      12.06066981      17.70345595      16.39577730
Mg      13.58557333      14.93362388      16.78125451
Mg      15.69927219      12.83497917      16.66700045
Mg      15.00656193      17.26027753      15.26620468
Mg      18.58432336      13.71710272      16.39113567
Mg      16.52613877      15.67117256      17.46206203
Mg      14.33735690      17.55644213      18.30412585
15
Properties=species:S:1:pos:R:3 config_type=qcd gap_pre_relax_energy=-10.29936898819029 gap_pred_energy=-10.543458127851382 gap_fmax_final=0.000885936097747181 gap_converged=1 pbc="F F F"
Mg      12.87221777       9.26604309       8.96644944
Mg       8.35832447      11.83016932      10.09032479
Mg      14.27698313       9.30305228      11.62715031
Mg       9.84685711       9.28956383       9.33900011
Mg      11.34155103      11.90906152       9.58788419
Mg       9.82275269      14.47147050      10.50577823
Mg      14.35393977      11.77935449       9.85047389
Mg      12.86588891      14.31913547      10.60166965
Mg      11.65596049       7.85478861      11.32938906
Mg      10.01844983      10.37342943      12.15946991
Mg       8.60692780      13.05993404      12.86879548
Mg      11.22840494      14.50731837      13.16617200
Mg      12.87062286      11.94857134      12.48339589
Mg      12.26250734       9.35207982      13.91455473
Mg      10.77495069      11.89236670      14.66583114
15
Properties=species:S:1:pos:R:3 config_type=qcd gap_pre_relax_energy=-9.85660483618937 gap_pred_energy=-10.406752749265284 gap_fmax_final=0.0009139022494297478 gap_converged=1 pbc="F F F"
Mg       7.08207292       7.10188184      11.09800080
Mg       9.76470202       6.11308627      10.28216502
Mg       9.51613135       8.95938462      11.45884306
Mg       7.63000317       6.33944741       8.23116697
Mg       6.75876194      10.09496045      10.95745648
Mg      12.25599356       7.60428981      10.56304478
Mg       5.49149700       8.33160705       8.87017195
Mg      11.94001843      10.58138032      10.45604129
Mg       9.82360101       8.61784634       8.28914860
Mg      13.11828624       9.01131340       8.08591696
Mg       9.10351529      11.44624327       9.60775563
Mg       7.23802493       8.70682225       6.47047329
Mg       6.42037079      11.08849841       8.13212755
Mg       8.92910455      11.14576354       6.53746872
Mg      11.60360479      11.53316302       7.63590687
15
Properties=species:S:1:pos:R:3 config_type=qcd gap_pre_relax_energy=-9.926239912675483 gap_pred_energy=-10.06534901922312 gap_fmax_final=0.000977182926148261 gap_converged=1 pbc="F F F"
Mg      12.50543798      11.46821886       8.00831694
Mg       9.72001898      12.49013825       8.50695819
Mg      14.43007301      12.80062173       9.94147536
Mg      12.08363813      14.33467063       8.87668443
Mg      12.83248740      10.53469034      10.99752737
Mg      10.46913766       9.66232064       9.35811460
Mg       9.79607044      11.63262359      11.51715003
Mg       9.77928692      14.50211007      10.79303630
Mg      10.60699292       8.69278245      12.25984772
Mg      12.35973992      13.58471310      11.91775427
Mg       8.74334598      10.32048515      14.04086123
Mg      13.48858768       8.58519946      13.23049808
Mg      10.74126702      12.62120805      14.27222698
Mg      13.56390184      11.57876307      13.81019952
Mg      11.48338193       9.79482240      15.07271677
16
Properties=species:S:1:pos:R:3 config_type=qcd gap_pre_relax_energy=-10.950394102834043 gap_pred_energy=-11.46982291304229 gap_fmax_final=0.000949520826935525 gap_converged=1 pbc="F F F"
Mg      13.48393922      14.10737332      12.08686042
Mg      13.00953029      17.01938499      12.41868022
Mg      16.28307765      13.16913559      12.13305593
Mg      15.78352939      16.16825026      11.86346605
Mg      17.41392837      12.19894087      14.66590444
Mg      12.37632009      15.03233756      14.73207932
Mg      12.17943575      18.16891022      15.01714058
Mg      15.79960838      15.00625721      14.74378387
Mg      15.20685088      18.03115702      14.31233882
Mg      14.23140869      12.38759452      14.56313976
Mg      18.15856543      14.22929251      16.80089846
Mg      13.94057465      16.66484188      16.92979132
Mg      13.41568800      13.70270753      17.21473235
Mg      16.93187561      17.04063336      16.70121869
Mg      15.94709762      12.17493082      17.23810643
Mg      15.83856997      14.89825234      18.57880335
16
Properties=species:S:1:pos:R:3 config_type=qcd gap_pre_relax_energy=-10.842873865585467 gap_pred_energy=-11.230132531344065 gap_fmax_final=0.000819610509790075 gap_converged=1 pbc="F F F"
Mg      13.46868958      13.11662612      12.62290399
Mg      14.88782350      15.78644083      11.73918178
Mg      17.96358832      15.66729891      12.45559470
Mg      13.58650729      18.25133075      13.22946506
Mg      16.14030361      17.15021126      14.27031566
Mg      14.58019925      11.35100814      14.89226712
Mg      13.27368117      15.50151776      14.40544289
Mg      16.05324941      13.86084171      13.91447834
Mg      12.03891633      12.85105391      15.34085567
Mg      18.29496870      15.28057423      15.57460698
Mg      16.98489595      17.74668922      17.05413810
Mg      13.90608289      17.87146007      16.35038618
Mg      16.89971079      12.60785279      16.48670167
Mg      15.43092826      15.18135510      16.83468048
Mg      12.47919696      15.21707356      17.26695409
Mg      14.01125800      12.55866565      17.56202730
17
Properties=species:S:1:pos:R:3 config_type=qcd gap_pre_relax_energy=-12.811578110471038 gap_pred_energy=-12.959985601471839 gap_fmax_final=0.0009398071294905773 gap_converged=1 pbc="F F F"
Mg      17.32864420      15.69457601      12.98315632
Mg      17.54404296      12.74241149      13.76175745
Mg      18.53242969      14.71593921      15.75155467
Mg      17.57405915      17.51180197      15.43286170
Mg      15.12943381      13.69616232      12.13469046
Mg      14.98521006      18.18000649      16.72873241
Mg      14.94322827      11.43812494      14.36010842
Mg      16.41408540      15.67078822      17.74267575
Mg      15.15334886      17.80815048      13.57925305
Mg      14.99970801      14.99991273      15.00004826
Mg      13.32956663      15.74170522      17.56647988
Mg      16.38812947      12.75398365      16.71956567
Mg      12.52756855      17.63922032      15.14927429
Mg      13.30360238      12.82630300      16.53983811
Mg      12.49801546      12.87343561      13.47016024
Mg      12.95351166      15.80845659      12.73434114
Mg      11.39541546      14.89902176      15.34550219
17
Properties=species:S:1:pos:R:3 config_type=qcd gap_pre_relax_energy=-12.877445746385037 gap_pred_energy=-12.95999335432824 gap_fmax_final=0.0008775958496764067 gap_converged=1 pbc="F F F"
Mg       8.71441314       9.73797102       6.51454072
Mg      11.01184881       7.92234206       7.74093181
Mg      11.48147495      10.78931697       6.77300985
Mg      12.99629312       9.76548121       9.22962203
Mg       8.03194653       7.37214379       8.17916283
Mg       9.04697451      12.33874394       8.09945215
Mg       9.92302768       9.92319021       9.92308011
Mg      11.96061529      12.75358807       8.95002635
Mg      10.01174070       6.81381604      10.44725258
Mg       6.93589180      10.24885276       8.95225221
Mg       9.74973712      12.86285067      11.06316777
Mg      11.99588318       8.65734917      11.93598649
Mg       7.07906838       7.92590833      10.93935964
Mg       7.63622297      10.77548266      11.91609941
Mg       9.16849643       8.22630453      13.03010402
Mg      12.62363948      11.63768892      11.62372141
Mg      10.32531580      10.94155956      13.37482051
18
Properties=species:S:1:pos:R:3 config_type=qcd gap_pre_relax_energy=-14.066204911220101 gap_pred_energy=-14.143473084498211 gap_fmax_final=0.000784243471100845 gap_converged=1 pbc="F F F"
Mg      12.21325508       7.48591683      11.13974361
Mg       9.63818123       9.72561627       9.63819058
Mg       9.63825428       8.11212610       6.83148659
Mg       9.63803522      12.61564764       8.06810472
Mg      11.63906727      10.40212008      11.99939057
Mg       7.63729115      10.40176158       7.27693101
Mg       7.06332964       7.48555241       8.13676337
Mg       7.11357555      12.35753482       9.63810541
Mg       7.06333386       7.48566608      11.13975635
Mg       7.63724126      10.40192492      11.99940179
Mg      12.16253053      12.35778086       9.63809261
Mg       5.76766687       9.72777179       9.63816973
Mg      11.63899321      10.40195605       7.27692001
Mg       9.63826761       8.11235616      12.44498986
Mg      12.21324094       7.48580362       8.13674826
Mg      13.50869572       9.72815068       9.63814921
Mg       9.63804480      12.61574212      11.20810190
Mg       9.63833479       6.58391097       9.63829340
18
Properties=species:S:1:pos:R:3 config_type=qcd gap_pre_relax_energy=-13.941390620209358 gap_pred_energy=-13.983678648339303 gap_fmax_final=0.0009176114436683136 gap_converged=1 pbc="F F F"
Mg      13.09219182      15.88606768      11.86828088
Mg      13.04794849      12.88954048      11.59854306
Mg      15.71872825      14.32924192      11.98831715
Mg      15.48279164      17.33620720      12.95964657
Mg      18.08632221      15.83534235      13.24929370
Mg      12.04826887      14.18466236      14.18342294
Mg      12.83386767      17.23167773      14.53659883
Mg      18.64048082      14.90545762      16.05552527
Mg      14.57748530      12.18683929      14.11250411
Mg      17.46655700      12.97969014      14.11865757
Mg      13.17680535      12.81391932      16.68592651
Mg      14.40174428      17.44560646      17.17231422
Mg      15.06138375      15.12012928      15.11196730
Mg      16.26859787      13.03404279      16.99357940
Mg      17.06489878      17.54716962      15.58766395
Mg      11.95585266      15.59818660      16.91557658
Mg      14.21916556      14.73855984      18.69866243
Mg      16.85690967      15.93765933      18.16351955
19
Properties=species:S:1:pos:R:3 config_type=qcd gap_pre_relax_energy=-15.03686523009757 gap_pred_energy=-15.122938952314291 gap_fmax_final=0.0009850583410169226 gap_converged=1 pbc="F F F"
Mg      17.40235318      15.03238440      12.02304999
Mg      14.39875667      14.52905919      11.83192437
Mg      11.33250970      14.08059078      12.18005285
Mg      15.53219688      17.28892132      12.79795870
Mg      16.29040210      12.54875991      13.35991416
Mg      18.22026340      16.94404858      14.20971537
Mg      12.62677614      16.62649030      13.18600363
Mg      18.68934226      14.01738300      14.55570765
Mg      13.30956627      12.35362130      13.68948565
Mg      11.78644160      14.51258984      15.23485138
Mg      15.06774831      15.01703776      15.05204133
Mg      15.92034182      18.06101537      15.72136436
Mg      13.76054722      12.53279702      16.65537702
Mg      12.99956992      17.27295073      16.09702114
Mg      16.79386167      12.62064445      16.36559945
Mg      15.05958061      16.92407668      18.32693556
Mg      12.74479561      15.00300908      18.09006573
Mg      17.53624840      15.63716644      16.95012093
Mg      15.52869824      13.99745384      18.67281070
19
Properties=species:S:1:pos:R:3 config_type=qcd gap_pre_relax_energy=-15.016465457193204 gap_pred_energy=-15.165941161433127 gap_fmax_final=0.0009173443887575305 gap_converged=1 pbc="F F F"
Mg      14.46554744      16.88937015      11.98984685
Mg      14.14524478      13.79885485      12.06420217
Mg      16.87257571      15.21035912      12.15607136
Mg      11.86830549      15.74520535      12.78101137
Mg      11.84328646      13.02612355      14.00462159
Mg      16.43206634      17.73595907      14.12834196
Mg      17.24204145      12.80400320      14.02986579
Mg      18.51821033      15.58738384      14.56182995
Mg      14.43210651      11.66541705      14.20682163
Mg      15.02887109      14.89396735      14.90071273
Mg      18.21552707      13.70614576      16.80900477
Mg      15.21676105      18.95204580      16.65944391
Mg      13.31858237      17.72074351      14.68609454
Mg      16.03215297      11.68009437      16.66312752
Mg      11.60911880      15.44409988      15.74608593
Mg      16.97701007      16.54532828      17.00792138
Mg      15.67310801      14.13839063      18.32517461
Mg      13.84900269      16.35714588      17.50066654
Mg      13.26048136      13.09936235      16.77915542
20
Properties=species:S:1:pos:R:3 config_type=qcd gap_pre_relax_energy=-15.887371721511972 gap_pred_energy=-15.972870017431553 gap_fmax_final=0.000880155540155661 gap_converged=1 pbc="F F F"
Mg       9.60390819       9.38780859       7.85166324
Mg      10.46084056      12.51310196       7.96842153
Mg      11.88719755      10.57448097       6.11338392
Mg       7.67104919      11.55290091       8.70692263
Mg      10.49968509       7.46442600      10.16253153
Mg      12.49755078       8.48811918       8.17189584
Mg      11.88214011      13.63044224      10.53475430
Mg      13.20434063      11.35563516       8.82614995
Mg       8.49886671       6.88825390      12.47957853
Mg       8.87723238      13.82808341      10.24040029
Mg      12.70422982      13.73031695      13.52770304
Mg      10.57803814      10.68678286      10.63362517
Mg      14.07262877      11.83453495      11.65788746
Mg      13.16488789       9.03266987      11.05268593
Mg       7.82406398       9.00800102      10.40952555
Mg      11.28176005       7.82567644      13.06218273
Mg       7.29887378      11.72310802      11.67582682
Mg       9.86043787      12.83413278      12.94161650
Mg      12.01401702      10.69281865      13.55758661
Mg       9.00588827       9.83634295      13.31329526
20
Properties=species:S:1:pos:R:3 config_type=qcd gap_pre_relax_energy=-16.018416550015086 gap_pred_energy=-16.14755617019493 gap_fmax_final=0.0009374176125771413 gap_converged=1 pbc="F F F"
Mg       9.36849381      12.21449304       6.65553422
Mg      10.10734406       9.45900818       7.81044835
Mg      12.12878016      11.73873767       7.93939498
Mg       7.88339217      11.20916017       9.13836023
Mg      12.91916392       9.00490631       9.11007342
Mg      10.05757916      13.44090606       9.39292494
Mg      10.67926367       6.97812895       9.51051560
Mg      14.97622671      11.34726447       9.01404849
Mg       7.97095889       8.27065738       9.63095448
Mg      10.61759834      10.55672119      10.86606017
Mg      14.01033827      10.28251211      11.66289944
Mg      12.86995303      12.93976158      10.67386092
Mg      10.59030376      14.08993820      12.33694200
Mg       9.21395436       7.24022024      12.13098056
Mg       7.91176603      13.00916489      11.51422123
Mg       7.79062739      10.01031043      12.15194055
Mg      12.18349097       7.92185469      11.94816953
Mg      12.13545435      11.76337190      13.47488517
Mg       9.15351078      12.06935785      14.05012368
Mg      10.33083295       9.35255746      13.88669480
20
Properties=species:S:1:pos:R:3 config_type=qcd gap_pre_relax_energy=-16.006828888750423 gap_pred_energy=-16.13556144523022 gap_fmax_final=0.0008283394947710795 gap_converged=1 pbc="F F F"
Mg      16.50697676      16.62487505      12.60373741
Mg      14.00432015      14.85900987      12.01100516
Mg      14.53395512      11.90620617      12.63090512
Mg      13.85885064      17.91978091      11.73992762
Mg      14.73022041      18.12612712      14.68287822
Mg      15.18238949      14.90306250      15.06889401
Mg      12.26151942      16.45719615      13.96239036
Mg      16.83975624      13.71858400      12.14257756
Mg      12.39162406      13.40508994      14.22638504
Mg      18.26055337      14.51367398      14.70884719
Mg      17.05959145      11.72713305      14.35213236
Mg      15.86191516      17.88298721      17.51897383
Mg      17.66986153      17.45456238      15.19796766
Mg      13.11755364      16.67255742      16.89875313
Mg      16.51832945      12.94361638      17.10191700
Mg      10.63200716      15.01135157      16.17278378
Mg      13.12100604      13.57298249      17.25525003
Mg      14.34740580      11.47205993      15.56619530
Mg      17.92468331      15.62083922      17.53652384
Mg      15.17748080      15.20830465      18.62195539
21
Properties=species:S:1:pos:R:3 config_type=qcd gap_pre_relax_energy=-16.26908998844252 gap_pred_energy=-16.376802355397825 gap_fmax_final=0.0007653974926245325 gap_converged=1 pbc="F F F"
Mg      14.50368249      12.23544041       7.93511621
Mg      14.83398264      13.28146431      10.88916534
Mg      13.24601364      15.30903998      12.66966693
Mg      16.40182458      15.58782897      12.47673030
Mg      16.75770067      12.68550462      13.19720867
Mg      13.84589490      12.54010052      13.85857001
Mg      14.64566679      17.98349602      13.04687441
Mg      17.12968395      17.57612643      14.79240801
Mg      12.20647504      17.37681339      14.68195850
Mg      18.18642046      14.66860869      14.91413169
Mg      15.00685638      15.19274102      15.33375855
Mg      14.56354491      18.72794711      15.94814036
Mg      11.87197267      14.44514643      15.35734293
Mg      13.24951942      12.12105371      16.77029204
Mg      16.16799528      12.43741591      16.12229343
Mg      19.10991805      16.80843827      16.96813154
Mg      16.12772746      16.92711800      17.81152437
Mg      17.71018042      14.32392831      17.88354816
Mg      13.02958549      16.57228176      17.49756072
Mg      14.75848962      14.16804836      18.42042910
Mg      11.64686515      14.03145776      18.42514871
21
Properties=species:S:1:pos:R:3 config_type=qcd gap_pre_relax_energy=-16.430906440852215 gap_pred_energy=-16.939826613621708 gap_fmax_final=0.0009189648198880916 gap_converged=1 pbc="F F F"
Mg      10.09727518      10.99217273      14.86896318
Mg      12.60520283       8.17844291      11.01434151
Mg      11.57293746      13.12954891       9.64360921
Mg       8.11152293      10.85512213      12.55134152
Mg       9.74696731      12.82468188       7.32840903
Mg      11.93626198      10.75029711       7.60242206
Mg       7.60696744       7.96278385      11.75323059
Mg      13.63595654      10.93653959      10.13766924
Mg      11.07474406       7.84211267       8.24405516
Mg      10.23196806       8.51450735      13.11630506
Mg      14.03093588       8.54920037       8.28958801
Mg       8.96473588       9.91452183       7.27222285
Mg       6.84741177      12.21391523       7.54046460
Mg      12.46089982      10.56514827      12.94358996
Mg       6.99810301      10.15883889       9.74931657
Mg      10.43524601      12.86980067      12.49392087
Mg       8.47716082      12.86539689      10.13509092
Mg      10.08736826       6.53534137      10.81508488
Mg      10.23996261      10.21250647      10.30004822
Mg       8.08396952       7.48825632       8.82485102
Mg      13.44022218      13.32668408      12.06129506
22
Properties=species:S:1:pos:R:3 config_type=qcd gap_pre_relax_energy=-17.745830232312276 gap_pred_energy=-17.963810547609505 gap_fmax_final=0.0009558305043949596 gap_converged=1 pbc="F F F"
Mg      16.48903813      14.20325669      11.54054806
Mg      14.20081770      16.00214174      11.73529300
Mg      13.89669970      13.22796104      13.09093970
Mg      16.93625979      17.13385648      12.05727042
Mg      16.91587552      12.69763166      14.04882314
Mg      12.16324916      10.75463299      14.01605539
Mg      18.61551191      15.11682044      13.47609162
Mg      12.24684048      16.05210853      13.89591215
Mg      14.65676812      18.22883086      13.74495392
Mg      17.54773773      17.49913501      14.98950982
Mg      15.05786056      10.44059917      14.58306274
Mg      15.21472038      15.37906891      14.98703285
Mg      12.65828369      18.12332789      16.00711735
Mg      11.09766075      13.43722853      14.72403944
Mg      15.45049809      19.05364610      16.53675193
Mg      17.91840504      14.50160011      16.33500529
Mg      12.46221403      15.23492128      16.83326175
Mg      16.51471481      11.88107366      16.88250726
Mg      16.96547708      16.85967028      17.86825159
Mg      13.66752594      12.57322349      16.16248529
Mg      14.07981132      17.19623045      18.46437498
Mg      15.24403010      14.40303467      18.02071231
22
Properties=species:S:1:pos:R:3 config_type=qcd gap_pre_relax_energy=-17.633273153903506 gap_pred_energy=-18.077419690880006 gap_fmax_final=0.0009321446796925469 gap_converged=1 pbc="F F F"
Mg      11.37294914       7.77370656      11.41280529
Mg      12.51518548       8.95697676       8.98183525
Mg      12.40740652       8.44895311      14.07494397
Mg       9.82484246       9.89212790       9.94378210
Mg      13.90286405       9.49369419      11.66798362
Mg      14.74014281      10.86501987       9.11130251
Mg       9.68334382       9.57723565      13.09748796
Mg      11.85807473      11.82935200       8.46615634
Mg       7.98597531      11.54263088      11.66313026
Mg      11.00318278      10.51993237      15.60877722
Mg      11.63505069      11.89046120      11.76354667
Mg      13.67792772      11.18320028      14.25651283
Mg      14.10078656      13.72695797       9.01742702
Mg      14.88812780      12.43312695      11.68831724
Mg       9.45632834      12.59131739      14.07163716
Mg       9.13451992      12.73138057       9.22036689
Mg      11.38189791      14.58829388       9.97116309
Mg      11.92779712      13.30371867      15.62673691
Mg      13.88366915      15.32754616      11.46477325
Mg       8.91741244      14.34091222      11.68206130
Mg      14.29713595      14.13461526      14.11162021
Mg      11.44416473      14.88762562      13.13641833
23
Properties=species:S:1:pos:R:3 config_type=qcd gap_pre_relax_energy=-18.959143563643877 gap_pred_energy=-19.129705943324616 gap_fmax_final=0.0009909553479383487 gap_converged=1 pbc="F F F"
Mg      17.53548764      14.08004337      10.97570009
Mg      15.02197234      15.64035363      10.11172426
Mg      12.38988026      15.15088828      11.48780369
Mg      14.96267329      13.84156699      12.63797885
Mg      17.16192541      17.01607283      11.70929565
Mg      17.37045432      12.14104068      13.36565031
Mg      17.82594294      15.03990551      13.88624373
Mg      12.31771502      13.61700420      14.17119806
Mg      14.35234436      16.98499448      12.90723321
Mg      16.64919184      17.76007153      14.67170797
Mg      11.59969923      16.54497040      14.04041139
Mg      13.69058278      17.89355957      15.79493136
Mg      14.82519178      11.86921910      15.00657165
Mg      12.44244150      12.30263527      16.85976548
Mg      14.94071762      15.04800049      15.62081080
Mg      16.17289345      17.91416652      17.64890303
Mg      17.43378225      13.08144105      16.26543081
Mg      18.15599115      15.97809604      16.68414050
Mg      11.89874030      15.30255960      16.73882958
Mg      13.65866058      16.82651233      18.62536632
Mg      15.21692936      12.07492800      17.99044474
Mg      16.11953388      14.91847419      18.62984668
Mg      13.25724872      13.97349592      19.17001185
23
Properties=species:S:1:pos:R:3 config_type=qcd gap_pre_relax_energy=-18.895591934060278 gap_pred_energy=-19.04332777341736 gap_fmax_final=0.0008585759720734929 gap_converged=1 pbc="F F F"
Mg      11.74837116      14.24209093      18.05917705
Mg      18.09000177      16.28344122      15.24601849
Mg      15.45841300      15.59655661      13.81094924
Mg      14.74845803      17.74144239      11.72158008
Mg      13.68748635      18.56092054      14.43848978
Mg      16.85319500      14.86218590      17.87873114
Mg      14.02376058      16.11886977      18.81050509
Mg      12.40303879      16.18063486      13.15374893
Mg      15.92851170      11.80440385      17.37605840
Mg      15.94615181      15.03853065      10.82196090
Mg      14.47125708      11.72359756      14.59444458
Mg      16.36359303      12.50418601      12.42604693
Mg      12.32076505      16.59295689      16.21402401
Mg      18.51346243      14.53581763      12.69509447
Mg      17.76838959      17.25032821      11.90629225
Mg      11.87170377      13.65232039      14.89728212
Mg      12.89464528      11.64578753      17.19607753
Mg      14.34626023      13.25029942      19.39606346
Mg      16.62979863      18.79679073      14.10963694
Mg      15.52222116      17.42782091      16.59092712
Mg      13.56344522      13.55744099      12.27894241
Mg      14.48022794      14.38112294      16.17422411
Mg      17.36684239      13.25245409      15.20372495
24
Properties=species:S:1:pos:R:3 config_type=qcd gap_pre_relax_energy=-20.21257662477632 gap_pred_energy=-20.369637624537063 gap_fmax_final=0.0008943540482645911 gap_converged=1 pbc="F F F"
Mg      17.28438135      15.81963603      12.27191401
Mg      14.67885924      16.44277876      11.01690335
Mg      16.03096765      18.61879495      12.86852415
Mg      15.08271905      13.73089079      12.32110996
Mg      12.42307524      15.26145329      12.83718473
Mg      17.83851242      13.31807343      13.88890808
Mg      12.97648056      12.41792752      14.20696054
Mg      14.83995094      16.28607911      14.41895594
Mg      12.96171338      18.46473977      12.24143585
Mg      15.72986326      11.10341235      13.58879714
Mg      15.29772135      13.78273088      15.66961581
Mg      11.70020626      17.60013658      14.76007811
Mg      16.38254940      18.56408546      15.99458476
Mg      18.02288053      16.16427349      15.13642893
Mg      13.87371553      19.67786363      14.84572855
Mg      12.18341079      14.89008260      15.92252625
Mg      18.19870474      13.74713663      16.94869748
Mg      14.56341721      10.28691584      16.16860441
Mg      12.73851661      12.25449748      17.32393973
Mg      17.48676004      11.00833620      16.02861860
Mg      13.69195504      17.45418418      17.09474873
Mg      16.41232084      16.07297116      17.71201195
Mg      15.75242899      12.28095360      18.27757583
Mg      13.84888958      14.75204626      18.45614712
24
Properties=species:S:1:pos:R:3 config_type=qcd gap_pre_relax_energy=-19.895935268594584 gap_pred_energy=-20.088519600936422 gap_fmax_final=0.0009274991937798828 gap_converged=1 pbc="F F F"
Mg      17.53557870      16.50760937      15.14341105
Mg      12.46476678      13.49256446      14.85630605
Mg      17.53238775      13.64636521      14.30975723
Mg      13.70828950      16.93312998      18.43577019
Mg      12.15809367      15.84666598      12.45840826
Mg      14.84099473      15.33650012      13.62140902
Mg      14.98933933      11.92784050      14.03589963
Mg      14.49852732      17.73876736      11.11490223
Mg      15.15913435      14.66377675      16.37826071
Mg      16.84188120      11.48098325      16.36603733
Mg      16.87495294      17.02735397      18.09390482
Mg      13.70740399      11.38714908      16.70473756
Mg      15.51369197      15.01883768      19.78215058
Mg      13.15917665      18.51733707      13.63350778
Mg      17.84235544      14.15229406      17.54097782
Mg      12.46777022      16.35337107      15.69035345
Mg      12.82117993      14.00096847      18.08287197
Mg      13.12387043      12.97074944      11.90622046
Mg      15.50352195      12.26139498      18.88509117
Mg      16.29369653      18.61407681      13.29577135
Mg      17.17919662      16.00030981      11.91728205
Mg      15.01073629      18.07220541      15.96398084
Mg      16.29065948      13.06884466      11.56473780
Mg      14.48279422      14.98090449      10.21825061
25
Properties=species:S:1:pos:R:3 config_type=qcd gap_pre_relax_energy=-21.408025033739303 gap_pred_energy=-21.5415652789492 gap_fmax_final=0.0009622561659529228 gap_converged=1 pbc="F F F"
Mg      13.70805603      11.43703221       7.63629752
Mg      15.59610153      13.37011169       8.94476272
Mg      10.96459445      10.41750307       8.62996108
Mg      13.51163295       8.85082679       9.16276250
Mg      12.64793473      14.17951461       8.51304116
Mg      15.89429752      10.52525591       9.69270437
Mg       9.91490580      13.10925885       9.43673455
Mg      11.37648285       8.90775224      11.26705774
Mg      12.74584474      11.95891033      10.72092494
Mg      14.32503555      15.12949761      10.90851111
Mg       8.87803838      10.70028304      10.91399511
Mg      11.34256607      14.89665587      11.30018607
Mg      15.50474980      12.47945113      12.03673971
Mg       8.63986395      13.60306105      12.19491004
Mg       7.50671514      11.12920136      13.62972102
Mg      11.00520187      11.77911698      13.02857524
Mg       9.20043743       8.72126301      13.32106919
Mg      10.51926134      15.09963846      14.17488475
Mg      14.28414583       9.54347762      12.11888890
Mg      13.29618004      14.11001362      13.53266820
Mg      12.07109549       9.07741662      14.24810250
Mg       8.63377334      13.22038562      15.39042167
Mg      11.65284703      12.82920649      15.90888093
Mg       9.73009050      10.44527401      15.73073649
Mg      13.96409591      11.39384007      14.47141075
25
Properties=species:S:1:pos:R:3 config_type=qcd gap_pre_relax_energy=-21.23146849806783 gap_pred_energy=-21.38397093180913 gap_fmax_final=0.0007862270928730759 gap_converged=1 pbc="F F F"
Mg      12.84225616      12.09298106       7.92297388
Mg      15.93252162      12.23517163       7.85311436
Mg      14.51957154       9.62129535       8.25930557
Mg      10.01931738      11.65541839       8.83125174
Mg      11.66559765       9.20985908       9.31560052
Mg      11.34361525      14.07137128       9.91004420
Mg      14.46677868      13.82990736       9.97921942
Mg       8.46607605      13.12701408      10.93970334
Mg      14.18713824       8.48741560      10.94906282
Mg      15.93047703      10.95133014      10.66538398
Mg      12.76639611      11.46465965      11.04081532
Mg       9.11407469       9.97225557      11.09520176
Mg       9.90170917      15.52669222      12.15500087
Mg      11.60576248       8.80417303      12.45147174
Mg      12.76093680      14.61751726      12.54761183
Mg      10.71398261      12.11017399      12.85886148
Mg      15.15867705      12.91727663      12.78358783
Mg       7.30642877      11.36371527      13.17200644
Mg      14.27049416      10.15830483      13.48870238
Mg       7.94397524      14.15053720      13.91100004
Mg       9.09737130       9.22450219      14.11798286
Mg      13.11330821      12.68912634      14.93472013
Mg      10.74495761      14.60313825      14.92700971
Mg      11.74036251      10.06840743      15.19874164
Mg       9.27869515      11.93823764      15.58210761
25
Properties=species:S:1:pos:R:3 config_type=qcd gap_pre_relax_energy=-21.237432606875036 gap_pred_energy=-21.549677840668522 gap_fmax_final=0.000868728504704602 gap_converged=1 pbc="F F F"
Mg      11.54977504      11.91239025       7.00849424
Mg      14.40418178      11.25401501       7.62855728
Mg      12.20541580       9.18923544       8.45905170
Mg      13.30783240      13.88745798       8.37834274
Mg      10.42802043      13.67788236       9.42934171
Mg       8.86440902      11.95699276      11.45314784
Mg      15.04183026       9.48677812       9.85668592
Mg       9.55632869      10.73975067       8.80146162
Mg      12.18436995      11.37618009      10.57617878
Mg      15.04653210      12.50753001      10.54948303
Mg      12.87035931       8.14715201      11.30555917
Mg      12.81112914      14.54568046      11.23333010
Mg      10.06685054       9.07983750      11.25904705
Mg      14.41744324      10.35527790      12.71144651
Mg       9.93620712      14.73058689      12.38145440
Mg       8.27609728      12.93051825      14.28199828
Mg      11.55594968      12.26426888      13.25490642
Mg      12.44844489      15.59014614      13.99130532
Mg      14.47111216      13.31760503      13.56202229
Mg       9.01336405      10.12073000      13.87257668
Mg      11.80362932       9.14893212      13.92869010
Mg      13.54220089      11.03987800      15.49602228
Mg      10.14514536      14.72395748      15.61743440
Mg      12.89928417      13.77601607      16.30961199
Mg      10.57160508      11.65871824      16.07136785
26
Properties=species:S:1:pos:R:3 config_type=qcd gap_pre_relax_energy=-22.34388442254101 gap_pred_energy=-22.445009704567944 gap_fmax_final=0.0009078008960223934 gap_converged=1 pbc="F F F"
Mg      14.70662322      12.05747767      15.03371715
Mg      10.17789602      15.70235454      13.82643966
Mg      18.89180690      14.44266405      16.29216154
Mg      17.59640352      14.52074608      11.81277441
Mg      11.94410513      13.09188554      14.03289366
Mg      13.63273996      15.22032941      15.39957785
Mg      14.56597153      13.46607952      12.35206295
Mg      18.60810089      17.47572648      15.54786330
Mg      17.78240684      17.52648094      12.68838127
Mg      15.01884524      16.45258378      12.27272505
Mg      10.77848873      17.24558446      16.26033498
Mg      13.61280990      17.61865771      17.27160873
Mg      11.55501736      15.61926917      18.58803002
Mg      12.91418196      13.03341313      17.38725392
Mg      12.30262829      15.32594238      11.90992241
Mg      12.63924717      17.67742072      13.90532038
Mg      10.30783139      14.18090024      16.34296740
Mg      19.49090171      12.80624408      13.66274214
Mg      14.37099668      15.20113691      19.06263782
Mg      17.71835304      11.59536194      15.70407026
Mg      16.48438904      16.36408841      17.34203971
Mg      16.03158435      13.37787183      17.42054785
Mg      16.89159234      11.64481265      12.84436026
Mg      19.92759112      15.69132628      13.58617122
Mg      16.45937603      14.76666277      14.57374728
Mg      15.59011164      17.89497934      14.87964881
26
Properties=species:S:1:pos:R:3 config_type=qcd gap_pre_relax_energy=-22.276852136051478 gap_pred_energy=-22.52143018761756 gap_fmax_final=0.0009553447645134356 gap_converged=1 pbc="F F F"
Mg      13.58910409      13.36429954      11.11017524
Mg      13.62391642      16.43340415      11.59486248
Mg      11.83770544      12.65235095      13.65083855
Mg      16.60211990      12.60447457      11.93052102
Mg      15.98115950      15.11699014      10.41133470
Mg      18.49608921      15.05635045      12.02276957
Mg      14.16040348      10.93752392      12.85750529
Mg      16.26641036      16.76655099      13.09710347
Mg      13.74649230      17.96516885      14.24885996
Mg      18.87986307      16.77184536      14.56344157
Mg      11.64130745      15.68957403      13.66379049
Mg      17.56857397      14.10074358      14.68654724
Mg      14.52711734      14.22028360      13.87082144
Mg      16.48445973      11.31027085      14.67000639
Mg      17.94650892      15.78809193      17.27898098
Mg      12.02517359      14.20529569      16.28909088
Mg      16.57900214      18.32961567      15.75835566
Mg      11.71136607      17.14166853      16.28492564
Mg      15.01699202      15.67081860      16.22565343
Mg      13.80303663      11.75577155      15.89141374
Mg      13.76786383      13.30348794      18.49015381
Mg      16.45060001      12.93131911      17.24232915
Mg      13.89563231      18.93628962      17.15742661
Mg      13.29361924      16.29609425      18.74810699
Mg      16.01506396      14.91572306      19.54250935
Mg      16.09041902      17.73599306      18.71247639
27
Properties=species:S:1:pos:R:3 config_type=qcd gap_pre_relax_energy=-23.527401339758313 gap_pred_energy=-23.669525878129257 gap_fmax_final=0.0006662512152106517 gap_converged=1 pbc="F F F"
Mg      17.72357023      12.40239239      15.74219014
Mg      17.73616713      13.55182663      12.88478786
Mg      17.16812239      14.08356290      18.20973577
Mg      18.05604713      16.96032846      17.96326199
Mg      15.02969704      12.12078292      17.08140568
Mg      17.76230637      15.34883020      15.38625744
Mg      15.48118426      11.56616357      13.99971935
Mg      15.71661980      16.45605506      19.66635586
Mg      17.55796632      16.69615628      12.72070920
Mg      17.84649300      18.35929977      15.38202685
Mg      16.63739473      15.00740607      10.36350857
Mg      14.53393485      13.78523809      19.66246599
Mg      14.80674796      15.25784878      16.39264752
Mg      11.39833657      14.15014071      12.88000868
Mg      13.53448816      14.56094111      10.74643158
Mg      11.56097687      15.32932226      15.67646906
Mg      12.75102946      17.98639792      15.97258010
Mg      12.84101881      12.61139685      15.04422313
Mg      12.52505852      16.85247389      13.13430703
Mg      13.02759951      11.81545313      12.11270517
Mg      12.91448893      16.35120942      18.52862251
Mg      14.90841018      17.18125082      11.33601000
Mg      15.18244977      17.80712628      14.29868485
Mg      15.69571554      12.31640363      11.02614463
Mg      12.29103065      13.43181736      17.85602346
Mg      14.91823092      14.66425126      13.57080348
Mg      15.39491491      18.34592426      17.36191410
27
Properties=species:S:1:pos:R:3 config_type=qcd gap_pre_relax_energy=-23.55861872280193 gap_pred_energy=-23.620073979602928 gap_fmax_final=0.0008145074747747793 gap_converged=1 pbc="F F F"
Mg      13.90442366      11.10374371       7.35316798
Mg      12.27429898       9.77367920      14.13947546
Mg      11.38205486      12.72750939       7.99550773
Mg       9.63326723      13.71490504      10.36025958
Mg      15.82688056      11.71578112       9.83171655
Mg      14.42006981       9.09232143       9.42347979
Mg      13.70476587      12.40148331      13.76547429
Mg      14.61495403      14.22132934      11.34039159
Mg       9.26024891       8.44803241      10.41557580
Mg       8.82228976      14.15758827      13.22115811
Mg      14.34530695      13.84415808       8.30874472
Mg      12.16057079      15.16697579       9.72588430
Mg      10.04602675       7.78596292      13.25601779
Mg       7.47823639       9.31321642      12.93604512
Mg       8.89189985      11.15593452       9.05797872
Mg      12.62915610      11.77641790      10.68472812
Mg      16.57120352      12.35671026      12.69838943
Mg      12.20475621       8.54010708      11.34191558
Mg       7.65673948      11.83812858      14.56006561
Mg      10.77249730      12.40938347      14.86212735
Mg       7.19720723      12.14060406      11.54280116
Mg      11.72893998      14.25359847      12.55749208
Mg       6.47528451       9.58753199      10.08881897
Mg      14.77988135       9.95140065      12.29685455
Mg      11.47398049       9.66914830       8.59551652
Mg       9.46604174       9.68854022      15.41037815
Mg      10.17156006      11.05835038      12.12257729
28
Properties=species:S:1:pos:R:3 config_type=qcd gap_pre_relax_energy=-24.351212552171514 gap_pred_energy=-24.59661713189608 gap_fmax_final=0.000928181813750656 gap_converged=1 pbc="F F F"
Mg      14.33590466      14.64096117      18.21890184
Mg      14.20911298      18.03268131      13.94681513
Mg      19.27179146      13.62392183      17.07008665
Mg      13.25946624      12.28891070      16.54974808
Mg      19.15241554      16.82689150      13.03648623
Mg      13.38992842      15.13470391      15.15477295
Mg      17.70432183      11.98685473      12.52724770
Mg      10.52319084      13.07765689      15.47803115
Mg      12.32598283      16.82863566      18.37571075
Mg      11.21249940      17.71442771      13.51304187
Mg      13.12715898      15.84160693      12.07380771
Mg      12.25879250      18.62550983      16.11360472
Mg      18.27998376      11.47373999      15.33826129
Mg      15.29635375      13.81745747      12.15420284
Mg      15.36568973      11.96864502      14.48298659
Mg      19.62390470      13.92150005      14.00613401
Mg      17.20500217      15.55294250      17.99716158
Mg      16.15907028      16.70882412      12.18594934
Mg      16.31005401      12.68231097      17.25762310
Mg      18.16191838      14.62321397      11.37193900
Mg      16.59706393      14.93932737      14.90422295
Mg      10.45660116      14.89867744      13.18390206
Mg      17.10961104      18.10734684      14.77994622
Mg      11.34866772      14.06006117      18.11639202
Mg      19.28921007      16.38436883      15.97135707
Mg      10.38250071      16.15177171      16.05112838
Mg      12.63758589      12.79562161      13.32190951
Mg      15.00621701      17.29142876      16.81862921
28
Properties=species:S:1:pos:R:3 config_type=qcd gap_pre_relax_energy=-24.308226262237245 gap_pred_energy=-24.463130028787234 gap_fmax_final=0.0008882539595429103 gap_converged=1 pbc="F F F"
Mg      18.60125783      15.43868893      12.09291877
Mg      15.99596795      15.87340699      10.70277465
Mg      13.82112653      14.86276162      12.59219874
Mg      13.93335557      17.75503262      11.73372433
Mg      16.39351490      13.18848986      11.98959260
Mg      11.53581899      16.74512690      13.31384399
Mg      19.34725542      17.38395588      14.25442894
Mg      11.36372815      13.70096799      13.98858188
Mg      19.30932336      12.51641703      12.54297355
Mg      16.78374844      17.97793310      12.68946665
Mg      14.24466517      12.19022204      13.96562830
Mg       9.20237497      15.73853928      14.93882424
Mg      19.42385033      14.40659719      14.93463789
Mg      16.34945480      15.29475127      14.47722136
Mg      17.19032249      12.15167898      14.74199261
Mg      14.18261267      17.55221235      14.71014714
Mg      18.65667440      16.55786154      17.04393361
Mg      13.74281512      14.61265682      15.87819756
Mg      10.67516052      14.17665755      17.05663843
Mg      16.92607623      18.50214044      15.63726756
Mg      12.11517348      11.66951216      16.07882818
Mg      11.62846854      17.04164918      16.33235915
Mg      15.03397555      11.90718127      16.94548583
Mg      17.34656817      13.89786030      17.16023785
Mg      15.57299470      16.52169898      17.47200799
Mg      12.79355224      15.68585218      18.71410097
Mg      12.62297889      12.63637771      18.83215086
Mg      15.20718462      14.01376985      19.17983638
29
Properties=species:S:1:pos:R:3 config_type=qcd gap_pre_relax_energy=-25.622690655261845 gap_pred_energy=-25.82659780240725 gap_fmax_final=0.0009207549982999055 gap_converged=1 pbc="F F F"
Mg      15.03911377      17.21930319      18.78137179
Mg      15.65842688      12.51991490      12.23667335
Mg      17.15908547      16.60688444      16.78377311
Mg      15.72179249      11.19547106      17.07676420
Mg      12.59643146      15.42186572      18.61655807
Mg      14.57422973      10.29239000      13.96777163
Mg      12.64139181      12.82198800      13.19569377
Mg      13.21862966      12.51836965      18.25262136
Mg      14.13102915      15.15971292      11.68813770
Mg      10.72428931      16.63722624      16.52836118
Mg      14.31400200      17.85539366      13.28507033
Mg      11.56941624      13.81192213      16.02132758
Mg      19.04145284      16.47555659      11.97524485
Mg      18.61132894      13.52231501      13.04767762
Mg      11.93686686      15.85320743      13.71953564
Mg      14.70890137      13.29438201      15.26788197
Mg      16.25533235      15.35689313      13.89929972
Mg      16.34267785      17.43875782      11.18554672
Mg      19.29314622      15.87595172      14.84198728
Mg      17.33180461      18.19617107      14.06514775
Mg      15.09620644      18.90255281      16.13570067
Mg      17.31760197      11.22393132      14.45935270
Mg      12.52597906      18.53373813      18.00875516
Mg      12.51057427      10.94388152      15.87446887
Mg      17.06828829      14.63244136      10.65431737
Mg      14.04605722      16.05496739      15.94473296
Mg      17.79666210      13.59162292      16.20096329
Mg      15.62031151      14.27878259      18.21592556
Mg      12.14897010      18.76440522      15.06933775
29
Properties=species:S:1:pos:R:3 config_type=qcd gap_pre_relax_energy=-25.500684471004227 gap_pred_energy=-25.669115209584266 gap_fmax_final=0.0009875669484281401 gap_converged=1 pbc="F F F"
Mg      12.19030522      15.39799969      11.22156557
Mg      13.89847587      17.82122020      11.14900064
Mg      18.04308899      14.95870070      12.62843124
Mg      14.14201466      10.52390348      13.95128821
Mg      15.27604421      15.00243474      11.34614824
Mg      16.42375479      17.57672034      12.64677101
Mg      11.44452713      17.75583455      12.87262876
Mg      13.29803686      13.11691957      12.77404407
Mg      16.31035529      12.42822255      12.76272991
Mg      16.71967075      19.07334129      15.26776804
Mg      20.02687015      15.40677833      14.93079678
Mg      11.15109467      14.89782534      14.10425805
Mg      12.23180351      12.34257341      15.55553324
Mg      13.98804444      19.15752298      13.94139362
Mg      15.15809326      13.54774091      15.43171371
Mg      14.10500296      15.97569916      14.08197960
Mg      16.81100189      10.46862897      15.20483207
Mg      16.98125293      16.06250350      15.26242364
Mg      18.26963841      13.04037608      15.08644943
Mg      11.48772155      14.80251025      17.09683356
Mg      11.96680598      17.49248248      15.77666633
Mg      14.39220825      10.56347315      16.92592045
Mg      14.30118192      19.01961167      16.96944586
Mg      18.58338988      14.87494398      17.58550800
Mg      13.78926613      13.15023350      18.21790968
Mg      16.86017851      12.27696351      17.75545874
Mg      16.79996558      17.45725935      17.92794309
Mg      14.23527960      16.01692536      17.25036352
Mg      16.11492668      14.79065095      19.27419493
30
Properties=species:S:1:pos:R:3 config_type=qcd gap_pre_relax_energy=-27.030077630269677 gap_pred_energy=-27.127495987760955 gap_fmax_final=0.0008903348405724224 gap_converged=1 pbc="F F F"
Mg      12.24681261      13.83230956       9.18773024
Mg       9.85049027      12.20641448       8.52897503
Mg      12.59324602      10.77041260       8.72720264
Mg      14.57433657      15.66342936       9.41413221
Mg      12.23307037      15.90199199      11.52230069
Mg      13.94235241      13.38730296      11.93120466
Mg       9.74404010       9.35403863       9.34303776
Mg      14.50074143      10.25035374      11.14695521
Mg      15.11506097      12.61602545       9.19985541
Mg       9.76525713      14.09620972      11.05958445
Mg      11.54323740      11.63190718      11.48126825
Mg       8.16404086      11.38281160      10.82565658
Mg      17.06698653      14.71221569      10.71500258
Mg      15.25471195      16.57051877      12.15461829
Mg      12.11565991       8.47684346      10.76978350
Mg      16.89554741      11.97425226      11.66613740
Mg       9.76150517       9.38717555      12.58365296
Mg      12.73056751       9.38561713      13.55764489
Mg       9.07737311      12.28407874      13.50394377
Mg      10.47455081      15.04288597      13.91717026
Mg      16.25733604      14.14065601      13.80173061
Mg      12.23299290      12.55226342      14.25913052
Mg      13.52548087      15.53918071      14.33829141
Mg      15.21494672      11.20335164      14.02354386
Mg      10.48610535      10.35478902      15.50391886
Mg       9.52122564      13.19494460      16.29594313
Mg      13.48968617      10.31052813      16.30437511
Mg      14.46033336      13.26283997      16.24911253
Mg      11.88822624      14.92592558      16.73950641
Mg      11.84812147      12.16276942      17.82263408
30
Properties=species:S:1:pos:R:3 config_type=qcd gap_pre_relax_energy=-26.995529448366188 gap_pred_energy=-27.073115325529802 gap_fmax_final=0.0009936375407359637 gap_converged=1 pbc="F F F"
Mg      12.88263257      15.16276932       8.30223935
Mg      13.42319768      12.08647856       8.38824519
Mg      11.07660925      10.17759688       9.30594113
Mg       8.30109659      11.51452276       9.41668286
Mg      15.68402854      14.38891083       8.82962450
Mg      10.68207522      13.28139161       9.04232448
Mg      14.37656657      16.38004165      10.60796419
Mg      15.99491395      11.75526102      10.00978986
Mg      11.33632221      15.71896369      10.91009982
Mg       8.76129652       9.05589175      11.08182730
Mg       8.72571284      13.97804569      11.29129942
Mg      13.63625660      10.20480096      10.94635804
Mg      11.43407796       8.69050950      12.39856612
Mg      13.18445391      13.30809553      11.17729421
Mg      16.08222661      14.07998077      12.00473631
Mg      14.22629430       8.66663482      13.46835438
Mg      10.64638348      11.68775146      11.91964471
Mg       7.07771742      11.28639904      12.09543997
Mg      16.02434734      11.09472907      12.89250362
Mg       8.35198752      12.91326655      14.13372780
Mg      15.38980343      13.28247876      14.96286190
Mg      12.99813059      11.80922852      13.74750385
Mg      10.90211902      14.34170305      13.58556004
Mg      13.72216013      15.46414871      13.39058632
Mg       9.22697723       9.97629330      14.09564533
Mg      12.02579542       9.43506887      15.41595263
Mg      15.31805575      10.21305713      15.70460576
Mg      12.73093093      14.34210666      15.97880249
Mg      10.60267824      12.12399347      15.88278647
Mg      13.32208324      11.72681116      17.15996304
30
Properties=species:S:1:pos:R:3 config_type=qcd gap_pre_relax_energy=-26.880117171214234 gap_pred_energy=-27.04707814881068 gap_fmax_final=0.0009306771978820031 gap_converged=1 pbc="F F F"
Mg      14.09177881       8.61486752      13.05792099
Mg      15.63097496      10.65556455      11.39114364
Mg      11.66294653       9.96150617      14.47152416
Mg      12.73150639      11.72832593      16.86913092
Mg      13.90070672      11.92920424      13.73146582
Mg      14.28614693       9.34303632      15.94639821
Mg      16.96043226      12.65582682      13.22636395
Mg       9.90286777      12.01705476      15.84173794
Mg      14.86035091      17.31560912      13.07437323
Mg      13.94300433      14.31477865      12.06341410
Mg      12.74298628      16.96787796      10.91886011
Mg      10.70558696      12.50654921      13.01588362
Mg      12.40466763      10.54695144      11.39525615
Mg      16.38037381      13.54667281      10.27081841
Mg      15.72199666      12.09319824      16.19348832
Mg       9.63396653      14.98026109      15.08641649
Mg      11.53675673      13.33482368      10.20574663
Mg      13.81257497      14.87381262       8.87575057
Mg      15.67299578      14.84847043      14.86469990
Mg      17.22169408      15.52512268      12.37987055
Mg      13.96548316      14.47165711      17.46038835
Mg      16.62900731       9.81200028      14.20376160
Mg      14.15579306      17.17222418      15.98748891
Mg      10.61897643      15.33777709      12.24636123
Mg      10.91306287      13.98090029      17.81399909
Mg      11.41966177      16.70606312      16.89756397
Mg      12.56763251      14.38388632      14.78021840
Mg      15.70111975      16.70988615      10.16825681
Mg      14.01304840      11.95023776       9.30440337
Mg      11.88941137      17.39336519      13.93480623
31
Properties=species:S:1:pos:R:3 config_type=qcd gap_pre_relax_energy=-28.162297234629918 gap_pred_energy=-28.224218972059106 gap_fmax_final=0.0009791708574629343 gap_converged=1 pbc="F F F"
Mg      11.48526038      11.99425663      17.13098477
Mg      12.87953895      16.79442517      18.33973901
Mg      11.97840603      17.91766106      15.70425813
Mg      11.08202890      15.06428361      16.66795206
Mg      13.07509943      13.08414245      12.57766713
Mg      10.56072245      12.95194087      14.45948306
Mg      18.42704983      14.67386581      17.22252430
Mg      18.18199921      11.74442434      13.13817181
Mg      16.91674801      16.52354665      12.29252338
Mg      19.85086860      13.45150208      14.92942783
Mg      19.02505118      14.42781169      12.23294387
Mg      13.98785290      19.95915588      14.44119094
Mg      12.53578198      10.76054332      14.62481346
Mg      14.60042843      16.63017994      14.56355747
Mg      12.25048497      18.32872271      12.64339178
Mg      15.34115205      11.50944274      13.98479245
Mg      17.76736825      17.64692374      17.05720452
Mg      13.74434584      13.90552229      15.48321587
Mg      16.88595048      18.77244532      14.41560354
Mg      16.30507745      12.99322939      18.62689822
Mg      13.95762409      15.89206753      11.62968560
Mg      17.51791646      11.76947416      16.16670434
Mg      13.36226794      13.79112305      18.55494392
Mg      15.54691140      15.68189846      17.52672855
Mg      14.52156175      11.24794209      16.95549071
Mg      11.65056985      15.60551083      13.67638701
Mg      15.06865912      18.81988112      11.90355404
Mg      16.02381247      13.59844007      11.80227364
Mg      14.87752897      18.61355724      16.92667355
Mg      18.98576195      16.44195821      14.59024086
Mg      16.60617072      14.40412161      14.73097417
31
Properties=species:S:1:pos:R:3 config_type=qcd gap_pre_relax_energy=-27.93040422705733 gap_pred_energy=-28.177903711652185 gap_fmax_final=0.0009036423736372165 gap_converged=1 pbc="F F F"
Mg       8.35571344       9.50970571      14.40812561
Mg      13.92932855      11.52705738      15.25966932
Mg       9.88570146      11.81623123      12.09739019
Mg       8.60788605      12.55336262      14.76670723
Mg      12.03677577      14.73981009      11.77816760
Mg       7.97428808       9.18759739      11.38277907
Mg      11.11842363      10.34371684       9.83678157
Mg      14.74010457      13.66207173      13.21811298
Mg      14.46380104      11.71706966       8.80941013
Mg       8.00331365       9.50366631       8.43689566
Mg      14.57847779      14.39781875      10.24904400
Mg      12.20912799      11.40673380       6.82236192
Mg      13.38245978       8.93597790       8.18517761
Mg       6.37776785      11.18970459      13.03325193
Mg      12.81526472       7.64857434      10.81795306
Mg      10.51447023       9.01828568       6.98756470
Mg       9.40720123      12.11201589       7.91164730
Mg      11.13946248      10.51809376      14.84482706
Mg       9.99375905       7.51942325       9.63459604
Mg       7.31764337      11.89962779      10.15176705
Mg      11.73518523      13.39933989      14.41367712
Mg       7.00025748      13.97216289      12.38060976
Mg      16.49990639      12.30701952      10.98437359
Mg      11.92742978      13.36078193       9.12454434
Mg      15.12162974       9.51863980      10.75939981
Mg       9.50848768      15.10194702      13.31036643
Mg      12.95236070      11.60318462      11.80707253
Mg      10.65234432       8.62716436      12.56253739
Mg      16.05564345      10.76665892      13.41640159
Mg       9.27923053      14.24668421      10.28567466
Mg      13.54829235       9.02161051      13.45485114
32
Properties=species:S:1:pos:R:3 config_type=qcd gap_pre_relax_energy=-28.96519005563259 gap_pred_energy=-29.059809465195933 gap_fmax_final=0.0009485429310878347 gap_converged=1 pbc="F F F"
Mg      17.05198967      15.99867022      10.91120140
Mg      13.82223181      14.43463547      13.71714752
Mg      15.76698784      18.48530513      12.04565346
Mg      13.41117084      11.38555166      12.28435794
Mg      14.65813566      16.34499897      16.19405817
Mg      17.65064006      14.94454981      17.84611774
Mg      18.09514629      18.36784535      13.96826933
Mg      16.17574917      11.60076017      13.52023743
Mg      12.77954850      16.48662731      18.42323972
Mg      11.16829127      15.74719461      12.43403427
Mg      15.44563630      13.44588953      11.18909394
Mg      16.31255729      10.32987157      16.24171449
Mg      13.22022031      17.68386740      13.52941227
Mg      12.32395002      13.62934966      10.78341946
Mg      11.26684944      13.04419363      13.96799978
Mg      12.47375957      18.71667608      16.27611427
Mg      18.07085912      13.83190611      12.83929058
Mg      17.07674582      12.06332396      18.48732411
Mg      11.47734633      15.97840302      15.44053879
Mg      17.37090662      17.82618589      16.85920485
Mg      14.18590654      11.24907755      18.17701787
Mg      13.54809080      11.23774558      15.22914065
Mg      14.77841911      19.20961023      18.00606118
Mg      18.44323413      12.61828020      15.67208834
Mg      15.36564298      19.28202529      15.00330402
Mg      15.66573319      13.60087269      15.85442754
Mg      14.80969112      14.10161779      18.93205471
Mg      18.87941461      15.65644674      15.19423982
Mg      15.81577072      16.84434476      19.34729553
Mg      16.23368904      16.03315280      13.78976783
Mg      14.00179847      16.18009147      10.98736229
Mg      12.65388739      13.64092935      16.84881072
32
Properties=species:S:1:pos:R:3 config_type=qcd gap_pre_relax_energy=-29.100840931970147 gap_pred_energy=-29.25291272390801 gap_fmax_final=0.0009393760532760695 gap_converged=1 pbc="F F F"
Mg      11.95865459      12.65883112      13.67287146
Mg      16.23731328      10.95816494      17.42853598
Mg      10.86665770      14.72796285      11.67219948
Mg      12.79401745      16.51646999      10.40341724
Mg      11.72283478      17.52000955      13.05898612
Mg      13.89581258      12.45698012      18.52152435
Mg      13.81542433      15.31260594      13.72738246
Mg      15.60796463      15.72013904      10.51124455
Mg      10.38532298      15.20624963      14.50579075
Mg      13.72160865      19.06842250      14.79822704
Mg      19.09809707      17.58671234      15.09451309
Mg      15.64412076       9.17961213      15.05585047
Mg      13.60986529      13.53064350      11.17215497
Mg      15.83942198      16.52231908      15.66384340
Mg      14.00616997      15.49831817      18.19868652
Mg      18.55736020      12.81720104      17.06423091
Mg      18.50545625      15.82366066      17.52039179
Mg      14.66657800      11.42403925      13.20684008
Mg      16.39431272      16.91465012      19.36442798
Mg      13.37831816      11.01319821      15.93224110
Mg      17.34050988      16.70964508      12.76279591
Mg      15.35794563      13.61221359      15.79272153
Mg      16.40919028      13.77060868      12.64739479
Mg      18.39099212      14.61583563      14.71966671
Mg      14.71023192      18.11890329      12.17236423
Mg      17.47055045      18.79184773      17.28772170
Mg      12.19101563      13.82172336      16.44239801
Mg      14.45831397      18.51958452      17.68425914
Mg      16.68693674      19.26213686      14.33574570
Mg      17.46770475      11.56211747      14.56299155
Mg      12.30967317      16.86444698      16.13106265
Mg      16.50162410      13.89474660      18.88751831
33
Properties=species:S:1:pos:R:3 config_type=qcd gap_pre_relax_energy=-30.311113546648954 gap_pred_energy=-30.46286329228532 gap_fmax_final=0.0009448365682994488 gap_converged=1 pbc="F F F"
Mg      10.50223018      13.59697138      17.10900214
Mg      15.89278253      11.09412890      15.03389460
Mg      11.78259688      14.52117538      12.15534913
Mg      16.58176804      14.09309559      15.32989103
Mg      15.17591665      16.70274471      15.83066746
Mg      14.60160020      15.34858434      13.24602660
Mg      17.07764862      17.46066667      13.43212840
Mg      16.51270197      12.80349930      12.40026275
Mg      16.53902924      15.56630584      10.94211922
Mg      12.13262031      16.10119687      17.90073939
Mg      12.41781703      17.53569831      12.82350722
Mg      10.98082771      15.74887454      14.92057646
Mg      19.92793232      13.84271303      15.82864156
Mg      10.91674459      12.69465435      14.36248571
Mg      14.36331399      18.30514863      18.17618048
Mg      14.67153307      19.32934761      14.08732985
Mg      13.65559428      12.22446196      13.31997530
Mg      18.65233054      14.85170097      13.17653648
Mg      12.43529975      18.24183996      15.78397952
Mg      18.78947467      11.78640501      14.03028757
Mg      15.50791732      12.33929640      17.79090966
Mg      17.91115543      14.38424836      18.11539602
Mg      12.95135530      11.33640204      16.28324366
Mg      15.08126164      18.24592573      11.37140651
Mg      18.31679745      11.55883800      16.94855112
Mg      13.55248759      14.20923514      15.82484695
Mg      14.23943731      13.46058820      10.59079406
Mg      12.80791843      13.15841729      18.82896172
Mg      18.55107276      16.53289523      15.90946025
Mg      16.88312238      19.16355312      16.15795682
Mg      17.20250493      17.29943147      18.47512495
Mg      13.38336417      16.21448748      10.15375322
Mg      15.00184275      15.24746816      18.66001419
33
Properties=species:S:1:pos:R:3 config_type=qcd gap_pre_relax_energy=-30.172945317716206 gap_pred_energy=-30.44095976474633 gap_fmax_final=0.0009767867918406942 gap_converged=1 pbc="F F F"
Mg       8.69055448      10.72431720       7.63989275
Mg       6.85379896       9.87056817      10.04363295
Mg      11.07622854      11.25237592       5.78847804
Mg       7.44369016       7.14512235      11.40713989
Mg       9.14184696       8.08730438       9.16810826
Mg       6.07193408       9.13146364      13.07389410
Mg      10.69852756       8.48349135       6.68211027
Mg      10.48300058       7.23695583      11.82642958
Mg      12.10629819       7.48738293       9.19523972
Mg      10.59385157      13.41035901       7.97831963
Mg       8.62390246      12.56711031      10.06420959
Mg       6.52600571      11.87586669      12.22868282
Mg       9.49542310      10.15811441      11.74458503
Mg      11.30905825      10.63878730       9.25861194
Mg       8.49483044       7.71989931      14.14672734
Mg      13.36665292      12.56442042       7.02911171
Mg      13.46686260       9.53923127       7.17896191
Mg      14.89159304       8.45675478       9.64602686
Mg       8.29743417      10.73678467      14.54668252
Mg      12.76116747       9.26239393      11.70581082
Mg      11.08333240       9.31296534      14.26374355
Mg      13.16644447      14.16781271       9.55076589
Mg      10.52357384      14.90183161      10.79615642
Mg       8.96446914      13.31561300      12.96648991
Mg      14.37509511      11.39776195       9.61610858
Mg      11.82125680      12.29987098      11.79792872
Mg      15.64166523      10.15815629      12.03727210
Mg      10.98144586      12.29212651      14.91634270
Mg      13.65780430      11.01368371      14.11814675
Mg      13.23991729      15.66455845      12.14360042
Mg      10.94450640      15.26437414      13.92448461
Mg      14.89070866      13.09772385      12.08754887
Mg      13.52161950      13.96931785      14.63325601
34
Properties=species:S:1:pos:R:3 config_type=qcd gap_pre_relax_energy=-31.148905680451378 gap_pred_energy=-31.282038308262877 gap_fmax_final=0.0009521038737156491 gap_converged=1 pbc="F F F"
Mg      14.94020218      15.29724836      10.65390441
Mg      11.50403794      15.68525111      15.77607242
Mg      14.12329186      10.56087682      17.53763942
Mg      12.07268035      14.27598490      10.92213920
Mg      18.49973971      13.14238198      14.75144838
Mg      14.57198063      15.91061384      16.46014630
Mg      13.25691315      17.90538371      20.10488844
Mg      15.16286183      13.20648228      15.21085624
Mg      15.21777163      17.97864508      12.38079820
Mg      13.41880754      10.77103140      14.56315891
Mg      17.00639610      11.41646971      16.88929042
Mg      16.58447138      11.04540001      13.61465947
Mg      15.70809842      16.23058062      19.30810066
Mg      17.45282180      17.55122944      17.00892945
Mg      12.51106203      18.13053590      14.02207236
Mg      15.68539650       8.98527223      15.59134384
Mg      17.42333401      14.50757943      17.28080518
Mg      12.64070672      18.24088793      17.09852617
Mg      14.32309868      12.59600228      12.19806299
Mg      13.77942964      15.39274854      13.54837355
Mg      12.45074918      12.93607377      16.71896936
Mg      11.67099747      13.20335174      13.79457417
Mg      14.92926113      13.31715945      18.47065093
Mg      12.60627047      15.35235094      18.67172975
Mg      10.59114705      15.96500546      12.88891414
Mg      19.58898319      15.94477193      15.67016211
Mg      12.57220166      17.24694315      11.05449246
Mg      18.11127633      18.14779083      13.91022303
Mg      15.27238992      19.12207883      18.31329852
Mg      19.64944290      15.31720291      12.82668924
Mg      17.57521780      16.60918764      11.22012472
Mg      15.25685895      18.72627147      15.29586439
Mg      17.21126859      13.61418253      11.96846805
Mg      16.63083329      15.66702377      14.27462316
34
Properties=species:S:1:pos:R:3 config_type=qcd gap_pre_relax_energy=-31.251288113210528 gap_pred_energy=-31.353950946047505 gap_fmax_final=0.0008985248524887421 gap_converged=1 pbc="F F F"
Mg      14.30470401      16.10902457      13.54091882
Mg      11.11878036      16.14010069      16.37152395
Mg      13.82900870      19.30653753      13.34154207
Mg      15.93887656      17.81868705      18.03163974
Mg      17.22889793      13.37981753      16.82950982
Mg      16.27960774      19.21581514      15.05792337
Mg      13.57975125      17.95639924      16.02740449
Mg      11.53490316      17.29088095      13.55241356
Mg      15.63351933      14.83856393      19.07343648
Mg      18.30439775      15.85235897      18.20295256
Mg      15.43651944      13.45770709      14.24351731
Mg      17.89290074       9.96794824      12.88837782
Mg      15.07706161      15.13176342      10.75769724
Mg      11.57787127      13.04365916      17.09405167
Mg      12.05696294      15.19849963      11.36550448
Mg      18.47600887      12.68099114      14.11243018
Mg      19.37043879      15.33890964      15.36897768
Mg      16.28496268      10.74964597      15.45249223
Mg      12.94259378      13.68101773      19.74420246
Mg      16.48091437      16.17357918      15.52183430
Mg      14.93085976      10.14381742      12.78945381
Mg      13.23258656      11.44624926      14.96439926
Mg      13.98564003      14.85969714      16.44549992
Mg      13.50272759      12.65289630      11.95569405
Mg      16.57612947      12.47264863      11.54824519
Mg      14.54754217      12.10662883      17.68131573
Mg      10.41005087      15.10573857      19.13349391
Mg      18.74719999      18.30444149      16.65787820
Mg      13.34744978      17.77951505      10.84654264
Mg      17.51589042      15.22354829      12.66757638
Mg      16.19925401      17.98390063      11.98914305
Mg      13.11960193      16.64271919      18.81395620
Mg      11.91222602      14.12823449      14.19256935
Mg      18.62416010      17.81805786      13.73588209
35
Properties=species:S:1:pos:R:3 config_type=qcd gap_pre_relax_energy=-32.514869685358114 gap_pred_energy=-32.67203397159703 gap_fmax_final=0.0009067383723916818 gap_converged=1 pbc="F F F"
Mg      12.50807365      15.13462938      11.67707706
Mg      14.96068374      14.41485200      10.20484712
Mg      15.09013916      16.79254578      12.02813245
Mg      12.27024000      18.03000430      12.86498895
Mg      17.69055994      15.09270084      11.38344822
Mg      16.46372475      12.00855383      10.78033152
Mg      13.64860848      12.28147152      12.18930473
Mg      11.51523967      13.46419091      14.09302885
Mg      18.60223007      12.45152697      12.71051197
Mg      15.77804995      14.05662109      13.50216069
Mg      14.92068143      18.71386745      14.34424857
Mg      13.49163854      15.76546744      14.62995295
Mg      18.95695156      15.01248628      14.20378824
Mg      17.74118078      17.63420252      13.27706430
Mg      16.06713517      10.89960997      13.59443037
Mg      10.01471499      15.92688814      13.08441060
Mg      16.36825311      16.19566100      15.65875424
Mg      17.78816179      12.61309712      15.63363052
Mg       9.68149359      18.48681795      14.57588480
Mg      17.49101333      19.44568541      15.77100366
Mg      19.65045150      17.42794170      15.81149541
Mg      15.12284834      18.39416028      17.43379945
Mg      13.34651343      11.23245603      15.11002496
Mg      10.61465000      15.83786550      16.02312841
Mg      14.85589507      13.63581899      16.32841772
Mg      15.99182552      10.42151234      16.53195114
Mg      12.39152149      18.43575056      15.98326697
Mg      18.60771449      14.94083020      17.39956644
Mg      13.17205183      16.04829762      17.72591566
Mg      11.87805005      13.24996385      17.13347193
Mg      18.04584928      17.87728264      18.27140871
Mg      16.65830163      12.67127742      18.55070426
Mg      13.70798958      11.04472103      18.21997850
Mg      16.01559593      15.68849513      18.79856316
Mg      13.89196819      13.67274680      19.47130750
36
Properties=species:S:1:pos:R:3 config_type=qcd gap_pre_relax_energy=-33.408304636497355 gap_pred_energy=-33.63388459060415 gap_fmax_final=0.0009636914834674928 gap_converged=1 pbc="F F F"
Mg      15.60171283      13.89763699      10.04409634
Mg      18.48547628      14.24892534      10.30666619
Mg      13.57790857      15.63234155      11.29401377
Mg      19.93248167      12.69037918      12.43414651
Mg      16.99408060      12.10348762      11.98688927
Mg      16.64423109      16.61254547      11.09220400
Mg      13.97117825      12.84171458      12.44536364
Mg      11.51273812      17.42109655      12.36016897
Mg      14.45216858      17.89569525      13.10951207
Mg      11.23772457      14.16612201      12.87196588
Mg      15.95447769      14.95495461      13.46337362
Mg      19.02001654      15.55812795      12.91148354
Mg      17.31938621      17.85886747      13.92437922
Mg      17.96034197      13.07151326      14.79922680
Mg      15.46698573      10.82639813      14.22105890
Mg      12.13999124      18.57065826      15.10477618
Mg      13.09453506      15.60858740      14.74064616
Mg       9.66833564      16.41735397      14.35361247
Mg      18.73877627      15.93429512      15.87369666
Mg      14.76215242      13.34768761      15.78520584
Mg      16.81267812      11.15373247      16.91125262
Mg      12.34082095      11.67180541      14.66833063
Mg      15.12537980      19.24639438      15.78430992
Mg      15.65490140      16.26139256      16.27494558
Mg      10.69421090      16.74471991      17.05897125
Mg      10.60715797      13.91973566      15.85847068
Mg      17.38272365      13.96348672      17.75646195
Mg      18.07017454      18.83201757      16.67469699
Mg      14.05601608      10.11429532      16.81944633
Mg      18.22235041      16.70371788      18.78904226
Mg      13.36630345      17.83554226      17.82820269
Mg      12.87394366      14.85303754      17.88923174
Mg      12.01907601      12.01573324      17.67508145
Mg      14.82404584      12.60420488      18.77253904
Mg      16.03296979      18.71922033      18.80127937
Mg      15.38254808      15.70257554      19.31525145
36
Properties=species:S:1:pos:R:3 config_type=qcd gap_pre_relax_energy=-33.52961108742094 gap_pred_energy=-33.68826897179969 gap_fmax_final=0.0009244444833143136 gap_converged=1 pbc="F F F"
Mg      15.36974961      15.89821334      12.07196401
Mg      14.05148028      13.52896156      13.48492276
Mg      15.38930331      13.11032365      10.64890048
Mg      12.80886171      11.11722099      14.92066074
Mg      14.72941984      10.74715775      12.51476925
Mg      14.23827107       8.42507224      14.37169738
Mg      13.97261808      15.56197559       9.45498617
Mg      12.24045298       6.41663408      13.53883032
Mg      12.25208206      15.51105381      11.92351025
Mg      14.28532000      10.32537466       9.57116793
Mg      10.98586673      13.27218312      13.70696047
Mg      13.95413078       7.86109820      11.33310486
Mg      12.31736157      12.46330557      11.00486979
Mg       9.71126215      10.68241803      14.66770789
Mg      13.58112163      12.93753258       8.09979076
Mg      11.71828774       9.73419399      12.37511659
Mg      12.77219759       7.81633471       8.38967131
Mg      11.53552361       8.42571262      15.64715093
Mg       9.34575952      14.65731460      11.53642028
Mg      13.27178355      10.32555656       6.73842843
Mg      11.13459241      14.53814582       9.05829213
Mg       9.41228370      11.52080900      11.49044551
Mg      11.12773652      10.17608395       9.39301401
Mg       9.49937026       7.83942577      13.44145938
Mg      11.07563289       7.02695165      10.83009742
Mg       7.81811001      12.96657225      13.72840156
Mg       6.49138139      13.86558895      11.11413071
Mg       8.48044585      13.04820969       8.97000872
Mg      10.66424725       9.20280241       6.11527634
Mg       7.21752395       9.91688809      13.14259929
Mg       8.50471174       8.66263773      10.66294467
Mg      10.73818912      12.16471019       7.08209832
Mg       9.71939756       7.39800044       8.19161024
Mg       6.50204934      10.97072584      10.27124988
Mg       4.97502538      11.97216424      12.84915743
Mg       8.37005817      10.17425568       7.92019313
37
Properties=species:S:1:pos:R:3 config_type=qcd gap_pre_relax_energy=-34.611823436118016 gap_pred_energy=-35.00502250788168 gap_fmax_final=0.0008786358166372168 gap_converged=1 pbc="F F F"
Mg      18.74043447      13.11243360      12.06686432
Mg      16.49790640      13.59846892      14.32181596
Mg      14.09027636      17.09029745      15.27332150
Mg      15.09784413      18.18649074      11.78907164
Mg      12.95572791      10.45042847      15.36187679
Mg      19.72175365      14.13437058      16.95982585
Mg      15.93757407      10.72029755      15.49479772
Mg      18.88430375      11.97849942      14.97973796
Mg      11.58249235      15.85646353      13.66874254
Mg      16.75059055      19.06602713      16.68086628
Mg      15.00064526      14.45078900      18.98090848
Mg      19.06818184      17.08577184      16.63508686
Mg      17.34787903      15.77177628      11.66148502
Mg      14.12311327      11.64394810      17.86671111
Mg      11.39634832      12.86151572      14.05695698
Mg      12.86255196      16.48133203      18.10637284
Mg      13.77297466      19.33207462      17.21150831
Mg      12.66657164      13.91898755      11.33579428
Mg      15.86914887      13.15126895      10.97549828
Mg      12.43180528      16.97465975      11.00487522
Mg      16.39725657      15.67519652      16.38980745
Mg      15.62103424      17.47839042      18.93075536
Mg      14.62769201      15.34280276      13.05868389
Mg      15.05458679      19.88563846      14.36143295
Mg      17.12753823      17.58588801      14.05637376
Mg      14.14848710      11.94387745      13.13838548
Mg      10.98262767      11.88874776      16.94380110
Mg      19.14585797      15.20140071      14.20217323
Mg      10.75742975      14.90211854      16.43948963
Mg      17.92958521      15.42054654      18.99123997
Mg      12.41894663      18.87369757      13.30603579
Mg      17.02634165      12.77137192      17.43219296
Mg      17.00368585      10.84032232      12.69947352
Mg      13.75849072      13.98536914      15.84869794
Mg      12.09824130      13.69846535      18.93116372
Mg      14.85478022      15.74883375       9.87347271
Mg      11.24929435      17.89143158      15.96470261
37
Properties=species:S:1:pos:R:3 config_type=qcd gap_pre_relax_energy=-34.709135712841416 gap_pred_energy=-35.03613444912547 gap_fmax_final=0.0007046238092237467 gap_converged=1 pbc="F F F"
Mg      15.10241887      17.10525883      11.04962148
Mg      12.70433835      18.50046664      12.57366175
Mg      18.03460901      12.43747711      12.12588607
Mg      15.18353551      13.54124985      11.58205508
Mg      17.56392018      15.14060080      10.83390105
Mg      17.95130657      17.71264855      12.16149756
Mg      12.65918772      12.16764217      12.27065940
Mg      10.34932986      16.69385555      13.22857479
Mg      12.79567277      15.37287323      12.12402179
Mg      15.31883918      10.75043602      12.85916557
Mg      15.56241880      18.88803950      13.61198928
Mg      19.35994375      12.41920334      15.11330497
Mg      13.28015934      20.03406961      15.23155605
Mg      10.61435048      13.81143994      13.78860743
Mg      15.84340894      15.75173583      13.59588537
Mg      18.07348185      10.00614033      13.91610036
Mg      16.45837922      13.02455396      14.69121243
Mg      18.91886513      15.05079355      13.59059126
Mg      13.39043452      16.77894123      15.04697297
Mg      13.00053381      10.76299704      14.90862845
Mg      15.84630113      10.20853534      15.86972561
Mg      11.28742141      12.83641202      16.51721575
Mg      10.66159724      18.77274533      15.27262862
Mg      17.88307552      17.50973811      15.18784389
Mg      10.55620059      15.83937395      16.14691027
Mg      18.90465070      14.99561278      16.66432060
Mg      15.75577516      15.33157465      16.62703538
Mg      15.47972434      18.65607059      16.73056275
Mg      13.58958600      13.82935621      14.73052127
Mg      12.57031554      18.04781108      17.64257189
Mg      14.19364491      12.23462112      17.31344831
Mg      12.89488675      15.00934447      17.88755575
Mg      17.27221429      12.52980549      17.61477614
Mg      17.88540090      17.55134045      18.19460200
Mg      17.83389287      14.95455701      19.52171013
Mg      15.05759342      16.87882878      19.19410686
Mg      15.16258538      13.86384951      19.58057165
38
Properties=species:S:1:pos:R:3 config_type=qcd gap_pre_relax_energy=-35.61468196102454 gap_pred_energy=-36.11893639845351 gap_fmax_final=0.0009307842836487248 gap_converged=1 pbc="F F F"
Mg      15.19149584      13.45175923       7.43721963
Mg      12.29075889      12.34853999       7.19111695
Mg      14.77156916      10.76957777       8.69937603
Mg      12.92476817      15.36436633       7.42422418
Mg       9.47670261      11.46721050       8.39393867
Mg      11.94793296       9.75829794       8.76586547
Mg      10.37140147      14.34790525       8.61825366
Mg      14.30507139       8.05534149       9.95506370
Mg       7.64455984      13.63288338       9.70939266
Mg      16.08050508      12.97615749      10.38873798
Mg      11.54307593       7.07897712      10.40968094
Mg       9.76831366       9.40043142      10.83279507
Mg      12.97085267      12.99513417      10.09752880
Mg      15.17864295      15.74283361       9.33111949
Mg      10.13475629      12.43324818      11.26616842
Mg       7.16221128      10.79756578      10.38307719
Mg      12.27605376      16.04664616      10.38151520
Mg      16.06928820      10.05572579      11.34701413
Mg       9.44501556      15.51422457      11.31542493
Mg      12.28784845      13.10074276      13.09841202
Mg       7.85840112       9.74982915      13.19258239
Mg      12.95629721      10.33842927      11.69328520
Mg      14.57146286      15.08979973      12.20214948
Mg      10.82613163      10.62666128      13.74054731
Mg       7.31134488      12.74144312      12.66452971
Mg      13.31572496       7.29981045      12.78359609
Mg      14.90635626       9.40366150      14.09962072
Mg      11.82388956      16.00950382      13.41977219
Mg      10.30718603       7.55771794      13.20698853
Mg      15.22485350      12.27419120      13.23366110
Mg      13.98627800      14.47081302      15.15105594
Mg       9.16082271       8.73717985      15.75704316
Mg      13.41536909      11.44385273      15.63748187
Mg       9.40587539      14.29976262      14.00258409
Mg      12.29690579       8.47225241      15.44771519
Mg      11.24934691      13.52426635      16.12370955
Mg      10.89871503      10.71589177      17.08029139
Mg       8.54928843      11.81243838      15.42253444
38
Properties=species:S:1:pos:R:3 config_type=qcd gap_pre_relax_energy=-35.36071576302353 gap_pred_energy=-35.612041703783525 gap_fmax_final=0.0009554690338897618 gap_converged=1 pbc="F F F"
Mg       9.43590124       6.51658224       5.78460937
Mg      11.69179573       8.34307706       6.81130527
Mg       8.84794520       9.53422381       6.49317039
Mg      11.26799055      11.48941537       7.33590928
Mg      13.99846350      10.07058161       7.76080350
Mg       7.55739403       7.25679996       8.01009455
Mg      10.34027787       6.29904220       8.80698849
Mg       8.30085692      12.33192254       7.57546892
Mg      16.12180983      11.81897837       8.88652234
Mg      13.56507111      13.35003063       8.39795033
Mg      12.87822102       7.91564465       9.70395625
Mg      10.18275096       9.41712101       9.30654387
Mg       7.18373631      10.01568241       9.24411723
Mg      10.68996019      14.41591963       8.35529878
Mg       7.73500972      15.01321677       8.69628884
Mg      14.99122373      12.89463817      11.41592299
Mg      15.24124680       9.64861498      10.80270826
Mg       8.32087683       7.48739822      10.91735586
Mg      11.07809859       6.39528601      11.79540769
Mg       9.87058755      12.22268742      10.27258731
Mg      13.69214503       7.80090017      12.65105165
Mg      12.71788677      11.20840103      10.28280745
Mg       9.28889869      15.14283636      11.21301848
Mg       8.12936945      10.34434385      12.19625010
Mg      12.28367123      14.37851723      11.07488754
Mg      11.13548535       9.43528821      12.08287769
Mg       6.96230359      12.81906796      10.60116877
Mg      13.87952683      10.76389679      13.39046166
Mg       8.30993202      13.21876102      13.38926220
Mg       9.23493728       7.86552768      13.81150407
Mg      13.63099920      13.85940521      13.95075216
Mg      11.17438847      12.23704104      12.95613360
Mg      11.94025854       8.84772738      14.96964428
Mg       9.43769630      10.66402711      15.02852759
Mg      12.26333081      11.76959622      15.88746521
Mg      10.84238076      15.20804940      13.83609541
Mg       9.74457731      13.47902665      16.06296664
Mg      12.36665084      14.85437977      16.57577207
39
Properties=species:S:1:pos:R:3 config_type=qcd gap_pre_relax_energy=-36.9719338343155 gap_pred_energy=-37.11441222096348 gap_fmax_final=0.0008310914101917624 gap_converged=1 pbc="F F F"
Mg      14.92688931       7.44231987       8.61281834
Mg      14.11873769       7.80060883      11.56686724
Mg      15.51661533      10.14919037       9.76721816
Mg      15.32868468      10.39507503      12.72681875
Mg      16.20475576      12.91232437      10.94050797
Mg      16.68996018      12.84982222      13.94061972
Mg      15.97846728      15.45885061      12.69841778
Mg      13.08929484       9.83446452       7.85745957
Mg      12.02077221       7.34992902       9.37034271
Mg      13.77403352      12.56339817       9.07152418
Mg      12.82611104       9.21315641      14.04826476
Mg      12.47127537      10.29438237      10.91468998
Mg      14.78019156      14.72588914      15.29616580
Mg      14.14707838      15.34459153      10.34381763
Mg      14.16205773      11.73040973      15.23978576
Mg      13.51913774      12.99615629      12.36985994
Mg      11.01597782       7.55679069      12.25172617
Mg      11.03634231      12.21959273       7.58608622
Mg      10.10621628       9.55763208       8.45542786
Mg      12.88813097      15.88349607      13.14107423
Mg      10.90648174      12.99267319      10.59368639
Mg       9.14128133       6.96564342       9.95892591
Mg      12.30179260      14.97376433       8.01956870
Mg      11.07968844      11.68318566      13.34136643
Mg      11.92003676      13.83313703      15.42758745
Mg       9.38870458      14.72286288       8.06414058
Mg       9.46794856      10.17639439      11.38025931
Mg      11.44725564      10.91196890      16.26633935
Mg      11.15574143      16.10590659      10.58953888
Mg       8.16675635      12.07535134       9.25410784
Mg       9.71212676       9.14080526      14.53355658
Mg       7.68673372       7.98951680      12.42146542
Mg      10.08276563      14.69467508      13.19798600
Mg       8.32383972      15.01395943      10.73168061
Mg       9.01365028      12.43339824      15.33218223
Mg       7.91698001      12.69773335      12.47164481
Mg       6.13401055      10.56936678      11.42363122
Mg       7.21020733       9.04388669       9.23623236
Mg       7.03640969      10.39083173      14.24974832
39
Properties=species:S:1:pos:R:3 config_type=qcd gap_pre_relax_energy=-36.69076691632548 gap_pred_energy=-37.21631379856613 gap_fmax_final=0.0009393483921676473 gap_converged=1 pbc="F F F"
Mg      10.89398453      14.94857872      10.62081229
Mg      14.02849998      14.83621754      10.07288659
Mg      12.30621278      12.33053458      10.58418512
Mg      12.50753538      17.26848984      11.12482447
Mg      15.48286834      17.35768146      11.39527510
Mg      16.85206294      14.67714825      11.69254594
Mg      10.49172347      13.10413977      12.86108996
Mg      15.15086701      12.25890717      11.56750696
Mg      18.38585331      17.29764714      12.04765557
Mg      13.76711980      14.82602396      13.04992253
Mg      12.93929461      11.40174026      13.42982171
Mg      13.67812381      18.06604722      13.68846136
Mg      16.55283195      19.07627950      13.95839014
Mg      11.01565889      16.03439178      13.72484340
Mg      17.76406758      12.18037840      13.28231575
Mg      15.56660808       9.96960759      13.45748716
Mg      16.33241900      16.12953249      14.38083660
Mg      19.13077635      14.89809517      13.89011055
Mg      19.29579571      17.85283032      14.76257838
Mg      14.24034062      10.68668647      16.17085148
Mg      19.41389627      15.81156213      16.93468607
Mg      12.01271136      13.46533509      15.41075212
Mg      13.75412038      16.00300373      16.08135965
Mg      11.38413911      18.48828321      15.52003535
Mg      17.20852290      18.09913934      16.85743354
Mg      17.26718904      10.29197367      15.79850615
Mg      14.41059250      19.12680496      16.37810963
Mg      15.38859414      13.19147448      14.95590668
Mg      16.37768362      15.06341241      17.13342161
Mg      18.55300947      12.96546948      16.16862031
Mg      15.01985649      17.48656059      18.92859247
Mg      13.73299372      13.20694320      17.80625383
Mg      17.84859759      16.60993754      19.48033450
Mg      10.83029852      15.88393223      16.91354287
Mg      12.14648672      18.32074010      18.34118869
Mg      12.75739316      15.55754139      19.28334350
Mg      16.38554134      11.94449590      18.13911246
Mg      15.57304960      14.50509223      19.95786835
Mg      18.55267993      13.77734069      19.14853112
40
Properties=species:S:1:pos:R:3 config_type=qcd gap_pre_relax_energy=-37.692803965405396 gap_pred_energy=-37.954783107205486 gap_fmax_final=0.000867549163146135 gap_converged=1 pbc="F F F"
Mg      20.19333842      13.34675785      16.33989426
Mg      18.40923551      12.59633788      18.67879584
Mg      19.23980612      13.72497952      13.55114148
Mg      17.60185086      12.04367712      15.54251972
Mg      19.71852313      15.33577299      18.42192258
Mg      18.07923545      14.28958008      10.92574185
Mg      15.94788702      12.73663349      20.42692997
Mg      16.88280738      11.80801608      12.54876481
Mg      18.65481377      15.97395243      15.49987454
Mg      17.25341726      15.32739777      20.08440869
Mg      17.81841363      16.79063215      12.70633414
Mg      15.64437569      12.95662066      10.04966692
Mg      16.46859896      14.47224525      17.14260897
Mg      17.66711891      17.47382489      17.91851249
Mg      15.63477324      11.47638646      17.74474223
Mg      16.20285129      14.46680477      13.81967841
Mg      14.79049647      10.99796301      14.78211428
Mg      17.20820510      18.73584388      15.04703510
Mg      14.81100717      16.77325040      18.81437119
Mg      13.70021982      13.76703750      18.74794391
Mg      15.75419264      19.66934186      17.69132227
Mg      12.93999958      18.94039693      17.46454792
Mg      12.79870603      11.02539624      17.12340406
Mg      13.84484818      13.79407085      15.65204197
Mg      15.04906433      16.72863608      15.66971479
Mg      13.81286098      12.55686583      12.39272060
Mg      15.55485139      15.91962223      10.81259205
Mg      10.98578672      13.29475637      17.28301326
Mg      14.40461359      20.08949381      15.08956729
Mg      12.26361931      16.05572772      17.24182358
Mg      11.61610400      12.03006219      14.50739924
Mg      13.42166243      15.49934544      13.15110215
Mg      15.00596164      18.18755662      12.82739342
Mg      13.03735554      14.39980310       9.95899727
Mg      10.77759906      15.02519250      14.83398958
Mg      12.26527084      17.91120503      14.64454831
Mg      10.90454911      13.77940257      12.03919947
Mg      12.83129143      17.38311190      10.73705952
Mg      10.44835627      16.80424200      12.45997636
Mg      10.35633173      15.81205650       9.62658551
40
Properties=species:S:1:pos:R:3 config_type=qcd gap_pre_relax_energy=-37.749280709324374 gap_pred_energy=-38.04175728525384 gap_fmax_final=0.0008954327809549737 gap_converged=1 pbc="F F F"
Mg      10.85038671      15.96090864      17.73595399
Mg      15.63615474      17.17235155      18.76455113
Mg      13.50888023      15.07554594      18.81705535
Mg      11.75052385      13.20365775      17.14010442
Mg      12.72663202      18.05092314      18.89800779
Mg      11.27675980      15.41880636      14.69313086
Mg      16.32198258      14.26256205      19.86481998
Mg      18.49367847      15.96145541      18.41120062
Mg      14.49615747      12.32417717      18.12604214
Mg      11.27656423      18.46667710      16.33680518
Mg      17.06666707      17.78818406      16.23953081
Mg      13.98496118      16.37621403      15.88403557
Mg      16.25073175      14.59916096      16.83311799
Mg      10.94904004      12.38592322      14.42530420
Mg      13.98757376      13.52401219      15.00203345
Mg      14.28522803      19.23431939      16.53855547
Mg      19.30485467      13.50175775      20.00063857
Mg      17.37130423      11.51988494      18.76205691
Mg      15.47791093       9.49569985      17.45729272
Mg      12.61702982      18.40274325      13.76968736
Mg      15.31639473      15.86187111       9.32855824
Mg      19.42950174      15.82490413      12.37341405
Mg      17.18302100      14.31631518      11.05265744
Mg      14.21206146      13.26405085      10.52694188
Mg      16.97695292      17.35591698      11.29848212
Mg      12.40409908      15.58709212       9.57648448
Mg      18.62437568      13.28927597      13.86376288
Mg      19.27950679      15.86184619      15.43788141
Mg      15.90094998      12.43586672      12.89247180
Mg      13.91964181      18.00318106      10.97554441
Mg      18.61558847      18.33179375      13.69203243
Mg      13.92412955      15.51452649      12.70344353
Mg      16.49988111      15.48814953      13.97950166
Mg      11.40668981      13.78505099      11.84096053
Mg      13.13929883      11.43342012      12.73919167
Mg      15.55297162      18.48553750      13.69958881
Mg      19.09675777      13.20985611      16.91617093
Mg      16.57167180      11.75068665      15.73277587
Mg      13.23884982      10.69089016      15.76878119
Mg      11.07463446      16.78480363      11.90143018
41
Properties=species:S:1:pos:R:3 config_type=qcd gap_pre_relax_energy=-39.54247088194859 gap_pred_energy=-39.71627699308566 gap_fmax_final=0.0009936581318479402 gap_converged=1 pbc="F F F"
Mg       6.73779980      10.81500997      13.48040514
Mg       7.87486872      13.13265656      15.08167855
Mg       7.31891126      14.66104185      12.54711927
Mg       6.44424243      12.35044132      10.84569161
Mg       9.26585433      10.47858187      15.31422063
Mg      10.69232830      13.00641278      16.22230690
Mg       6.88233940       9.38830762      10.81176685
Mg      11.76593889      10.21173956      17.03739476
Mg       9.37380699      16.59498931      11.48554587
Mg      10.02837097      14.91954233      13.92371019
Mg       9.13349065       8.92814048      12.74513634
Mg       9.28448817      12.10386301      12.39149803
Mg      13.64893299      12.45473990      16.78574701
Mg       8.83737420      14.09655987       9.92340154
Mg      12.23995933      16.59345866      12.39020081
Mg       8.68436900      11.13775355       9.16968303
Mg      11.54965594       8.47614528      14.56941956
Mg      12.04349105      11.45911528      13.76721334
Mg      12.91375721      14.43524216      14.58156087
Mg       9.50213204       8.20797916       9.75387528
Mg      11.75581323      13.68690788      11.54090375
Mg      15.37296603      12.58411188      14.32669120
Mg      11.40040793      15.81485120       9.37664969
Mg      11.39187541      10.50978177      10.89271789
Mg      14.81349875      14.80274327      12.27291604
Mg      14.29752347       9.87590499      15.27004373
Mg      11.34280640       7.15105989      11.84980768
Mg      11.19797828      12.76531475       8.54035425
Mg      14.18142339      16.76363436      10.07556654
Mg      13.72125219       8.83194469      12.43910186
Mg      11.01058143       9.80877719       7.75127941
Mg      14.19253296      11.82105014      11.49227728
Mg      17.30438389      12.86744570      11.95221653
Mg      13.92887462      13.91551380       9.10851488
Mg      16.44825595      10.07135268      12.98933572
Mg      13.71126459      10.92002948       8.46149197
Mg      12.83132747       8.13623093       9.45783855
Mg      16.64414682      14.97881930       9.88263158
Mg      15.65628556       9.24818003      10.11012755
Mg      16.48730775      12.05508488       9.10931422
Mg      18.49474586      10.34690429      10.68000777
41
Properties=species:S:1:pos:R:3 config_type=qcd gap_pre_relax_energy=-39.52062538717651 gap_pred_energy=-39.715262165693545 gap_fmax_final=0.0009625234066855527 gap_converged=1 pbc="F F F"
Mg      15.02666676       8.93117011       9.50427928
Mg      14.66759777       9.91593321       6.60642809
Mg      14.54950064       8.20257645      12.56019553
Mg      15.28057416      11.06907305      11.63832788
Mg      15.54832524      11.97563864       8.72677373
Mg      12.73600858       7.96490526       7.60481020
Mg      13.51627806      12.59586975       6.43642669
Mg      13.25537576       8.04230466      15.37643660
Mg      12.39519654       7.81353642      10.52783500
Mg      14.80627498      10.51869010      14.61852262
Mg      12.72694834      10.99580148       9.59429255
Mg      16.05795682      13.11459803      13.69147868
Mg      15.70176986      14.18937866      10.94969515
Mg      11.47082841      10.42568046       6.47109696
Mg      13.47133212      14.20800226       8.90247200
Mg      11.82884900       6.71065194      13.20539615
Mg      12.09855077      10.71709997      16.17430224
Mg      12.24287046      10.28615338      12.77788666
Mg      10.19988006       9.18500871       8.93325818
Mg      12.94718830      13.22219091      11.99420769
Mg      10.83077496      13.00871222       7.94370982
Mg      13.54417406      13.19874618      15.29699018
Mg       9.73233421       8.52155680      11.80246818
Mg      10.19273882      11.86589220      11.00442496
Mg      10.25908374       8.75337679      14.83345014
Mg       8.55716774      11.16567910       7.45916410
Mg      14.40986023      15.61404792      13.65238297
Mg      13.51736362      16.35239813      10.93522490
Mg      10.94591999      13.45682321      17.02014267
Mg      10.69455798      12.75809655      13.98512523
Mg       7.64992086      10.35595926      10.24749027
Mg      10.81513711      14.94754029      10.21587918
Mg       8.33777511      10.65807175      13.33678994
Mg      12.29912248      15.88318537      15.87362026
Mg       8.10506453      13.41973107       9.45288352
Mg       9.08825682      11.20470221      16.25054850
Mg      11.37983509      15.92708738      13.03407361
Mg       8.71424061      14.54936161      12.33362354
Mg       6.50368214      12.59214152      11.89762651
Mg       9.37782593      15.38129953      15.27752576
Mg       7.40013849      13.18427458      14.73568099
42
Properties=species:S:1:pos:R:3 config_type=qcd gap_pre_relax_energy=-40.60755868000587 gap_pred_energy=-40.81180855354296 gap_fmax_final=0.0009588055013682073 gap_converged=1 pbc="F F F"
Mg      10.88126276      16.46798339      18.14344770
Mg      11.65396653      18.27855495      15.55515829
Mg      13.62327370      17.47211452      17.78965763
Mg      15.47987666      16.25812139      19.86463305
Mg      12.95189399      14.67406229      19.37683078
Mg       9.55596384      15.91470210      15.61562735
Mg      14.64016042      19.26736960      15.46637189
Mg      10.97787286      13.58190804      17.14671365
Mg      16.63886801      17.60260338      17.41928380
Mg      15.50273858      16.57208162      14.62109575
Mg      17.71521391      19.11121529      15.11369688
Mg      19.57540925      17.13827718      16.46161061
Mg      12.72243089      15.41039152      15.47833156
Mg      10.58061906      16.84665888      12.96868938
Mg      15.06879099      14.73839920      17.14074921
Mg      13.20389501      18.44845836      12.87133771
Mg      16.02697054      13.34735377      19.62912512
Mg      10.59068909      13.88405303      13.68578608
Mg      18.27884669      15.54609066      18.96363317
Mg      12.62206479      12.13059865      14.94572862
Mg      13.63753264      12.08810092      17.88453411
Mg      18.85987943      12.61725539      18.71889937
Mg      13.41921934      15.36836211      12.64995365
Mg      20.76981721      14.49115218      17.49168859
Mg      16.24498222      18.67091695      12.55170503
Mg      11.85074918      17.28142248      10.23811675
Mg      17.71295283      14.78896239      15.89807812
Mg      16.62134653      11.95485185      16.92170269
Mg      18.54702955      16.74079396      13.48249762
Mg      15.29299633      13.48551635      14.30208330
Mg      14.69176674      10.07984643      15.79874077
Mg      14.72665120      17.60272924      10.24008153
Mg      10.77589988      14.61261525      10.73399659
Mg      12.64724215      12.49256956      11.74932771
Mg      16.39096642      15.57749294      11.68809640
Mg      20.61975653      14.86147762      14.57785352
Mg      13.85358035      14.66595081       9.81974417
Mg      19.44887379      12.26040768      15.66964268
Mg      18.29025649      13.62206215      13.01423622
Mg      17.14807097      10.99060545      14.01152427
Mg      14.39908071      10.43746095      12.92328165
Mg      15.76054197      12.61844950      11.37670702
42
Properties=species:S:1:pos:R:3 config_type=qcd gap_pre_relax_energy=-40.45764650581834 gap_pred_energy=-40.701494307740994 gap_fmax_final=0.0008387078817400902 gap_converged=1 pbc="F F F"
Mg      12.82478511      10.85568003       6.81139712
Mg      15.02094131      12.66286263       7.86483562
Mg      15.32003486       9.69239310       8.34066936
Mg      12.94915317      14.91731083       8.03199029
Mg      10.71455609      13.12944402       7.24411368
Mg      10.15514855      15.55596673       9.13631985
Mg      10.06628820      10.26153036       8.21633958
Mg      12.51101066       8.64806793       8.90259708
Mg      12.49900959      12.06545153       9.51429107
Mg      17.13881178       8.75520431      10.62421553
Mg       8.36874829      14.97503693      11.75287278
Mg      14.79059275       7.12174991      10.13250050
Mg       9.83377244       7.66569687       9.89506590
Mg      14.57542722      14.14284892      10.54337616
Mg      12.69655719      16.63383097      10.47281666
Mg       9.12634193      12.67006042       9.78436035
Mg       7.92776161       9.84507995      10.54369060
Mg      11.35470347      14.07333543      11.44932447
Mg      10.77861726      16.67098438      12.81239204
Mg      14.07695301      10.19071888      11.25473143
Mg      10.87619160      10.41675604      11.39734533
Mg      12.24117075       7.40071062      11.69904940
Mg       9.38953592       8.23784580      12.88060167
Mg      17.03279265      10.39424872      13.04125117
Mg       9.66933344      12.35766156      13.30257713
Mg      16.59858946      11.78776419      10.32169512
Mg       7.14557775      10.24356919      13.48618869
Mg       8.72011848      15.55801414      14.67933620
Mg      12.96079340      12.25568372      12.97958986
Mg       6.77884622      12.42223054      11.52507784
Mg      15.03039159       8.06910681      13.09773973
Mg      12.18537961       9.28162405      14.02247923
Mg      11.48808463      14.54897978      14.93182633
Mg       6.76941091      13.37702637      14.30276312
Mg      13.73377936      15.48660134      13.14809137
Mg       9.45876024       9.97961674      15.40820134
Mg      15.92719600      13.13658959      13.08480532
Mg       6.78989265      11.15314805      16.35440631
Mg       9.13619681      13.03239283      16.34416181
Mg      11.89750813      11.69766825      15.86185349
Mg      14.77696035      10.66372328      14.90451415
Mg      14.29284172      13.59435041      15.52711151
43
Properties=species:S:1:pos:R:3 config_type=qcd gap_pre_relax_energy=-41.67179079663542 gap_pred_energy=-41.882251622339325 gap_fmax_final=0.0008183540152170333 gap_converged=1 pbc="F F F"
Mg      11.91085743      16.79035367      17.40127359
Mg      11.45330789      17.10929205      14.41083760
Mg      11.36894132      14.34873186      15.65276759
Mg      12.27161367      19.49456761      16.01360668
Mg      11.05953061      14.89437667      12.34886661
Mg      11.40346544      11.26184969      16.88956395
Mg      11.50957577      12.08091028      13.76491180
Mg      12.25493036      13.88299564      18.49001834
Mg      13.81305956      16.18723428      19.71591446
Mg      14.41494132      18.46869653      17.89957827
Mg      13.59819651      20.32459134      13.38940570
Mg      14.65685466      15.39267530      16.58787747
Mg      12.88288929      17.66490557      11.85723476
Mg      14.91608408      20.86584607      16.08118809
Mg      13.24239310      15.21980688      10.22274818
Mg      14.57335217      17.72247130      14.62608902
Mg      12.46677525      12.51969424      10.96780869
Mg      13.72627810      14.74654569      13.65293696
Mg      12.63069769       9.46386735      14.69911235
Mg      13.75559351       9.10033567      17.36515017
Mg      13.34871627      11.23544057      19.32407025
Mg      13.99068919      12.42751589      16.02325098
Mg      17.09439111      18.71141485      16.61018204
Mg      15.48152419      19.22857292      11.33356316
Mg      14.31967404      11.23805733      12.94160159
Mg      16.71107885      16.44211362      18.59852977
Mg      15.21882262      13.62850446      19.16490109
Mg      15.65656218      16.30048849      11.73912274
Mg      17.07981887      16.27620755      14.60614833
Mg      16.23086942      13.42697552      14.51004241
Mg      15.72282407       9.79272180      15.11399388
Mg      16.78152119      20.11057841      13.85130965
Mg      19.39339855      18.85474697      14.73856056
Mg      15.49012385      13.33575309      11.23360910
Mg      17.52731050      11.47330149      12.84448975
Mg      16.11105986      11.01391479      17.92283711
Mg      19.22862836      16.36655994      16.65082230
Mg      17.53605139      13.83412391      17.24939027
Mg      18.15441464      17.92274776      12.12795047
Mg      18.14356220      14.57821715      12.17852848
Mg      18.19477571      11.21928052      15.79618492
Mg      20.27200248      16.30119961      13.61514138
Mg      19.40284273      13.74181569      14.78887950
43
Properties=species:S:1:pos:R:3 config_type=qcd gap_pre_relax_energy=-41.46639501180047 gap_pred_energy=-41.70642495259227 gap_fmax_final=0.0009391959844397398 gap_converged=1 pbc="F F F"
Mg      15.18801909      13.65078583       9.31372782
Mg      14.70305349      11.12700471      10.97435289
Mg      12.52007691      13.30580094      10.62687535
Mg      14.58379476      15.86421979      11.18824163
Mg      11.63084906      16.02560022      11.67316001
Mg      17.50792211      15.34268439      10.60017239
Mg      17.53495733      12.05309484      10.00169714
Mg      17.78240834      10.81931351      12.78141032
Mg      12.24142139      11.35028214      13.07430496
Mg      13.56185547      17.47260094      13.59004643
Mg      16.09191477      13.36070833      12.59700208
Mg      10.23902641      13.61439219      12.71313846
Mg      16.52923337      17.84837907      12.42685530
Mg      13.38193327      14.14725996      13.49113827
Mg      14.98900570      10.38970709      13.85725986
Mg      16.10491991      15.72970149      14.48808750
Mg      19.32956425      13.35913007      11.93136642
Mg      10.71780380      16.07368059      14.48941098
Mg      18.87993616      16.03095232      13.29718533
Mg      17.85566135      18.37138739      15.15609368
Mg      15.28730165      19.91391866      14.42793863
Mg      18.43231857      13.24378465      14.76705601
Mg      14.91918173      17.83397272      16.58104764
Mg      11.81046730      18.49924438      15.85258297
Mg      13.43341798      15.44319984      16.10074516
Mg      15.27996587      12.95542362      15.65738668
Mg      12.99839148      10.92062828      16.06824780
Mg      17.29793828      10.60368637      15.80385007
Mg      16.63766581      20.43874083      17.13435916
Mg      16.15305684      15.28477985      17.60136805
Mg      13.65415887      20.57228685      17.05826429
Mg      11.01159933      15.90548309      17.60741355
Mg      18.83276931      15.70513757      16.38998273
Mg      13.07015915      13.23442075      18.08158721
Mg      11.16476878      13.27519536      15.60178232
Mg      17.76165690      17.89175769      18.22417050
Mg      17.79293500      12.85664772      17.74680563
Mg      12.14047565      18.54615493      18.77227694
Mg      15.08628336      18.96230756      19.46768352
Mg      13.63546906      16.01692353      19.32417418
Mg      15.55450601      13.49373803      19.89493868
Mg      15.29802411      11.06678937      18.10845223
Mg      16.37413201      16.39909255      20.45635926
44
Properties=species:S:1:pos:R:3 config_type=qcd gap_pre_relax_energy=-42.65932581107952 gap_pred_energy=-43.17593259646852 gap_fmax_final=0.0009940854517541703 gap_converged=1 pbc="F F F"
Mg      16.43414110      14.44991892       9.90011403
Mg      14.24796352      16.35856237      10.53999128
Mg      13.60276848      13.29386723      10.38160107
Mg      16.41632245      18.26454050      11.51620828
Mg      18.64899687      16.28331680      11.04455852
Mg      11.46710159      15.43708468      11.03707938
Mg      11.37645490      12.73850703      12.51618207
Mg      13.55251327      18.83547503      12.17322200
Mg      18.73571768      13.29739190      11.36362850
Mg      16.14654728      11.78949235      11.42372185
Mg      18.44897618      17.79478674      13.76884124
Mg      13.43999643      10.61206254      12.00165078
Mg      17.47455202      12.83198213      14.13141358
Mg      16.27502166      15.51845302      12.92248589
Mg       9.74830764      15.08597840      13.42222913
Mg      15.55607993      18.33748927      14.52621683
Mg      19.57663081      15.01104082      13.66932892
Mg      10.77627843      17.84994837      12.84697981
Mg      15.52307807      10.55498178      14.26640281
Mg      11.78853320      13.96441052      15.43358672
Mg      14.32320430      13.40227782      13.43350052
Mg      16.91651131      15.61157360      15.84411002
Mg      15.88129483      14.98538881      18.86155318
Mg      13.73146412      16.97377014      19.63985676
Mg      13.38061284      14.00618921      20.21614426
Mg      16.59537193      17.86704566      19.47318539
Mg      18.72036338      15.97999029      18.49745999
Mg      11.80625132      18.38198623      17.95180124
Mg      11.53490858      15.25890129      18.23786022
Mg      14.74691805      19.07455596      17.44502190
Mg      18.17136530      13.05134935      19.11928878
Mg      15.35437052      11.97283374      19.18038864
Mg      20.12504034      16.72548860      16.04622536
Mg      12.46992325      12.27970437      17.91431035
Mg      14.96165444      13.29124000      16.31623603
Mg      13.98385928      16.19532552      16.51561338
Mg      10.64072383      16.79012865      15.71566568
Mg      17.72117657      18.48260739      16.76357732
Mg      19.33302066      13.70573584      16.45231693
Mg      12.63527001      18.95151995      15.10084595
Mg      17.33402235      11.31044954      16.80048195
Mg      12.63688017      11.12979489      14.92733762
Mg      14.50222933      10.14382641      17.04861190
Mg      13.25758178      16.11902634      13.61316393
44
Properties=species:S:1:pos:R:3 config_type=qcd gap_pre_relax_energy=-42.729985560574825 gap_pred_energy=-42.91564437745279 gap_fmax_final=0.0009297995868434568 gap_converged=1 pbc="F F F"
Mg      18.25036127      16.52466093      17.45838977
Mg      16.59300635      11.89355027      17.44047533
Mg      16.06262695      19.47964673      10.17595055
Mg      16.53154263      14.68527835      15.65659541
Mg      12.11911432      11.54606212      14.59584041
Mg      14.39536683      16.78203718      16.40679595
Mg      14.18846795      13.55599478      10.10608274
Mg      15.74544475      17.34079523      19.09607643
Mg      17.76289939      17.27238966      11.35438418
Mg      13.49827130      14.33654011      14.54201544
Mg      12.69383044      17.42500217      19.13989325
Mg      19.98986915      15.02539791      15.43338261
Mg      16.71023118      14.47238736      19.10831148
Mg      11.79336856      12.92464928      11.91678147
Mg      18.84395205      12.15753148      11.60746622
Mg      15.11330194      11.68694826      14.96487930
Mg      14.04619235      11.07573926      12.10832797
Mg      18.66571261      14.83446518      12.82718010
Mg      15.03956298      12.08259540      19.96117794
Mg      12.13902402      12.24570919      19.86481975
Mg      13.72621293      18.68799659      11.91477544
Mg      13.45112994      10.99204917      17.41938973
Mg      16.53071490      19.50769029      13.19816296
Mg      15.41293445      16.60946654      13.44886765
Mg      12.81623113      15.68100424      11.78808426
Mg      15.11432159      16.54985479      10.09197046
Mg      17.25237763      14.43480050      10.11267554
Mg      19.11020462      13.43397899      17.65918442
Mg      13.98218139      14.01326852      17.49199592
Mg      16.62051291      18.91751815      16.38273913
Mg      13.97812986      14.96807613      20.43116899
Mg      11.72344755      18.91957443      16.70832419
Mg      16.88585963      10.40022173      12.90176223
Mg      11.07839693      14.91981365      19.52211146
Mg      12.09752471      17.26650726      14.17715920
Mg      11.32701629      15.91323236      16.76137246
Mg      14.24234787      19.80710031      17.99885136
Mg      15.81186933      13.68236029      12.70184121
Mg      16.35782160      11.46004545      10.12907880
Mg      18.28302873      17.34755507      14.46005232
Mg      18.34648180      12.35356669      14.73757406
Mg      14.03831500      19.53545943      14.86481933
Mg      10.58726101      14.34234047      14.26818407
Mg      11.04353113      12.90913813      17.06502851
45
Properties=species:S:1:pos:R:3 config_type=qcd gap_pre_relax_energy=-44.08285772401925 gap_pred_energy=-44.27477626717044 gap_fmax_final=0.0009984414934443007 gap_converged=1 pbc="F F F"
Mg      16.96164199      15.66303981      10.73616070
Mg      18.40833366      17.81874839      12.36143294
Mg      13.62842310      15.95617685      10.38657283
Mg      15.04468449      13.32520255      10.15793503
Mg      19.66302586      14.93070988      12.17661106
Mg      12.36886417      13.35865728      11.65221726
Mg      12.15707591      18.30835623      11.72699840
Mg      17.38384320      12.87612781      12.02165751
Mg      15.29977680      17.87418593      12.13748153
Mg      15.02701296      14.74623957      12.91371775
Mg      10.65692050      15.83004890      11.19897087
Mg      10.07560783      14.02832993      13.53748385
Mg      17.63269814      15.56518960      14.19539354
Mg      11.66357008      10.93859200      13.70621874
Mg      14.62360626      11.48189228      12.57859549
Mg      16.75953111      19.58960806      14.37537518
Mg      13.53937703      19.49326680      14.04074475
Mg      17.22725226      10.48934032      13.88702949
Mg      12.74795332      16.10298150      13.87139599
Mg      19.19388513      12.69918228      14.46019642
Mg      10.13302325      17.29000743      13.93004535
Mg      12.98409529      13.19584137      14.82809895
Mg      14.64589840      10.27810469      15.36188968
Mg      15.28426352      17.10949664      15.23238258
Mg      13.82032525      15.04398510      16.74255020
Mg      20.57094283      15.34137898      15.14465480
Mg      10.64533906      15.29392368      16.28210636
Mg      12.13845085      10.65713471      16.85040627
Mg      16.81600803      15.25445932      17.11504121
Mg      19.29109286      18.07442033      15.24759640
Mg      17.49643532      11.19321465      16.87074032
Mg       9.95630093      12.36998016      16.01959668
Mg      16.01879585      13.13681403      15.14829059
Mg      14.72965124      19.91691650      16.69466504
Mg      12.27064154      17.96478827      16.37123057
Mg      19.47655684      13.50692725      17.32564406
Mg      14.65894317      12.14000238      17.85606713
Mg      19.56037654      16.48579873      17.84600655
Mg      11.92902958      16.20714415      18.88875490
Mg      14.60406917      17.51880218      18.51130411
Mg      11.79786101      13.25067876      18.38634353
Mg      17.28382057      18.48717299      17.43174404
Mg      17.19214161      13.21975720      19.28777544
Mg      17.13480486      16.33968627      19.82062357
Mg      14.49804862      14.64768826      19.68425234
45
Properties=species:S:1:pos:R:3 config_type=qcd gap_pre_relax_energy=-44.321790658147904 gap_pred_energy=-44.59658734620885 gap_fmax_final=0.0007863329568286201 gap_converged=1 pbc="F F F"
Mg       9.98509637      12.78986915       6.68090617
Mg      13.03691825      13.24155219       7.56705141
Mg      11.58115449      10.47011300       7.57454949
Mg      10.76372285      15.43021509       7.54603775
Mg      14.31092278      10.87144195       9.12021417
Mg       8.83071669      10.97645542       8.86261012
Mg       8.21564180      14.03672339       8.90257806
Mg      15.50738670      13.65199594       9.58615461
Mg      10.97758931      13.06294223       9.87037588
Mg      13.07859665       8.11615157       8.55741534
Mg       7.62411126       9.17299598      10.88020382
Mg      10.11125329       8.15037144       9.36994235
Mg      12.95969915      15.48312463       9.64450992
Mg       6.60586677      12.08788873      10.75512022
Mg      16.75003489      11.04011870      10.95617171
Mg      10.02831673      16.14935166      10.35556211
Mg      11.71235686      10.26574622      10.69833704
Mg       7.92101977      14.62987215      11.92447942
Mg       9.25406334      11.70044034      12.06747621
Mg      15.12551623      16.01936582      11.55384857
Mg      15.49503028       8.14550910      10.29925832
Mg      12.57728544       7.22898724      11.31064271
Mg      12.32610659      16.94609950      12.28810514
Mg      14.23009631       9.94579817      12.40826936
Mg       9.35479775      17.03813710      13.16111316
Mg      17.35525609       8.48083320      12.70059410
Mg      13.48338264      12.84128149      11.63129179
Mg      10.01288810       8.38203204      12.52614568
Mg      14.99015568       6.80323098      13.07374216
Mg      16.31202516      13.53481855      12.67235233
Mg       6.86423075      12.62082870      13.84896409
Mg       8.84701270      14.64007001      14.98183246
Mg      11.65817746      11.05774312      13.61028770
Mg      17.13958801      11.04752415      14.02751418
Mg      12.49984041       7.90712408      14.34901837
Mg       7.54927347       9.68865385      13.86719807
Mg      13.86529838      14.96411836      14.06661589
Mg      11.00806935      14.11813621      12.77400574
Mg      11.38976735      16.31083870      15.16590015
Mg      15.18686639       9.05939946      15.21942947
Mg      14.42828490      12.10183471      14.78703789
Mg      11.77355356      13.35255710      15.78338025
Mg       9.91956643       8.82647689      15.52421848
Mg      12.46601472      10.29495850      16.36490352
Mg       9.26982314      11.69864847      15.46700987
46
Properties=species:S:1:pos:R:3 config_type=qcd gap_pre_relax_energy=-45.167544351910976 gap_pred_energy=-45.635182218024966 gap_fmax_final=0.0009572435066456067 gap_converged=1 pbc="F F F"
Mg      14.91124458      10.68867983      12.15551910
Mg      13.96377499      10.95772054      14.93793923
Mg      16.96784274      10.54070807      14.50281213
Mg      11.92550170      11.51564956      12.47561519
Mg      17.07299777      12.55577734      11.13216510
Mg      16.06467689      11.37504555      17.30559501
Mg      14.06712169      13.20995682      10.82250250
Mg      13.12833062      10.71169505      17.80823383
Mg      18.99074563      12.43482145      13.55887752
Mg      11.17613202      11.82222937      15.70259306
Mg      19.06319990      11.85769765      16.53975634
Mg      17.29808952      14.15587077      16.07583039
Mg      11.35153637      14.67091755      11.32723878
Mg      12.82979449      13.89762976      13.88485397
Mg      15.75724611      13.40185475      13.73555836
Mg       9.78615571      13.49926584      13.64784671
Mg      11.32040580      12.85596785      18.57995307
Mg      18.25940606      15.07408511      12.45584359
Mg      16.35599297      15.37435117      10.01916650
Mg      14.20767407      12.88742039      19.63128970
Mg      17.05355802      13.66525255      19.07909519
Mg      14.14037149      13.73628508      16.60194549
Mg      19.71473018      14.52881522      18.04046525
Mg      15.21398214      15.64909624      20.48464279
Mg      13.33386425      15.80027983       9.37377682
Mg      20.17924191      14.74354171      15.05081619
Mg      16.40779591      16.49535626      14.57406528
Mg      13.47234967      16.46093936      15.18595804
Mg      17.26360565      17.90504860      11.85932457
Mg      14.87099164      18.18863316      10.11211001
Mg      10.98241509      14.85165662      16.37472653
Mg      17.95559002      16.55645165      19.54135497
Mg      15.56743216      16.25379011      17.50340457
Mg      19.47555208      17.45344614      13.83271258
Mg      14.51340418      15.89346044      12.33108138
Mg      18.76490601      17.07493301      16.66683707
Mg      12.69832700      15.55113548      18.84844219
Mg      10.65133725      16.40410955      13.79172946
Mg      12.16724769      17.74020379      11.52167904
Mg      14.07720537      18.26762080      19.15168040
Mg      17.28403357      19.31979276      14.91544259
Mg      14.69030090      18.90545282      13.14329632
Mg      11.71210431      17.87955472      17.15007908
Mg      16.87489451      19.01916539      18.00138249
Mg      14.45501855      19.16336422      16.23076328
Mg      11.98187085      19.00527004      14.33399834
46
Properties=species:S:1:pos:R:3 config_type=qcd gap_pre_relax_energy=-44.90151509364536 gap_pred_energy=-45.614244027805285 gap_fmax_final=0.0009026360011452884 gap_converged=1 pbc="F F F"
Mg      15.76785880      14.65280685      10.36153676
Mg      13.45537352      14.62125959       8.48366991
Mg      14.76794628      11.99578571       9.00068976
Mg      10.94347785      14.39957258       6.84439568
Mg      16.93292223      12.06343575      11.10889650
Mg      10.96555488      15.40613275       9.80817310
Mg      13.39795295      16.02865748      11.59214650
Mg      12.80742155      12.06372193       6.56432855
Mg       9.68691419      11.60708867       6.66103794
Mg      15.69650100       9.38245352      10.20948188
Mg       8.64666536      13.78680167       8.64540135
Mg      15.52855797      13.80863679      13.27630144
Mg      11.39215472      12.04786407       9.24214712
Mg       8.12728260      15.93392662      10.64893491
Mg      10.49195821      16.06945672      12.71939319
Mg      13.49807754       9.42979192       8.00395532
Mg      10.77300667       9.11731231       9.50878721
Mg      13.13950062      13.08660450      11.53959100
Mg      11.56023969       6.98710157       7.49172957
Mg      10.00384668      13.10546645      11.77442809
Mg      11.50172432       9.43747373       5.74477482
Mg      12.75910141      14.59907312      14.28096588
Mg       8.23685120      10.91425830       9.37433404
Mg       7.55035679      15.11284683      13.35395789
Mg       9.79116826      10.16176110      12.20244755
Mg      14.84247633       7.74854378      12.50352078
Mg       8.95205930       8.65285239       7.15283938
Mg       6.90272270      13.07059980      11.11414916
Mg      14.31304480      12.13632121      15.62109930
Mg      13.35088168       7.12844624       9.96586452
Mg      15.24007591      10.75944212      13.11148429
Mg      10.33451964       6.22344094      10.24346279
Mg      11.85160411      13.25035231      16.94545603
Mg      12.90786617      10.16790669      11.26038034
Mg       9.85216957      14.04841041      14.91301980
Mg       7.85033067       7.95542022       9.92113141
Mg      11.81823356      11.52934892      13.92006148
Mg       7.73204039      12.13502724      13.85587938
Mg      13.56242274       9.00851399      14.87382818
Mg      12.20220648      10.34141955      17.14648989
Mg      11.80079694       7.57839010      12.57102563
Mg       8.73092954       7.32537464      12.70243714
Mg       6.75527953       9.95693759      11.90731805
Mg       9.49253521      11.29889509      16.20017295
Mg      10.54516210       8.69550504      15.05080985
Mg       7.67428445       9.30361820      14.71212076
47
Properties=species:S:1:pos:R:3 config_type=qcd gap_pre_relax_energy=-46.493095640311054 gap_pred_energy=-47.08634741056288 gap_fmax_final=0.0009176410394122877 gap_converged=1 pbc="F F F"
Mg      19.33291786      15.93238386      12.24997830
Mg      15.39935919      19.31972932      12.85727427
Mg      17.02565231      17.34120681      10.94318670
Mg      19.32663664      13.19014183      13.42672456
Mg      13.49158623      19.68197123      15.54243667
Mg      15.10172280      13.21501817      16.20452837
Mg      19.84811780      15.87414554      18.29719651
Mg      14.95694006      17.10030829      15.10516463
Mg      12.93475203      11.18508446      15.11015057
Mg      17.14804155      14.22755861      11.08225892
Mg      16.46005344      19.96816184      15.63324623
Mg      14.02492388      16.63540613      20.14519163
Mg      19.74089088      15.91702146      15.26420179
Mg      15.40301739      13.92918023      19.46540201
Mg      14.71189356      15.29867539       9.47428732
Mg      14.87838370      12.25021948      10.25311396
Mg      10.72977349      12.82861543      13.72403677
Mg      13.64994170      15.62380115      17.34482783
Mg      17.16151858      16.60989880      19.84094935
Mg       9.58766007      14.99999660      15.56325974
Mg      13.72830518      11.52503452      18.30210867
Mg      14.90028566      12.89987872      13.18372677
Mg      12.00651600      16.62907505      10.27628113
Mg      15.23600700       9.72537139      16.33043039
Mg      12.45092393      18.44229041      18.16816062
Mg      10.70857747      15.94014653      18.21776717
Mg      18.40267008      18.18788372      17.07319006
Mg      12.44410345      13.96112014      19.69909720
Mg      16.93685831      14.82960322      14.20238835
Mg      17.31975432      11.38458006      14.91004693
Mg      12.61149008      18.19394766      12.86436086
Mg      18.90330143      13.34824664      16.58232387
Mg      12.64500763      11.03548394      12.09461113
Mg      17.82771206      17.88050214      13.96637627
Mg      17.36064381      11.36796515      11.90027583
Mg      14.32917354      18.38169497      10.17612623
Mg      11.54854753      13.19326176      16.90627878
Mg      16.88394650      11.55377703      18.09730744
Mg      12.91243554      14.76296785      14.52098421
Mg      16.81501495      15.58610473      17.08275001
Mg      12.46047866      13.89426874      11.31469351
Mg      18.35442373      13.73694777      19.59276602
Mg      14.70626922      15.96317469      12.36094063
Mg      15.13554151       9.82574970      13.30339882
Mg      11.45640762      17.36981549      15.53748962
Mg      10.57633037      15.85887579      12.83123808
Mg      15.42549121      18.39370757      17.97746526
47
Properties=species:S:1:pos:R:3 config_type=qcd gap_pre_relax_energy=-46.30289789687831 gap_pred_energy=-46.61093840997315 gap_fmax_final=0.0009779477882078053 gap_converged=1 pbc="F F F"
Mg       6.59863163      13.38332636      10.81630075
Mg      11.20245708      17.15185952      12.38735917
Mg       7.52761001      13.80904373      13.59948809
Mg      12.16860627      13.33932928      15.67667108
Mg       8.69658033      14.54941768       8.91837386
Mg       8.44494279      15.86171822      11.65776692
Mg      10.22533213      14.76794639      13.99738669
Mg      10.36096154      17.03206382       9.55366065
Mg       9.46972102      13.08649230       6.30631328
Mg      13.19169419      15.12254955      13.46579347
Mg       6.16369682      10.35874160      10.49806529
Mg      12.56501513      10.43931232      15.55445082
Mg      13.20091738      16.07426548      10.28665093
Mg       6.64263913      11.01009021      13.36904759
Mg      10.34436385       8.69636487      16.41225605
Mg      11.09531949      14.14756459      11.01153169
Mg       7.82235215      11.65438555       8.45502580
Mg      14.69376816      12.31568781      14.32460270
Mg       9.41952391      11.79040345      14.92904332
Mg       7.82558674       8.81999534      15.00919882
Mg       9.09012669      11.83952963      11.54373320
Mg      10.92278161      12.17101242       8.90485336
Mg      11.46099457      15.00327599       7.63143641
Mg       8.06645119       8.60285977       8.96336338
Mg      10.36022269       9.45319448      13.31956475
Mg      11.96364641      12.07476283      12.86783447
Mg       9.92025091      10.07378714       6.86432540
Mg       7.88229895       8.47878319      12.01352472
Mg      12.33735247      12.17940599       6.21514489
Mg      14.66336063      13.52514479      11.47809080
Mg      13.96798552      13.65241342       8.47891848
Mg      13.33553640      11.12173461      10.20684434
Mg      10.66856118       9.56761106      10.28786590
Mg      13.08247102       9.20355813      12.52133043
Mg       9.97077033       6.60039163      14.14490957
Mg      15.90675988      10.59098221      12.07500444
Mg      15.21807805       9.21218103      14.65479835
Mg      12.79732247       7.41719437      15.27052313
Mg      10.14984033       6.67992806      11.03766319
Mg      10.61657672       7.35710921       8.09554979
Mg      15.43235548       7.49954030      12.00933166
Mg      12.77684725       9.41432604       7.66702032
Mg      15.06808681      11.18544213       7.01788155
Mg      16.37996930      12.01611856       9.48779541
Mg      15.51209079       9.09992813       9.31993184
Mg      13.03812116       7.39389122       9.96354568
Mg      12.65599528       6.07990944      12.63480143
48
Properties=species:S:1:pos:R:3 config_type=qcd gap_pre_relax_energy=-47.62375905009177 gap_pred_energy=-47.856356048402894 gap_fmax_final=0.0009961747506181192 gap_converged=1 pbc="F F F"
Mg      18.76352525      16.39647468      18.07312327
Mg      20.21157889      16.80826248      15.50779191
Mg      17.86110459      18.83429037      15.81784308
Mg      17.11268060      15.89672062      20.48421475
Mg      16.14478078      17.90795375      18.22745389
Mg      18.91790957      17.53234829      12.98148660
Mg      19.26386810      13.98541972      16.28219850
Mg      20.29073143      14.66694957      13.35830528
Mg      15.92611363      18.14542191      13.40677879
Mg      14.75384939      19.58430966      15.92089479
Mg      19.37804121      11.91677545      14.15519562
Mg      17.08984398      16.04108280      15.35407573
Mg      14.13567958      16.12736355      19.96664182
Mg      18.09354894      13.27325866      19.03582482
Mg      19.59057148      15.61335388      10.60138381
Mg      13.27498566      18.62563388      18.39895353
Mg      16.95168531      17.22760679      10.53928885
Mg      12.84288208      18.32252763      13.63951022
Mg      18.00338186      11.17555385      16.75191846
Mg      11.31809421      18.40143773      16.15929233
Mg      18.70105895      12.60352005      11.34081779
Mg      17.24227270      14.96581508      12.61691627
Mg      15.45393372      13.45261228      20.65296918
Mg      16.43143629      13.12319240      14.94569992
Mg      15.35706448      11.76456795      18.11572394
Mg      14.40324780      15.21367542      13.32412625
Mg      12.89394016      13.32693371      19.00348866
Mg      11.85195185      15.97493433      17.98490244
Mg      17.16040978      14.40338264       9.41464746
Mg       9.61009971      17.23120960      13.71679082
Mg      15.86329445      14.78063982      17.73188066
Mg      14.17340963      18.21988001      10.96622759
Mg      14.18250076      16.71101274      16.04693976
Mg      11.70101323      15.41183123      14.66223506
Mg      16.86929036      10.69730029      13.11753495
Mg      14.41778872      15.38108979      10.17211018
Mg      15.51086565      12.77244228      11.38234920
Mg      12.56403947      11.10487954      16.63321233
Mg      10.46979771      13.44766746      17.01882742
Mg      15.33920567      10.07710079      15.69238361
Mg       9.17115091      16.34768368      16.63700071
Mg      12.43538118      13.48055981      11.67154365
Mg      11.79288736      16.45492860      11.52139148
Mg      13.64082351      13.73814027      16.05035101
Mg       9.62764884      14.47951296      12.18479957
Mg      10.94140282      12.45239017      14.20982258
Mg      13.84053945      11.70979716      13.70016123
Mg       8.42868827      14.19055470      14.82297025
48
Properties=species:S:1:pos:R:3 config_type=qcd gap_pre_relax_energy=-47.55197932111955 gap_pred_energy=-47.8507297859004 gap_fmax_final=0.0009517694198962702 gap_converged=1 pbc="F F F"
Mg      11.26925983      10.84184933       8.89671861
Mg      13.86308967      11.77312349       7.40228805
Mg      11.54401465      13.77722254       8.13515901
Mg      14.14427992      14.82337822       7.08542431
Mg      13.47396935       8.79095771       8.24168807
Mg      12.03520085      16.78610003       8.16743523
Mg      11.15755108      10.80904338      11.94376387
Mg      15.98935143      10.38163840       9.05487199
Mg       8.84117778      12.76559377       9.33791711
Mg       9.44414242      15.80007433       9.27648299
Mg      11.06798397       8.10960535      10.19644056
Mg      13.61428389      12.46010070      10.37330898
Mg      15.98362557       7.34809826       9.31412146
Mg      16.11104266      13.46814290       8.92069313
Mg      13.33390480       6.16563026       9.89544855
Mg      14.01208551      15.57730702       9.98650281
Mg      11.12299961      13.88517895      11.20974074
Mg      11.56586259      16.86380532      11.28292274
Mg       8.57525371       9.94838763      10.44589240
Mg       6.75224482      14.82501782      10.16104512
Mg       9.65458198       8.35797919      12.90017818
Mg      13.86581400       9.47244087      11.20854811
Mg      16.91131194       8.89489895      11.77035417
Mg      16.55077045      11.90602984      11.60290604
Mg       8.68217805      12.57748313      12.53911869
Mg      13.62738079      14.81717629      12.89522381
Mg       8.79670726      15.81973857      12.25434560
Mg       7.03012612       9.87881486      13.02476642
Mg       6.14223754      14.35408767      13.01566444
Mg      15.36066200       6.30371207      12.07215891
Mg       6.22260105      11.95831330      10.93582358
Mg      16.40011962      14.85495008      11.63863425
Mg      12.47977934       7.10427294      12.71879131
Mg       9.24867207      10.49275794      15.02429124
Mg      13.83447443      11.67520593      13.27464320
Mg      11.10191622      12.88014410      14.21549831
Mg      16.07560249      13.43837455      14.32315278
Mg      12.07213888       9.52727467      14.65615198
Mg      11.15388734      15.93302545      14.25170134
Mg      16.94960307      10.59194130      14.28004768
Mg       6.65952006      12.14925809      14.98692016
Mg       8.41135058      14.69955607      15.06843087
Mg      13.47724855      13.91760309      15.83946941
Mg      14.86052088       8.52922629      14.11352776
Mg       8.69112402      12.52725276      17.16132163
Mg      11.62762015      11.62618801      16.92942418
Mg      14.53493782      11.02743607      16.09317282
Mg      10.78518766      14.59400099      16.98726591
49
Properties=species:S:1:pos:R:3 config_type=qcd gap_pre_relax_energy=-48.89602980674537 gap_pred_energy=-49.200993764780065 gap_fmax_final=0.0007985118311597798 gap_converged=1 pbc="F F F"
Mg      11.93257192      13.70495823       7.05075527
Mg      14.42713306      11.74706849       7.13646762
Mg      11.58412319      10.99591418       5.80236124
Mg      13.26126609       8.92497737       7.08503539
Mg      14.57503818      14.47133005       8.27417330
Mg       9.52589702      14.87600899       8.41528477
Mg       9.28809759      12.04088573       7.65880377
Mg      11.93580421      11.17790391       8.95958116
Mg      10.22265930       8.98518619       7.70789894
Mg      16.28838863      12.59719854       9.70712416
Mg      12.22169886      15.21447346       9.82406015
Mg      14.71595655       9.94000504       9.64521583
Mg      12.48021442       7.82122356       9.75848736
Mg      15.01813895      15.30304695      11.18239890
Mg       7.56769202      13.35329824      10.16665471
Mg       9.68513159      16.11853370      11.10780802
Mg      10.36401875      12.88764744      10.86153218
Mg      15.99033582      10.96568264      12.26397337
Mg       8.60361607      10.39521315      10.11933636
Mg      14.10624331       8.56605416      12.31376354
Mg      11.37549445      10.03539167      11.65945970
Mg      13.51659754      12.52372593      11.04906761
Mg      12.61634177      16.98726980      12.36167875
Mg       9.59898417       7.54481783      10.24449013
Mg      15.21499583      16.56617830      13.99033018
Mg      11.81544452      14.19775729      13.13390483
Mg       8.65549859       8.82902838      12.76786964
Mg      11.38179544       7.16863614      12.71346786
Mg      13.02331258      11.10338407      13.85180492
Mg       7.14042569      11.53753409      12.66840672
Mg       9.91176306      16.96515987      13.90989838
Mg      10.02336588      11.82995009      13.74145321
Mg      14.74335078      13.54840229      13.79133284
Mg      15.52400021       9.65743655      15.00916068
Mg      17.42466277      13.75880960      12.31098105
Mg       8.29751746      14.39166750      13.05429615
Mg      12.45350716      16.35383748      15.37362414
Mg      17.32639806      14.65275875      15.24276348
Mg      13.26057441       7.70260579      15.06613377
Mg      12.54432900      13.25866132      16.15397610
Mg      10.66386485       9.08556493      15.05738000
Mg       7.76718449       9.98476115      15.36920500
Mg       7.42570977      12.85398873      15.51217694
Mg       9.87105080      14.56140188      15.70605608
Mg      15.42967352      12.23837672      16.62406386
Mg      10.03999711      11.57352063      16.79013762
Mg      14.84077821      15.21224986      16.69526238
Mg      17.63546332      11.79063442      14.62550661
Mg      12.96241176      10.27839769      16.76391407
49
Properties=species:S:1:pos:R:3 config_type=qcd gap_pre_relax_energy=-48.94260882878137 gap_pred_energy=-49.1183006099193 gap_fmax_final=0.0009087148053697401 gap_converged=1 pbc="F F F"
Mg      10.54284861      13.97020668      17.78541128
Mg      12.48465503      11.78801829      17.06160525
Mg      12.95077291      13.64521285      19.52762421
Mg      10.39340719      16.02323953      15.57856680
Mg      10.45030536      12.90579705      14.97469039
Mg      12.46003676      10.64673382      14.19526588
Mg      10.68711360      12.09035369      12.11895666
Mg      11.25437493      14.97739709      12.78960873
Mg      14.80364857      11.12517616      18.89070122
Mg      12.35519859      16.31888832      18.09554510
Mg      11.43946263      17.97068179      13.44269149
Mg      15.33237274      14.05091576      17.59421779
Mg      15.60378979      13.46906342      20.85769219
Mg      15.26476567      12.05477595      15.49792091
Mg      11.61685710      18.62831068      16.39746062
Mg      14.87684643      16.26423458      19.72014418
Mg      13.05669381      14.50336173      15.56672656
Mg      17.10574154      10.12030157      17.09653122
Mg      13.88444791      13.18045195      12.96367484
Mg      12.84500165      10.35696312      11.17471044
Mg      15.38118257      10.32275097      13.03139436
Mg      14.31829322       9.40799523      16.25937906
Mg      12.53796542      13.55634500      10.23066422
Mg      14.18661202      19.00618290      18.06008710
Mg      17.04148273      17.96200522      18.46719491
Mg      14.06341083      16.46044602      13.37441616
Mg      15.11622872      11.87579923      10.23992356
Mg      18.06847280      11.12455701      14.39957407
Mg      17.65324691      11.89060037      19.46569634
Mg      14.96248404      16.78656851      16.36276787
Mg      12.79745788      16.65064593      10.68864130
Mg      17.68633799      15.00656339      19.26680104
Mg      16.55784768      20.03437939      16.18776906
Mg      16.25098947      14.63959797      14.39544712
Mg      15.32128434      14.87810721      10.81081838
Mg      18.18914133      12.98859029      16.74723105
Mg      17.20473826      12.80329714      12.11504067
Mg      13.50404229      19.43057422      11.82380629
Mg      13.96326757      19.39032737      14.78900868
Mg      16.77407556      17.67261742      14.12837937
Mg      18.15951837      15.95448948      16.42470504
Mg      19.21289730      14.07711660      14.10267100
Mg      15.82606241      17.82659615      11.01186325
Mg      18.02407978      15.79149078      11.88140515
Mg      19.80555716      17.17604665      14.02588788
Mg      16.18715462      20.38346824      12.87810133
Mg      19.25513660      18.72041382      16.61447781
Mg      18.59792920      18.78648489      11.69884077
Mg      18.94476210      20.30585858      14.18826136
50
Properties=species:S:1:pos:R:3 config_type=qcd gap_pre_relax_energy=-50.177028190212525 gap_pred_energy=-50.38619868384795 gap_fmax_final=0.00096020223761919 gap_converged=1 pbc="F F F"
Mg      10.11010909      10.00420307       6.86000323
Mg      11.47394808      12.80384696       6.40460511
Mg      13.09519956      10.26621673       6.71721154
Mg       9.36756250      14.44402561       7.85806785
Mg       7.94060859      11.79600041       8.03236953
Mg      14.70863623      15.01852012      10.20042093
Mg      12.21141792      15.19716210       8.28553137
Mg      11.94808243       8.74271071       9.03359828
Mg       8.93609845       9.39143977       9.66437078
Mg      13.85163705      12.62860757       8.45609475
Mg      10.85092038      11.85472966       9.20498013
Mg      14.92159883       9.72757433       9.09739970
Mg      16.10145093      12.35141992      10.46385142
Mg       8.47538182      13.56012078      10.59960422
Mg       6.69841955      11.18003950      10.69339202
Mg      16.78095580      14.88678354      12.37371743
Mg      10.03240012      16.14198370      10.30119832
Mg      11.97594200      13.86230865      11.15624876
Mg      15.29208095      17.60325235      12.05852732
Mg      13.06652959      10.92616043      11.07294660
Mg      10.83210378       8.41275712      11.85111953
Mg      12.79575403      17.28330604      10.43822765
Mg      13.79884044       7.87030076      11.42525421
Mg      15.96669016       9.82733457      12.10994724
Mg      10.23253536      11.42801900      12.14736244
Mg       7.91263934       9.25943674      12.59914523
Mg      14.54490435      12.52608611      13.10816816
Mg      11.12521763      17.46199944      12.86243940
Mg      17.82575535      12.11771720      12.96300311
Mg      12.36757533       6.72842580      13.90814861
Mg      13.55524218      15.31802637      13.24791209
Mg       7.69914700      12.30969568      13.42408964
Mg      12.67081848      10.00637781      14.00977353
Mg       9.46070141       7.30118832      14.30473012
Mg      15.06614977       7.93160796      14.28599132
Mg      13.56286083      17.99790006      14.62664894
Mg      11.82675924      12.94472501      14.32327217
Mg       9.61179580      14.77186509      13.13306377
Mg       9.51366375      10.29815990      14.98320773
Mg      16.36497507      16.79306020      14.72148705
Mg      16.25817590      10.62486699      15.04979219
Mg      16.55743839      13.80266933      15.19261818
Mg      11.27059666      15.92656316      15.44206183
Mg      11.36773122       8.14718427      16.37733150
Mg      14.14069768      12.40167587      16.34705603
Mg       9.36681400      13.29612276      15.91447076
Mg      14.18520988      15.48665474      16.36885225
Mg      14.06761405       9.36394737      16.75318031
Mg      11.48770820      11.09230550      17.07360025
Mg      11.84178879      13.99979882      17.59078935
50
Properties=species:S:1:pos:R:3 config_type=qcd gap_pre_relax_energy=-49.963555902315974 gap_pred_energy=-50.25332443733571 gap_fmax_final=0.0009934720950002015 gap_converged=1 pbc="F F F"
Mg      14.43922508       8.97605816      13.39456289
Mg      11.75171941      10.23100072      12.87548986
Mg      16.76938325      11.00929488      13.22150985
Mg      16.45255586      13.45535101      11.44749297
Mg      11.57169192      12.37125254      10.74254797
Mg      13.42085820       9.47414499      16.33017393
Mg      10.93226521      11.03167654      15.71760280
Mg      13.51222531      17.04751846       9.60176194
Mg      13.78750041      14.45214802      12.90532961
Mg      16.32134315      16.12269242       9.71422102
Mg      12.99579724      17.71708702      12.41617907
Mg      19.33958878      18.43863666      16.17496933
Mg      16.35746275       9.28457721      15.64556323
Mg      10.97105117      13.12136066      13.60012128
Mg      18.23153723      11.67853916      15.83965865
Mg      18.94280131      13.25973354      13.25211903
Mg      15.44584186      11.68255007      17.22709938
Mg      13.87167777      11.84786190      14.47284693
Mg      10.60121904      13.90365844      16.62464688
Mg      16.25711636      13.78592280      14.80404955
Mg      14.28189187      11.34282669      11.39971226
Mg      17.37735322      13.97042570      17.84760451
Mg      14.83212068      13.67679935      19.41897515
Mg      18.91002562      15.12937808      10.94371535
Mg      12.11927313      14.85572944      19.23725782
Mg      12.51642049      11.94030116      18.10438043
Mg      14.22733967      16.15339420      21.07782347
Mg      16.25174089      16.23470308      12.82664398
Mg      17.21892629      16.38932082      15.88507078
Mg      17.08594136      16.13992717      20.12029083
Mg      11.46445683      15.33570377      11.20303200
Mg      13.55789572      14.22349293      16.26480013
Mg      19.45328121      16.19324740      18.23570092
Mg      14.98513392      16.35619489      17.88036064
Mg      19.68856250      14.39581494      15.87378626
Mg      13.94301514      14.07338789       9.80408381
Mg      14.28963381      16.92122104      15.05241034
Mg      11.68634666      16.85785012      17.11742685
Mg      12.32355877      17.96915041      19.81613046
Mg      19.38125756      16.44843555      13.63114469
Mg      11.29738523      15.95521475      14.28834023
Mg      17.47438361      18.94597268      13.79763803
Mg      15.30085164      18.75670418      19.73175943
Mg      18.23259600      18.76118222      19.01910282
Mg      15.53060964      18.81370573      11.28401910
Mg      11.79948600      18.91149592      14.89305459
Mg      13.45999255      19.31428133      17.30234259
Mg      18.40878738      18.00786200      11.08226695
Mg      16.34772733      19.23229798      16.69344204
Mg      14.58114395      19.80291334      14.15973737
51
Properties=species:S:1:pos:R:3 config_type=qcd gap_pre_relax_energy=-51.26049075020555 gap_pred_energy=-51.606330751518584 gap_fmax_final=0.0008990517666325611 gap_converged=1 pbc="F F F"
Mg      12.02914092      16.14951569      17.41896387
Mg      11.07289694      12.63228115      13.64476008
Mg      15.95386661      19.88428964      17.98076198
Mg      16.95348005      12.14859896      18.67612090
Mg      15.96433300      14.54133812      20.45030704
Mg      15.74668255       9.82039245      11.63138100
Mg      18.11236140      19.71490113      12.20826545
Mg      13.30475615      17.91329022      11.42507873
Mg      12.08793808      13.92325383      19.71552361
Mg      15.23888608      12.57990394      12.81375077
Mg      16.43717750      17.74039014      14.34903632
Mg      16.23163259      17.73233600      10.77499633
Mg      18.22572233      13.77722414      13.16621846
Mg      13.42798985      17.06081440      14.48797829
Mg      17.16233139      14.70290801      10.35608804
Mg      17.78273219      10.75741889      13.80064550
Mg      12.63269566      12.66780365      10.93384298
Mg      13.00443785      10.35321572      12.78554697
Mg      13.70198382      16.49066929      19.93248513
Mg      15.18812366      20.05660827      12.66747925
Mg      13.02853406      18.96224300      18.26716673
Mg      12.01614955      15.25468096      12.18427587
Mg      17.55697796       9.89065305      16.68291518
Mg      17.20433784      20.48977298      15.21290023
Mg      14.41283549      13.96536073      17.77500367
Mg      15.28658594      12.32385567       9.66018248
Mg      19.19466813      15.78049691      15.31066273
Mg      14.40022306      11.95183845      20.26385895
Mg      12.26252904      20.11132990      13.29833293
Mg      15.28407219      15.52368397      12.61065798
Mg      16.58685011      17.41527157      19.69738187
Mg      17.70737845      15.09669308      18.00895962
Mg      12.73281540      10.92801202      15.71786859
Mg      19.59805388      18.67399967      14.51867465
Mg      12.08985409      11.07428115      18.65980296
Mg      10.52579618      17.81509633      12.86777200
Mg      14.16155914      15.22398357       9.86950142
Mg      15.09487355      16.97167323      17.08341059
Mg      10.54189278      15.56828398      14.84078853
Mg      13.39504425      14.05772537      14.85537593
Mg      14.78645511       9.95411769      17.90099806
Mg      11.20584972      18.64848016      15.78547523
Mg      15.20130336       9.29739756      14.67453939
Mg      18.60234653      16.67259892      12.35074683
Mg      17.88491252      11.79562241      10.93397092
Mg      11.13392807      13.26606763      16.81917019
Mg      16.31884245      14.85748059      15.31955026
Mg      18.16396230      18.06999274      17.11048271
Mg      15.59053269      12.06351666      15.80685411
Mg      14.16884276      19.88522567      15.59818967
Mg      18.60282477      12.76341070      16.09529898
51
Properties=species:S:1:pos:R:3 config_type=qcd gap_pre_relax_energy=-51.1166499756104 gap_pred_energy=-51.35039042009506 gap_fmax_final=0.0007369320254536067 gap_converged=1 pbc="F F F"
Mg      20.06708719      17.80024470      14.10593227
Mg      18.21846974      20.05960095      15.09209149
Mg      19.32072652      16.38809579      11.62156632
Mg      17.73280648      18.82130918      12.28185418
Mg      15.41119575      19.07327597      14.34907240
Mg      18.55140532      18.23236056      18.65586254
Mg      12.91979126      20.19724252      13.18160522
Mg      16.72586465      16.48354019      10.18849527
Mg      16.00798853      19.53441214      17.28261708
Mg      20.57874134      19.11616617      16.71533617
Mg      14.73692243      18.47346093      11.48195121
Mg      19.08382858      14.85846804      14.23773976
Mg      12.99671599      19.33539541      16.24176778
Mg      17.58887556      17.15374380      15.90490252
Mg      17.72552873      13.86119553      11.57237796
Mg      15.80237301      17.52336341      19.48382427
Mg      11.67863729      17.81837979      11.62051565
Mg      12.87968671      17.57881583      18.86146133
Mg      16.33747750      16.21501221      13.26326183
Mg      13.24386824      16.43606796      13.89421058
Mg      10.69904186      18.75702823      14.33070055
Mg      17.70715877      15.28404743      18.58745643
Mg      13.85582698      15.67444856      10.87167633
Mg      14.65085710      16.77507310      16.52195596
Mg      20.18632840      16.06998594      16.89242497
Mg      16.28991379      14.33581612      15.93696193
Mg      14.66309356      14.82422247      18.88615532
Mg      11.25516618      16.73750758      16.44692786
Mg      10.04785278      15.94619768      13.63903734
Mg      18.99275314      13.14134200      16.76810620
Mg      10.97551591      14.92573418      10.97111572
Mg      13.08089331      14.11653533      16.14690788
Mg      15.64050846      13.68582599       9.50811946
Mg      11.57979188      14.75162145      18.73544573
Mg      17.61604164      12.15578237      14.04397633
Mg      14.83371021      13.68016496      13.26854321
Mg      16.50654843      12.37272174      18.45364802
Mg      13.11735431      12.69374629      10.77989117
Mg      10.05198119      13.96640792      16.01849140
Mg      11.73647761      13.39460405      13.43167203
Mg      13.41487773      12.10871806      18.61934712
Mg      15.88350016      11.36758312      11.53773205
Mg      14.77824054      11.69056318      15.70911804
Mg      17.61977368      10.39610822      16.46536271
Mg      11.64074276      11.25115450      15.61992870
Mg      10.43485596      11.96901000      18.27785579
Mg      13.33034540      10.66588968      13.06124892
Mg      16.06037167       9.49070405      13.96569263
Mg      15.12115711       9.59662785      17.97884505
Mg      12.09948765       9.43998809      18.02151792
Mg      13.52184103       8.77468878      15.46769137
52
Properties=species:S:1:pos:R:3 config_type=qcd gap_pre_relax_energy=-52.622045270486645 gap_pred_energy=-52.84406710020074 gap_fmax_final=0.0009388388848340741 gap_converged=1 pbc="F F F"
Mg      15.54255245       9.70566294      12.16596038
Mg      13.70549739      11.93997710      10.64572727
Mg      13.47096372      11.60314244      16.85475598
Mg       6.69972460      12.54505261      10.14450871
Mg      14.91924386      13.86808829      15.48812538
Mg      15.30773776       9.70537564      15.25569582
Mg      12.00283436      13.95157591      12.22981936
Mg      12.29294767       9.28699115      15.35383210
Mg      10.24590182      15.94675422      14.05752610
Mg      16.86579413      12.17269071      10.77387001
Mg       7.92730660      10.52267940      15.00654496
Mg       9.61502293       8.33576888      13.43650461
Mg       8.95819859      13.66629496      12.06797633
Mg      12.13366458      12.78773651       8.00036045
Mg      16.46170032      15.03289996       9.86440074
Mg       8.21458259      10.20453137       8.76139771
Mg      12.32588928       9.60952549       9.06124784
Mg       8.97658917      12.93506914       7.96816921
Mg      13.54194075      11.73442691      13.68232921
Mg      15.23320340      12.81571093       8.14014544
Mg      10.53783520      10.59628292       6.63490912
Mg      10.51604206      11.63366814      10.42925812
Mg       8.75725426      13.44482342      15.35105938
Mg       6.40915773      12.70431634      13.36582064
Mg      14.28584572       7.43709119      10.56322142
Mg      15.22349852      14.19645716      12.47582847
Mg      16.70551041      11.96863074      13.83479610
Mg      13.34510266      16.10800869      14.08655772
Mg       8.01256292      10.45028086      11.90589291
Mg      14.74709174      16.98610720      11.51896428
Mg       7.22194430      15.64740068      14.03143938
Mg      13.47793218      15.00032892       9.63736072
Mg      11.82217273      13.77250410      15.50050695
Mg       7.52044473      15.27401939       9.15879931
Mg      13.77520521      10.53507199       6.58144481
Mg      10.41430796      11.30275230      16.80163807
Mg      11.71217493      16.96522362      11.55992988
Mg      14.09429768       7.37269253      13.66016607
Mg       9.81972845       8.29221002      10.44183181
Mg      15.60641652       9.93360280       9.08906700
Mg      10.47613395      14.95076430       9.62516568
Mg       8.60485875      16.74251156      11.54846993
Mg      10.50932744      11.43329256      13.63432247
Mg      12.27448773       9.42378529      12.11739278
Mg      14.47047110       7.64211724       7.53686986
Mg       9.62524649       8.40286876      16.42841346
Mg       9.57968147       7.86263703       7.47265193
Mg      11.92841316       6.50838334       8.77370188
Mg      11.45972911       6.45360852      14.90265444
Mg      11.72079226       6.38217431      11.87948682
Mg      12.06657955       8.02258494       5.91764365
Mg       5.79423514      15.13962260      11.53161532
52
Properties=species:S:1:pos:R:3 config_type=qcd gap_pre_relax_energy=-52.36278412711735 gap_pred_energy=-52.552322067450845 gap_fmax_final=0.0009271161347569592 gap_converged=1 pbc="F F F"
Mg      14.15225631      15.85668574      15.79383932
Mg      11.38154092      12.52891765      16.65835907
Mg      18.90356466      13.21499839      18.32012086
Mg      17.76300203      14.39693051      20.93159223
Mg      12.54482535      11.28107655      12.14847483
Mg      16.20391883      12.22597944      19.66458545
Mg      19.49675842      15.19623556      16.11249073
Mg      17.06967239      18.47818768      17.99270928
Mg      14.43641801      13.05508116      17.13757840
Mg      19.71208017      18.15815346      16.70846196
Mg      13.27718641      13.38132024      14.19540748
Mg      14.60253643      14.68332661      20.21279369
Mg      12.30124532      15.02762478      18.21319008
Mg      10.45904109      18.40733559      11.65687969
Mg      13.27873646      18.90249788      10.84971695
Mg      14.28532545      17.33325480      18.62969171
Mg      19.58671474      17.60559738      13.77293805
Mg      16.20083804      19.25303569      10.10857261
Mg       9.91911875      17.88270832      14.48525886
Mg      14.86068032       9.88620752      18.42000254
Mg      10.25004738      12.79122932      13.67642143
Mg      16.56093683      13.46990395      15.09691646
Mg      11.96858200      17.83494194      16.66624175
Mg      17.03789282      16.74161650      15.22296830
Mg      14.76419845      18.89426896      15.99804739
Mg      12.12571744       9.76916899      17.53033219
Mg      11.46119140      10.23288426      14.68777210
Mg      10.79202017      13.34867497      10.77473432
Mg      12.53483622      19.26061981      13.89500070
Mg      15.52029234      11.84063780      12.51170817
Mg      18.80381491      14.69927314      13.18758614
Mg      12.92742344      12.08948333      19.44535748
Mg      16.92447123      13.98561159      10.75034926
Mg      17.30941632      10.17892385      14.25946986
Mg      11.84564857      16.15658318      10.15662572
Mg      15.43773835      18.40376960      13.04018905
Mg      18.54966039      11.90476656      12.25042384
Mg      17.65234825      19.70174110      15.13411695
Mg      16.55714367      15.16386315      17.78541866
Mg      14.44273377      10.59857359      15.32478465
Mg      18.20576766      19.78867715      12.22132591
Mg      17.79301831      16.92929525      11.35243520
Mg      14.94828617      16.48744622      10.24389974
Mg      15.61452707      15.31488755      13.01720020
Mg      19.15385433      16.32576525      19.01107099
Mg      17.18500417      11.09456877      17.04398254
Mg      12.79905159      16.29810155      13.03620848
Mg       9.76632372      15.56148528      12.49571205
Mg      16.57855795      17.03879384      20.58086380
Mg      10.95764115      15.23287794      15.41631313
Mg      19.35689002      12.28849308      15.22853052
Mg      13.73950380      13.81791759      10.94532924
53
Properties=species:S:1:pos:R:3 config_type=qcd gap_pre_relax_energy=-53.44366353316413 gap_pred_energy=-53.69261683700152 gap_fmax_final=0.0009248508807099645 gap_converged=1 pbc="F F F"
Mg      11.24534927      16.17311597       8.20113178
Mg      13.62381335      10.77863259       7.23018080
Mg      12.31425803      13.43868151       7.47157770
Mg      10.51717079      10.99009755       7.93602274
Mg      16.64574311      10.53099095       7.57242833
Mg       9.43021033      13.81212677       8.56545808
Mg      15.39446262      13.32600026       7.97139280
Mg       9.29760259      16.29540561      10.45912122
Mg      13.51811936      14.96374624       9.79666459
Mg       7.83837580      11.25246149       9.32701465
Mg      17.77216679      12.23017279       9.66461072
Mg       9.29335681       8.44972140       9.52001566
Mg      14.95891749       8.35289241       8.57762720
Mg      12.28130023       9.24563895       9.54429695
Mg       9.76202794      10.42916367      11.64154209
Mg      14.56779308      11.45726981      10.17914239
Mg       6.62138581       8.97187468      10.99905552
Mg      11.62166419      12.53675372      10.39242017
Mg      16.25520517      14.44196046      10.92201855
Mg       8.76589199      13.46807378      11.48480715
Mg      12.18245996      17.67549032      10.65939520
Mg      16.88131637       9.45804290      10.62317892
Mg       8.60865347       7.43878873      12.48079870
Mg      14.40704294      16.38160518      12.40665327
Mg      10.84059555      12.33554056      13.64420767
Mg      10.04005041      18.23985883      12.68769209
Mg      16.88057499      12.00446271      12.57199389
Mg       6.40688149      11.72459963      11.97580298
Mg      15.79574804       9.42789844      13.52644086
Mg       7.61453086       9.85831314      13.99484392
Mg      11.46365912       7.44135158      11.82361314
Mg      12.89580435      10.21472470      12.34604556
Mg      14.45593757       7.68802929      11.43153718
Mg      13.91196629      13.16916085      12.51435622
Mg      11.46953519      15.13436495      12.28304231
Mg      16.01962070      14.49684030      14.20629559
Mg      12.85039239      18.67763657      13.51376117
Mg      14.28290731      16.80601765      15.45572499
Mg      16.47662454      11.75702742      15.65626524
Mg      11.10092523      16.89976491      15.17534384
Mg      13.54072035      11.37327028      14.95236218
Mg       8.68711272      15.68961058      13.57656500
Mg       7.77566244      12.85146476      14.36956329
Mg      13.30668020       7.88209244      14.36707625
Mg      15.17783699       8.98261997      16.42930738
Mg      10.56924722       9.07126719      14.34418439
Mg      12.71075487      14.37754986      15.00185421
Mg      14.87054349      14.04653650      16.97917093
Mg       9.83765720      14.24525565      16.01311263
Mg      14.58383257      11.28101783      18.12044089
Mg      12.17916207       9.56201654      16.91860323
Mg       9.57478638      11.17561166      16.20973344
Mg      12.01043636      12.62186184      17.41897870
53
Properties=species:S:1:pos:R:3 config_type=qcd gap_pre_relax_energy=-53.00567289391206 gap_pred_energy=-53.41231376189481 gap_fmax_final=0.0007136340855507053 gap_converged=1 pbc="F F F"
Mg      17.06066578      15.38909383      10.13824444
Mg      17.10724650      14.73793105      13.16902107
Mg      17.00730563      12.53630330      11.07124231
Mg      15.89101031      17.47619652      11.79047917
Mg      15.07166825      16.55260145      14.43954843
Mg      15.22685599      13.47168139       8.70504168
Mg      16.90745347      11.71992205      14.09884917
Mg      14.64882620      13.60222808      14.86306363
Mg      17.07461065       9.68341931      11.84849434
Mg      14.35948238      14.27544369      11.80772362
Mg      14.14733169      16.26722792       9.51066535
Mg      12.90545496      17.01305204      12.36452943
Mg      15.16121164      10.55909975       9.59269642
Mg      12.33012059      15.58522564      15.09160839
Mg      13.35742270      11.40602421       7.24908311
Mg      15.58786888       8.80491928      14.29489093
Mg      14.53196378      10.88222605      16.13312977
Mg      12.06088441      12.63951141      16.20834769
Mg      14.25213561      11.28227446      12.65800944
Mg      11.80429009      13.16123084      13.13132329
Mg      12.63482160       8.83690754       8.96219141
Mg      14.35552369       8.38596158      11.52743894
Mg      12.63692948      12.34052293      10.11501292
Mg      11.40088268      15.12179240      10.47587358
Mg      12.49362342      14.31314287       7.68186589
Mg      10.12158495      15.90170792      13.10892375
Mg      12.09300012       9.91989698      14.45743123
Mg       9.46121421      12.50356152      11.14285924
Mg       9.38727428      11.66535915      17.17326708
Mg      10.76600803      12.38027748       6.00589854
Mg      11.71190114       9.80368260      17.49874651
Mg      11.31106082       9.41587973       6.25821664
Mg      12.04261712       6.65275174      11.05549492
Mg      13.21013485       6.88004834      13.89507760
Mg       9.53069285      13.96156405       8.29025028
Mg      10.35729770      10.92460946       8.79179588
Mg       9.59530790      14.38649958      15.77975242
Mg      13.98787440       7.93639574      16.69863991
Mg       9.30270422      11.76866038      14.16381041
Mg      11.43695520       9.98636068      11.66448651
Mg       8.28942694      15.41634286      10.70487694
Mg      11.20823372       7.07668664      16.17962098
Mg       9.59651996       8.06904616      10.06400279
Mg      10.26542470       7.40590107      13.27775203
Mg       7.65949484      14.28599258      13.48254664
Mg       9.15143310       9.11169172      15.57401089
Mg       7.94309067      11.67661771       6.95183788
Mg       8.64103482       8.76319228       7.28041473
Mg       6.52253591      11.87975541      12.08690722
Mg       6.71659987      13.16506898       9.26746851
Mg       7.38292982      10.22218031       9.64870924
Mg       5.36602797      14.71103495      11.52639395
Mg       8.35000564       9.50927050      12.46640894
54
Properties=species:S:1:pos:R:3 config_type=qcd gap_pre_relax_energy=-54.646057424740306 gap_pred_energy=-54.90178551403564 gap_fmax_final=0.000837821230639329 gap_converged=1 pbc="F F F"
Mg      15.60309617       9.94792259      12.37004604
Mg      13.71103325      12.06991838      10.81916960
Mg      13.68772575      11.72559105      17.05553909
Mg       6.74843567      12.88398803      10.20405384
Mg      15.25482084      14.15346476      15.77420323
Mg      15.44604834       9.72081606      15.47782709
Mg      11.85095066      14.04812401      12.42638934
Mg      12.38442532       9.36750023      15.52586550
Mg      10.36749636      16.11865837      14.35954666
Mg      16.95313345      12.47042003      11.15855089
Mg       7.92200398      10.71021655      15.04505051
Mg       9.57304386       8.51074168      13.39937643
Mg       8.93998713      13.86045923      12.18381931
Mg      12.30363395      13.19194130       8.25945522
Mg      16.72531323      15.32716755      10.34011635
Mg       8.28964945      10.57767396       8.75726734
Mg      12.38692314       9.89495717       9.12789560
Mg       9.13556550      13.34271985       8.13353859
Mg      13.53925509      11.68164780      13.91700666
Mg      15.41987888      13.19733562       8.52985648
Mg      10.72139404      11.07556835       6.73520988
Mg      10.54220057      11.85240109      10.52496875
Mg       8.88447937      13.58978073      15.45357944
Mg       6.42315460      12.93214627      13.48055971
Mg      14.35685598       7.74295370      10.60942136
Mg      14.73737046      14.13036684      12.76196670
Mg      16.88223317      12.12945384      14.21883626
Mg      13.41688298      16.34044235      14.53979251
Mg       7.99152530      10.68645539      11.91908902
Mg      15.18829081      17.08338165      12.21865799
Mg       7.33884178      15.84374648      14.24463266
Mg      13.69675676      15.31366068      10.03996358
Mg      17.42991861      15.01913929      13.29537710
Mg      12.03551650      13.84510274      15.61011521
Mg       7.70451161      15.63965148       9.40377763
Mg      13.97508291      10.99682243       6.80065052
Mg      10.52653276      11.42131405      16.85316957
Mg      12.02926958      17.14310894      11.96294614
Mg      14.10411360       7.52977003      13.68013408
Mg       9.82949259       8.55621568      10.40475541
Mg      15.75418118      10.26279896       9.30276073
Mg      10.65979186      15.30577358       9.86785017
Mg       8.84815439      16.99193644      11.84660286
Mg      10.50562436      11.52422660      13.71761754
Mg      12.27005549       9.57395295      12.19029321
Mg      14.62640364       8.05821232       7.60639798
Mg       9.62446715       8.56403498      16.38896732
Mg       9.73850709       8.31197824       7.41354623
Mg      12.03573774       6.85040131       8.71181616
Mg      11.42862211       6.62636567      14.81564386
Mg      11.74392259       6.59724144      11.79670275
Mg      12.27181346       8.53214072       5.93429838
Mg       5.91921832      15.45249179      11.72057910
Mg      16.73800460      11.89704678      17.28609439
54
Properties=species:S:1:pos:R:3 config_type=qcd gap_pre_relax_energy=-54.45310518776796 gap_pred_energy=-54.72534932253742 gap_fmax_final=0.0009340557777535183 gap_converged=1 pbc="F F F"
Mg      16.46592306      18.92305810      17.88344074
Mg      10.64318277      15.08420488      13.49136814
Mg      19.08430042      12.52911959      11.59878888
Mg      18.91617389      14.02479079      19.63766003
Mg      11.79965713      12.61244979      18.13193039
Mg      13.95409937      14.53537144      12.87788640
Mg      17.70456710      11.06877104      19.25190005
Mg      10.36306075      17.21673505      15.72315823
Mg      12.33818231      12.80080712      15.06004590
Mg      12.18593055      17.72848247      13.21714399
Mg      12.09596446      15.79477987      10.83558629
Mg       9.79154331      14.14863725      16.27794180
Mg      14.25305241      14.36020493      18.06675973
Mg      18.12344524      15.28113361      10.49639460
Mg      11.48077727      10.18594831      13.97341418
Mg      13.98387327      11.46936749      12.45255100
Mg      16.01534567      13.21258098      20.21683313
Mg      16.48827956      16.04610111      19.34635550
Mg      13.91965487      18.42444180      10.79799210
Mg      13.04215435      15.71705483      15.56798744
Mg      17.13994869      14.55607221      13.46755403
Mg      20.04611655      11.72018779      17.60750457
Mg      16.09568581      16.13471765      16.07315437
Mg      17.72191807      18.54804325      15.18411941
Mg       9.16869940      12.32431884      13.92139186
Mg      11.70543928      20.01248446      15.40263967
Mg      13.77277812      20.33877605      13.14967921
Mg      13.92569930      17.40890982      18.45248848
Mg      15.81134010      20.93756339      15.43350686
Mg      16.93542465      11.36588593      13.36697589
Mg      16.68010009      19.93425627      12.61575539
Mg      14.26510666      18.40776297      15.51431014
Mg      16.86447097      18.06624844      10.25732006
Mg      13.37459461      13.21355103       9.92787207
Mg      19.38292076      15.94321893      15.06287747
Mg      11.43422556      15.71048067      18.20056791
Mg      16.19278775      12.92238887      10.85186513
Mg      11.26922555      18.78239553      18.10250599
Mg      13.77466542      20.43047840      17.70786691
Mg      17.56860052      13.78327708      16.94840108
Mg      15.21206802      13.10747156      15.31195522
Mg      14.59844639      10.11945905      15.05570702
Mg      19.53011973      12.74502964      14.68367385
Mg      14.87089662      11.38449205      17.93878944
Mg      17.44180709      10.77201012      16.23963166
Mg      20.72552903      14.52480657      17.26032193
Mg      15.09123552      15.67922795      10.11990964
Mg      11.25755834      12.65720891      11.86833133
Mg      18.67295251      17.46971113      12.53202385
Mg      20.42184696      14.92846973      12.50136205
Mg      15.51131477      17.08738431      13.07823133
Mg      18.81057694      16.85525710      17.82061360
Mg       9.70086932      11.04883234      16.49910011
Mg      12.37586315       9.91558152      16.93685392
55
Properties=species:S:1:pos:R:3 config_type=qcd gap_pre_relax_energy=-55.15602300295257 gap_pred_energy=-55.445281272900246 gap_fmax_final=0.0008837958782884922 gap_converged=1 pbc="F F F"
Mg      19.22358290      15.51405184      13.70763581
Mg      15.58674214      19.16150177      12.09391469
Mg      18.22676806      13.36152590      11.57805006
Mg      12.57090637      18.66652232      12.52872746
Mg      11.32640302      16.38847530      14.23842944
Mg      15.61447366      22.31296286      16.10256776
Mg      14.36997762      12.21473206      19.29484797
Mg      16.98200726      16.29204843      11.75655744
Mg      20.19637611      12.61738724      13.69873678
Mg      16.01337692      14.26138995       9.58931939
Mg      12.44996403      18.82552468      15.81005455
Mg      10.54953056      13.75558990      12.73888411
Mg      17.76445172      20.16749368      16.49577247
Mg      11.13820856      13.28623844       9.82504057
Mg      13.17067950      14.96702828       8.49195502
Mg      15.41165107      18.73761973      15.24576831
Mg      18.99831036      10.64100913      16.90693916
Mg      21.65315744      11.92251021      16.15601147
Mg      16.85358030      16.07957797      15.57341900
Mg      17.45277757      11.11691016      14.15793713
Mg      20.92507372      14.89665840      16.20629522
Mg      16.51572373      17.82753770      18.07425389
Mg       9.83486701      14.08543374      15.72956618
Mg      20.29507508      12.98348464      18.51374274
Mg      14.35311021      17.03936157      10.30968476
Mg      12.45614905      14.84738153      19.93867231
Mg      11.05077009      16.45942897      17.42487982
Mg      13.86021169      21.02433840      13.97797750
Mg      15.34778617      13.34710619      16.47261234
Mg      13.10243195      13.89565484      14.41201497
Mg      16.96608460      21.24763443      13.74257220
Mg      12.43211680      13.57611949      17.23814405
Mg       9.67009384      14.10282152      18.82115729
Mg      11.49401316      16.16048988      11.01465946
Mg      13.45718097      17.61856707      18.94662109
Mg      18.13571800      18.42889029      13.75415881
Mg      15.42107076      15.10781229      18.99348284
Mg      12.83931455      10.53862941      17.22395427
Mg      15.95060015      10.47273405      17.01025806
Mg      12.54350722      11.47277645      11.90112279
Mg      13.80183158      14.22988571      11.59414618
Mg      13.83168191      12.11136032       9.15930235
Mg      14.35331171      11.09665369      14.41855928
Mg      14.43106129      16.52534254      13.45945742
Mg      19.39722776      17.56229651      16.36694545
Mg       9.85362757      11.46588936      17.37535091
Mg      18.47172374      15.42069862      18.29794114
Mg      11.43699531      11.89173223      19.83385594
Mg      16.14220307      13.88115060      13.60254826
Mg      11.26356129      11.47427405      14.71643573
Mg      17.34765459      12.54737930      18.81729330
Mg      15.68143066      11.63648688      11.55943093
Mg      18.30045590      13.42453372      15.90517876
Mg      13.93770245      16.16587654      16.42267486
Mg      14.54570723      20.14347919      17.77448031
