3
Properties=species:S:1:pos:R:3 config_type=qcd gap_pre_relax_energy=-17.831001798890323 gap_pred_energy=-18.08638685608623 gap_fmax_final=0.00042468198867551347 gap_converged=1 pbc="F F F"
Mn       7.77814686       7.63893010       6.79858802
Mn       7.23824952       9.44169903       9.52970250
Mn      10.25138702       8.18715428       8.93949289
4
Properties=species:S:1:pos:R:3 config_type=qcd gap_pre_relax_energy=-25.293522054911694 gap_pred_energy=-25.570395530146453 gap_fmax_final=0.0009412305265952405 gap_converged=1 pbc="F F F"
Mn       5.89904540       6.83225845       7.55852292
Mn       7.54499843       8.65312950       8.11368753
Mn       8.33708810       6.27973105       7.84434009
Mn       7.57038008       7.58639299       5.83496146
5
Properties=species:S:1:pos:R:3 config_type=qcd gap_pre_relax_energy=-32.683155668813384 gap_pred_energy=-32.94364378480574 gap_fmax_final=0.00026284776978509366 gap_converged=1 pbc="F F F"
Mn      10.20757865       7.18979296       8.75294617
Mn       9.35392177       9.48740123       9.54722745
Mn       7.70579825       7.66723474       9.14286156
Mn       7.06692640      10.08472437       8.52153874
Mn       8.85213386       8.75720563       7.22178500
6
Properties=species:S:1:pos:R:3 config_type=qcd gap_pre_relax_energy=-40.15801280168296 gap_pred_energy=-40.297409972877475 gap_fmax_final=0.00047712421132882694 gap_converged=1 pbc="F F F"
Mn      16.34467695      15.43059695      16.12367217
Mn      15.84977523      13.46716599      14.57053507
Mn      14.14796941      14.15087084      16.34503751
Mn      13.65538298      14.56933472      13.87638709
Mn      14.15020237      16.53289595      15.42942018
Mn      15.85199307      15.84913554      13.65494798
7
Properties=species:S:1:pos:R:3 config_type=qcd gap_pre_relax_energy=-47.98226168654474 gap_pred_energy=-48.021763513431594 gap_fmax_final=0.0005633921045110016 gap_converged=1 pbc="F F F"
Mn       9.76967188       9.63897423       6.94274196
Mn       7.61461826      10.60762773       8.15085927
Mn       9.49778968       9.51533286       9.47149796
Mn       7.11824424       9.09864411      10.27645369
Mn      10.60513969       7.53133559       8.32189772
Mn       8.13173585       8.11417841       8.15795360
Mn       8.96636427       7.19747094      10.38215967
8
Properties=species:S:1:pos:R:3 config_type=qcd gap_pre_relax_energy=-55.09458721586727 gap_pred_energy=-55.51246349351941 gap_fmax_final=0.0007882453032853218 gap_converged=1 pbc="F F F"
Mn       7.25155221      10.22506285       9.21108573
Mn      10.16890798       7.00399705       8.38212558
Mn       7.55759254       7.75372047       7.83672761
Mn       9.66983243      11.12764403       9.40130218
Mn      11.15693810       9.10375321      10.02676127
Mn       8.89412246       9.93009110      11.46969375
Mn       8.93143525       8.64342795       9.52129933
Mn       9.60834365       9.45102796       7.38972918
9
Properties=species:S:1:pos:R:3 config_type=qcd gap_pre_relax_energy=-62.609770190752464 gap_pred_energy=-63.416480393150906 gap_fmax_final=0.0009967501553253344 gap_converged=1 pbc="F F F"
Mn      10.29660839      11.01780923       9.45904233
Mn      10.94291387       8.37076193       9.74534158
Mn       8.78352511       9.22671522       9.42331267
Mn       8.31382490      10.48069409       7.61718350
Mn       9.02844753       7.55980887       7.93376606
Mn       8.80137503       7.23151563      10.69552928
Mn       7.82664108      11.22105466      10.26362748
Mn       9.57623684       9.66196994      11.65870900
Mn      10.67587255       9.47511574       7.44893341
10
Properties=species:S:1:pos:R:3 config_type=qcd gap_pre_relax_energy=-69.9807856168978 gap_pred_energy=-70.37147762518197 gap_fmax_final=0.0008264605035943924 gap_converged=1 pbc="F F F"
Mn      10.00962233       7.10649943       7.49535745
Mn      10.33987404       9.99425787      10.49015998
Mn       8.74501798       7.94277943       9.99391194
Mn      10.41282226      11.70688692       8.75982814
Mn       8.70540262       9.72938397      12.15927467
Mn       8.13866280      10.69043683       9.66380543
Mn      11.40244701       7.86999868       9.70616718
Mn       7.82889170       8.92239197       7.41338968
Mn       9.78237463      12.09505913      11.33027624
Mn       9.97814351       9.28556464       8.33108817
10
Properties=species:S:1:pos:R:3 config_type=qcd gap_pre_relax_energy=-70.79457355919183 gap_pred_energy=-71.23502007474531 gap_fmax_final=0.000795038954678985 gap_converged=1 pbc="F F F"
Mn      16.05599305      17.37747562      15.19586761
Mn      13.73731267      16.53138410      14.53612785
Mn      12.73323241      14.60852575      15.95100120
Mn      15.94154293      15.65331467      13.31389795
Mn      14.76581715      16.14430560      17.03253720
Mn      13.76451891      14.01536164      13.47918534
Mn      17.24430061      15.15627057      15.65796086
Mn      15.08157908      14.75967307      15.32016714
Mn      16.33129458      13.17472493      13.95559363
Mn      14.34440862      12.57896403      15.55766122
11
Properties=species:S:1:pos:R:3 config_type=qcd gap_pre_relax_energy=-78.3018503808809 gap_pred_energy=-78.78889565799437 gap_fmax_final=0.0008508160352475032 gap_converged=1 pbc="F F F"
Mn       8.57315270      11.22280392       9.33261456
Mn       9.05718320      10.90034732       6.93490038
Mn       7.97681929       8.84825902       8.56484707
Mn       9.75144590       9.40328600      10.25747064
Mn       7.65414140       9.76325724      11.30952507
Mn      10.46142543       9.18648509       8.02055851
Mn      10.99211211      11.43624937       8.88774355
Mn      10.14192263       8.42784294      12.33380420
Mn      10.15911492      11.33159023      11.49812372
Mn      10.08552317       7.14115881       9.62030736
Mn      12.07450865       9.26606947      10.16745437
11
Properties=species:S:1:pos:R:3 config_type=qcd gap_pre_relax_energy=-78.25027724782603 gap_pred_energy=-78.52712648580791 gap_fmax_final=0.0009990072105508256 gap_converged=1 pbc="F F F"
Mn      14.64796327      15.93868697      12.36180874
Mn      15.66667583      13.56191092      12.88078698
Mn      13.16258997      14.57786785      14.10503579
Mn      15.52884630      15.38775839      14.41722468
Mn      14.04554035      17.38243725      14.46821902
Mn      15.01400344      13.17822668      15.32774187
Mn      17.40669035      14.28539561      15.03084009
Mn      14.11354760      15.62275241      16.17666861
Mn      13.17108555      13.69993154      16.96573998
Mn      16.34486649      16.86044408      16.01711195
Mn      15.89819084      14.50458828      17.24882229
12
Properties=species:S:1:pos:R:3 config_type=qcd gap_pre_relax_energy=-86.11538620852637 gap_pred_energy=-86.6482471011593 gap_fmax_final=0.0009450679716363363 gap_converged=1 pbc="F F F"
Mn      11.41765221       9.35660805       7.94015560
Mn       8.91632489       8.53346380       7.46330793
Mn       9.40084243      11.12219421       7.70850466
Mn       7.18479547      10.21004620       8.45614624
Mn      10.15909516       7.18489648       9.41153255
Mn       9.56051202       9.54393492       9.50412069
Mn       7.65434122       8.11077426       9.74955826
Mn       8.34253496      11.01059229      10.63653037
Mn      11.61998452       9.08237904      10.58452518
Mn       9.30767161       8.59893996      11.67847821
Mn      10.96099865      11.45732291       9.74570600
Mn      10.46939815      10.78299916      12.11558556
13
Properties=species:S:1:pos:R:3 config_type=qcd gap_pre_relax_energy=-94.78986090466303 gap_pred_energy=-94.9462699276026 gap_fmax_final=0.0008248755428037921 gap_converged=1 pbc="F F F"
Mn      15.65162371      15.54801933      12.86913158
Mn      16.49862204      13.12895922      16.19873609
Mn      12.54751450      14.98746520      15.30708007
Mn      13.50943206      16.80207073      13.61656899
Mn      15.12393035      14.88506821      15.22948437
Mn      14.03330553      16.80842872      16.18042694
Mn      13.69611156      14.23907070      13.27110426
Mn      17.45929708      15.06241445      14.57667038
Mn      13.98518224      12.73699495      15.29132638
Mn      15.93585305      17.25565952      14.60972531
Mn      16.50441729      16.05542355      16.89841885
Mn      14.06131942      14.42092970      17.40130728
Mn      15.99339117      13.06949574      13.55001951
13
Properties=species:S:1:pos:R:3 config_type=qcd gap_pre_relax_energy=-93.47587972732639 gap_pred_energy=-93.79547589671715 gap_fmax_final=0.0008704212970922191 gap_converged=1 pbc="F F F"
Mn       9.75932012       7.41360379       8.71081345
Mn       7.36645011      10.72964571      11.00546552
Mn      10.15225787       9.32902203       6.93203519
Mn      10.63400683      11.99769872      12.29110186
Mn      11.23744595       9.42843372      11.77908084
Mn       8.99373244      10.12256705      12.99814854
Mn      12.39497249       9.97559244       8.05403674
Mn      10.22998947      11.53144844       8.39692262
Mn      12.12455747      11.38481023      10.23582488
Mn      10.61749068       9.40008338       9.31926529
Mn       9.59677521      10.74771827      10.72479265
Mn       8.79619738       8.43935918      11.00597989
Mn       8.25112586       9.65433894       8.70085441
14
Properties=species:S:1:pos:R:3 config_type=qcd gap_pre_relax_energy=-101.64977924288601 gap_pred_energy=-102.4237806825991 gap_fmax_final=0.0009553226669141397 gap_converged=1 pbc="F F F"
Mn      12.25042015       9.65453017       8.03597590
Mn      10.39521269       7.71856423       8.03041181
Mn      11.61721990       7.48390219      10.40550038
Mn       9.36319147      10.12080735       7.85898360
Mn      12.52321191      10.36328593      11.02157469
Mn      10.91108689       9.42666642       9.73282666
Mn      10.96394044      11.90669569       9.13941542
Mn       8.77646791       8.11145574      10.05267629
Mn      10.00363199      12.01809571      11.86381118
Mn       9.12575190      10.59957294      10.32942744
Mn      10.15809444       9.14592008      12.15325880
Mn       8.18762791      12.32315966       9.39400865
Mn       7.08690025       9.89189383       9.13582154
Mn       7.55420159      10.15240952      11.76326707
14
Properties=species:S:1:pos:R:3 config_type=qcd gap_pre_relax_energy=-101.47902088002033 gap_pred_energy=-102.42378054118002 gap_fmax_final=0.0009440258437583835 gap_converged=1 pbc="F F F"
Mn      12.26228793       9.65182264       8.05045209
Mn      10.39476708       7.72804858       8.01932383
Mn      11.59830819       7.47009798      10.40139779
Mn       9.37873352      10.13763903       7.85657193
Mn      12.51811023      10.33961991      11.04257140
Mn      10.90930749       9.42171027       9.73645704
Mn      10.98204615      11.90497149       9.15960712
Mn       8.76418194       8.11807185      10.03280109
Mn      10.00308823      12.00517939      11.87794207
Mn       9.12711004      10.60181135      10.32839635
Mn      10.13750248       9.13004793      12.14976541
Mn       8.20681042      12.33723580       9.39736522
Mn       7.09198004       9.91487108       9.11601368
Mn       7.54272568      10.15583211      11.74829443
15
Properties=species:S:1:pos:R:3 config_type=qcd gap_pre_relax_energy=-109.63474456473017 gap_pred_energy=-110.36504759508472 gap_fmax_final=0.0009549409558951379 gap_converged=1 pbc="F F F"
Mn      10.61616682       8.08807251       9.75263224
Mn      11.52451323      10.11348548       9.21633541
Mn      11.53273970      11.88754805      10.88007237
Mn      12.05422521       8.45600233       7.67891552
Mn      11.99071417       9.36096534      11.48135154
Mn       9.95476313      11.73692659       8.88456992
Mn      11.59103862      11.00421998       7.07242797
Mn       8.89442688      12.54180845      10.99458054
Mn       9.51776759       9.41052900       7.79274622
Mn       9.71978144       7.98711916      12.08003697
Mn       9.61319666      10.12858228      10.73695626
Mn      10.25982729      10.78722051      13.00608686
Mn       8.14800000       8.31253071       9.86291855
Mn       7.70172947      10.77725446       9.27589146
Mn       7.49640717      10.02303251      11.89977552
15
Properties=species:S:1:pos:R:3 config_type=qcd gap_pre_relax_energy=-109.57482993063803 gap_pred_energy=-110.32707496625702 gap_fmax_final=0.0009262671788112453 gap_converged=1 pbc="F F F"
Mn       9.71682322       7.96125466       8.90799997
Mn      10.42359308       9.98901252       7.07449888
Mn       9.08211133      12.02260550      10.83694005
Mn       8.26003264      10.51987061       8.71426658
Mn      10.81274962      10.24401200       9.36656602
Mn      12.23509070       8.62679430       8.44980052
Mn       7.29680793       8.33226494       9.69826189
Mn      11.62416873      11.48626826      11.03862090
Mn      12.72541335      11.22999225       8.38683906
Mn      10.31906539      12.32688197       8.50932062
Mn       9.18983081       9.64114990      10.79362108
Mn       8.86620436       7.56882174      11.66115351
Mn       7.11790505      10.17453462      11.53443746
Mn      11.47412216       8.59574477      11.05769255
Mn       9.79121319      10.21592350      12.90511247
15
Properties=species:S:1:pos:R:3 config_type=qcd gap_pre_relax_energy=-109.52100027872898 gap_pred_energy=-110.13347679640053 gap_fmax_final=0.0008256839784023559 gap_converged=1 pbc="F F F"
Mn       9.44496522       9.53616577       6.73083285
Mn      11.34372929       8.50607334       8.60983397
Mn       9.55880500      12.05031040       7.75552809
Mn       8.66360513       8.05007756       8.79288224
Mn       7.49240187      10.40507770       8.41369696
Mn       9.77669452      10.12508374       9.03756581
Mn      11.12588120      12.35869055      10.12303979
Mn       8.59885087      12.00264804      10.17264251
Mn      10.87723728      10.19122941      10.83018081
Mn      10.27330504       7.77556793      10.80885608
Mn       8.41868368       9.58181649      11.12671890
Mn      12.66736706       8.74068935      11.12963331
Mn      12.46720725      11.16011124      12.35056690
Mn       9.84868736      11.61942327      12.41362926
Mn      10.71904504       9.17350098      12.98085829
16
Properties=species:S:1:pos:R:3 config_type=qcd gap_pre_relax_energy=-117.90025398350443 gap_pred_energy=-118.3640183984697 gap_fmax_final=0.0009527164274661969 gap_converged=1 pbc="F F F"
Mn      11.80468598       7.74896241       9.28050565
Mn      12.42760469      10.28301179       7.95300639
Mn      10.23788490       8.38063899       7.10587768
Mn      12.35304768       9.99050132      10.55638227
Mn       8.99837522       7.82061655       9.87236966
Mn      10.83370364       8.31761121      11.64336661
Mn      10.44515020       9.69227022       9.01459080
Mn       9.94563297      11.28598262       7.30983999
Mn       8.13727190       9.55662955       8.14142303
Mn      10.86002972      10.79327463      12.55040480
Mn       9.37457289      10.12731113      10.80533663
Mn       7.02896668       9.81061264      10.49853031
Mn       8.52906584       9.02619229      12.67036919
Mn      10.82116348      11.99896863       9.94708818
Mn       8.31516137      11.77445373       9.29803337
Mn       8.44440339      11.94968282      11.90959600
17
Properties=species:S:1:pos:R:3 config_type=qcd gap_pre_relax_energy=-124.7419783020186 gap_pred_energy=-126.13930568897686 gap_fmax_final=0.00090284229622701 gap_converged=1 pbc="F F F"
Mn      12.52380929       8.35667544       8.61516194
Mn      10.50720327       9.27897855       9.04542829
Mn      10.44099705       9.49389346       6.75548222
Mn       9.63725615      11.83582188       7.84509578
Mn       8.10831762       9.71042501       8.76662457
Mn       9.74987722      11.11501759      10.01741958
Mn       8.13918260      12.60692361      10.11450641
Mn       8.67880551       8.95106065      13.27198960
Mn       7.54578239      10.29910351      11.32949476
Mn      11.00046542       7.50055308      10.67172852
Mn       9.73973045       9.29692177      11.31339428
Mn       8.27377484       7.73882908      10.70217997
Mn      12.01620885      11.06564880       8.45355513
Mn      12.02385576      10.14410597      10.97136666
Mn       9.66628985       7.25545433       8.37539367
Mn      11.13980136      12.87356504      10.23369859
Mn       9.76230763      11.43068748      12.47114530
18
Properties=species:S:1:pos:R:3 config_type=qcd gap_pre_relax_energy=-132.90147821252393 gap_pred_energy=-134.0190487972841 gap_fmax_final=0.000998620267659293 gap_converged=1 pbc="F F F"
Mn       8.76491864      10.36892892       7.75921993
Mn      11.13686895       9.37582029       7.39369183
Mn      12.21068400       7.54030829       8.89168909
Mn       7.64564399       8.34953016       9.19236476
Mn      11.24187432      11.97401529       7.54888254
Mn       7.38857709      10.89325442       9.96031120
Mn       9.06761539      12.78732749       8.99635973
Mn      10.03459124       8.43553368       9.15666745
Mn      12.59699594      10.09980169       9.41549509
Mn      11.59275963      12.77290101      10.15228146
Mn       9.15781998       9.56588808      10.79584088
Mn      10.37520620      10.86477847       9.46545850
Mn      11.37566525       8.25250221      11.22064539
Mn       7.07930674       8.80822371      11.74040520
Mn       8.98819745       7.16354513      11.19294167
Mn      11.55026414      10.68798937      11.76506350
Mn       9.32581365      11.86794012      11.48869344
Mn       9.55360405       9.27811834      12.95039498
19
Properties=species:S:1:pos:R:3 config_type=qcd gap_pre_relax_energy=-141.64234673527318 gap_pred_energy=-142.80570252317844 gap_fmax_final=0.0009562290876369573 gap_converged=1 pbc="F F F"
Mn      13.31636872      11.68476322       9.49323918
Mn      11.05262824      12.14523841       8.08665867
Mn      12.23864175       9.76273925       7.92473386
Mn      12.33323544      11.00411315      12.31184598
Mn      12.99914708       8.79886763      10.33686882
Mn       9.92506533      10.07812801       8.28828711
Mn      10.87618086      13.06390908      10.62651382
Mn       9.14608288      11.69398697       9.66554002
Mn      11.26875165      10.61870961      10.18226212
Mn       7.04313781      11.15038604      10.70283797
Mn       9.48485495      11.11386691      12.13003000
Mn       7.59016137      10.41644694       8.15558935
Mn       8.74683451       9.35963696      10.23268378
Mn      10.68957384       8.69377937      11.96579579
Mn       8.77600022       8.03397441       7.99424273
Mn      10.81303865       8.34498857       9.43847497
Mn       7.86776295       8.77484137      12.40121425
Mn       6.64337346       8.35357707       9.62671283
Mn       9.16639096       6.88527767      10.41369939
20
Properties=species:S:1:pos:R:3 config_type=qcd gap_pre_relax_energy=-148.2133773406298 gap_pred_energy=-149.99576637236487 gap_fmax_final=0.000909893241166661 gap_converged=1 pbc="F F F"
Mn      11.05157193       8.49212093       7.11554559
Mn      12.64867375       8.41474305       9.65112207
Mn       8.48850854       8.67325272       7.80083230
Mn       7.24450049      10.57984173       8.95178787
Mn      10.53530414       9.53013786       9.02869820
Mn      12.17301036      10.84982477       8.20778423
Mn       9.54823464      11.18702279       7.47350701
Mn      11.12306689      13.16603330       9.13324790
Mn       7.04143853       8.00725669       9.98034980
Mn       8.23247127      12.93901271       9.53024712
Mn       8.82636688       9.20036920      10.31005563
Mn       9.85224412      11.35104301       9.98575931
Mn       9.82970127       7.07231116       9.46150341
Mn      12.13427971      10.95073938      10.84990065
Mn      10.09215224      12.69287873      11.86472150
Mn       7.87203127      10.77532771      11.55132558
Mn      10.87938438       8.45224382      11.12743959
Mn      12.65353013       8.92335466      12.42395917
Mn      10.26018299      10.16530072      12.63834252
Mn       8.82736199       7.89120052      12.22788603
21
Properties=species:S:1:pos:R:3 config_type=qcd gap_pre_relax_energy=-157.64300101449217 gap_pred_energy=-158.67596765317515 gap_fmax_final=0.0007894312218658501 gap_converged=1 pbc="F F F"
Mn       9.23918088      11.47546420       7.60467426
Mn      10.08758333       9.04679987       6.84620541
Mn      11.88403223      11.41003144       7.04553080
Mn       8.27253083       9.42442837       8.94754053
Mn      11.00643433      12.44322830       9.09005929
Mn       7.39995693      12.14869856       9.43383529
Mn      13.17743290      11.10518722       9.38912404
Mn      10.44164648       7.50676465       9.39664576
Mn      12.88949479       8.75836168       8.05295459
Mn      11.01080755       9.94961084       8.92220326
Mn       8.61599029       9.21784483      13.46858074
Mn       9.51566119      13.43696581      10.94988488
Mn       7.94534845       7.60911398      11.05743181
Mn       9.30571194      11.31676965      10.11864060
Mn       9.82909893       9.15657750      11.24500417
Mn      11.52743483      11.55579603      11.33073909
Mn      10.65814532       7.26177095      12.43930519
Mn      12.46362015       9.03458201      10.94666942
Mn       9.32029591      11.31161686      12.40292556
Mn       7.36402787      10.21674604      11.29036464
Mn      11.23341329       9.80148965      13.20952910
22
Properties=species:S:1:pos:R:3 config_type=qcd gap_pre_relax_energy=-165.85788611215696 gap_pred_energy=-166.8602354533096 gap_fmax_final=0.000888103701579847 gap_converged=1 pbc="F F F"
Mn      10.37855952      13.06950767      11.16490299
Mn      11.87507459      11.15738876       7.43021468
Mn      12.67982550      12.62297756       9.86993915
Mn      10.44637016      13.24605085       8.47705837
Mn       9.49925942      11.00943321       7.79706299
Mn       8.83661832      12.05909524       9.72282328
Mn       7.06992059      11.36721602       8.26177000
Mn       8.24075156       9.02796898       7.24940281
Mn       7.04797300      11.28313410      11.05472791
Mn       8.49082364       9.72138894       9.56577441
Mn       9.42605832      10.80029170      11.50517955
Mn      10.72553050       8.79693260       8.24673421
Mn      10.96714304      11.03641041       9.68017424
Mn      11.81732710      11.01165364      12.06297325
Mn      12.91221383       9.60497960       9.81246198
Mn      10.58200699       8.68366082      10.89201962
Mn      11.80058747       6.83675561       9.89581782
Mn      12.44217848       8.37942985      12.44760147
Mn      10.07530401       9.37043307      13.20771941
Mn       8.83089674       7.25673562       9.50595086
Mn       7.91443358       8.79474537      11.79555074
Mn       9.91026090       6.83292758      12.32325754
23
Properties=species:S:1:pos:R:3 config_type=qcd gap_pre_relax_energy=-173.88520593053605 gap_pred_energy=-175.25221116595927 gap_fmax_final=0.0007212885678615701 gap_converged=1 pbc="F F F"
Mn      10.07774797      11.23221676      13.89983873
Mn      10.90261334       9.40239484      12.51594559
Mn      12.33436497      11.57513759      12.16423965
Mn       8.40667512       9.45540564      12.78360031
Mn      10.25527952      13.56939134      11.94971978
Mn       7.67147258      11.99080306      12.30850296
Mn       9.86388879      11.30053173      11.45975486
Mn       9.60466895       9.02318669      10.76566544
Mn      11.44843978      12.38374251       9.58099116
Mn      13.23648900       8.85478226      12.07215457
Mn      11.23729914       7.32510820      11.14573792
Mn      13.89110879      10.83303781       9.84653047
Mn       8.62578422      12.74461739       9.71157065
Mn      11.81666216       9.83087925      10.32989116
Mn       7.86268986      10.36097211      10.50541585
Mn      12.99373955       7.98531564       9.22905545
Mn       9.64498633      10.51595479       8.89346993
Mn       9.84756701      12.10874094       7.17212374
Mn      10.59600875       8.30409127       8.92403870
Mn       8.08894107       8.31794578       9.06283928
Mn      11.96044290      10.23519202       7.78221017
Mn       7.31729680      10.72164196       8.15654140
Mn       9.48069512       9.09377214       6.90502396
24
Properties=species:S:1:pos:R:3 config_type=qcd gap_pre_relax_energy=-181.52599229869804 gap_pred_energy=-183.1911711165229 gap_fmax_final=0.0008779924169115443 gap_converged=1 pbc="F F F"
Mn       8.54382727      10.16513041      12.87482211
Mn       7.74439553       8.31132808      10.84562428
Mn       8.95407435       8.95776242       8.53589383
Mn      12.32109260      12.73892956      12.13374471
Mn       7.65172410      12.53577299      11.59512532
Mn      11.37652899      10.18984310      13.09644662
Mn      10.24599486       7.01461688       9.86656651
Mn      12.46660978      14.53768029      10.12123320
Mn       9.98294176      11.78443621      11.49561113
Mn       8.90576915      12.82310854       9.23996085
Mn       9.96432173       7.66503971      12.83032600
Mn      11.40834188       8.99298619       9.06319354
Mn      10.23173787      10.83917329       9.30812691
Mn      13.77681267       9.36196391       9.19933554
Mn      11.34561525      12.66316693       9.73900605
Mn       8.27218190      10.61828893      10.29018232
Mn      12.18013975      11.12656790       7.95874032
Mn      10.01388890      14.22498867      11.19101967
Mn      12.38963332       8.17205761      11.37029155
Mn      12.22568347      10.62215847      10.61838182
Mn      10.02714735       9.15787899      11.01267865
Mn       9.90255624      12.60425150      13.67316462
Mn      14.05373629      10.45296502      12.04941900
Mn      13.82488662      12.24954607       9.70074710
25
Properties=species:S:1:pos:R:3 config_type=qcd gap_pre_relax_energy=-189.41456669864925 gap_pred_energy=-191.1113634397281 gap_fmax_final=0.0008621572015835101 gap_converged=1 pbc="F F F"
Mn       7.80515475       9.64195439       8.43028506
Mn      12.19640388      12.93135218       7.87908847
Mn      12.61283896       9.89452109       7.81507183
Mn       9.88407016      11.10013693       7.41212121
Mn      13.91180431      11.64075335       9.81201908
Mn       9.76906756      13.26228974       8.98742502
Mn       9.05011526      10.97919605       9.77012792
Mn      11.93297134      13.34368272      10.30181362
Mn      11.42086764      11.18049572       9.36260701
Mn      10.29924479       8.78895363       9.06835126
Mn      12.72604148       9.19352738      10.61096494
Mn      10.16117916      12.27068262      11.11921175
Mn       8.29170353       9.09071277      10.94467744
Mn      10.46951827       9.93275791      11.34436768
Mn      12.35035713      11.54363906      11.85397407
Mn      10.50701476       7.66289498      11.66223626
Mn      13.72960049      13.53037182      11.98902843
Mn       8.07084995      11.44219146      12.01982088
Mn      14.37193320      10.58165000      12.53056073
Mn      11.14101624      13.79900391      12.66433066
Mn      11.91139633       9.41868951      13.38879579
Mn      10.30546527      11.46999823      13.13392969
Mn       9.15257225       9.42750106      13.24512524
Mn      12.44327983      12.10018155      14.27419847
Mn      10.34546593      10.63279441      15.23979998
26
Properties=species:S:1:pos:R:3 config_type=qcd gap_pre_relax_energy=-197.98403304654477 gap_pred_energy=-199.4574970687817 gap_fmax_final=0.0009176574366889691 gap_converged=1 pbc="F F F"
Mn       9.63724353      11.53628234      14.80260721
Mn      12.43351326      10.78452991      14.98729661
Mn      11.55768901      12.88405469      13.45258638
Mn       8.24797511       9.80084066      12.93781129
Mn       9.34651317      11.97191306      12.45789291
Mn      13.12619217      11.00701088      12.64817152
Mn      14.68866548       9.68401245      11.25983807
Mn      12.87239072       8.53910971      13.18950444
Mn      10.30123294       7.90230744      11.76578980
Mn      11.37435306      11.80335761      11.46363844
Mn      10.86679276      10.12548709      13.15693251
Mn       9.88366755      14.18942006      11.96901192
Mn       7.60327362      11.42732223      10.81676322
Mn       9.63542779      12.59105628      10.26840286
Mn      11.42532546      11.34850403       9.11089716
Mn       9.69118973      10.13949240      10.78611263
Mn      12.16217281       9.47761581      10.89217694
Mn       8.87684449      11.06235616       8.43519839
Mn      13.41987510      11.63576470      10.49833082
Mn      11.95154695      13.75975832      10.47880987
Mn      13.32201099      12.71374383       8.23459927
Mn      13.44679117       9.80881309       8.66932558
Mn       7.88394308       8.81162464      10.06832694
Mn      10.43175208      13.46361585       8.17627205
Mn      10.65493356       8.77823491       8.84160650
Mn      11.30777036      10.90285777       6.78118266
27
Properties=species:S:1:pos:R:3 config_type=qcd gap_pre_relax_energy=-206.23454804277122 gap_pred_energy=-207.63996925200084 gap_fmax_final=0.0009614956102949706 gap_converged=1 pbc="F F F"
Mn       9.47158965       9.38878137       8.22212035
Mn      11.63943599       8.54127419       7.86183172
Mn       8.48186053      11.11621255       6.91484400
Mn      12.76952852       8.13385404      10.28870987
Mn      11.14046829      11.31591200       7.60653823
Mn      10.12552155       7.50637198       9.97360952
Mn       9.65036810      13.57923649       8.23129444
Mn      13.39223118      10.61765640       9.13310207
Mn       6.90423857      12.50315432       9.03453416
Mn      12.53258564      10.61686519      11.68357388
Mn      11.17935450       9.99088955       9.68720593
Mn      11.44710569      12.53670228      10.06611293
Mn      10.86678673       8.86518584      11.65485233
Mn       7.12995122       9.81506292       8.84361055
Mn       8.75556160       8.77961569      12.53511814
Mn      12.76104560       8.46387267      12.89941726
Mn       9.90259656      11.09495470      11.71546026
Mn       9.04801856      11.52952139       9.28281397
Mn      14.72647393       9.62031074      11.49691910
Mn      13.88762304      12.54447401      11.30603932
Mn       8.94833529       9.40928251      10.34363413
Mn      10.89380186      10.04204711      13.78217826
Mn      13.46605317      10.90201638      13.86749790
Mn       7.33540190      10.88716710      11.27417277
Mn       8.62831355      11.54986021      13.62554110
Mn       8.92718673      13.29817422      11.15340131
Mn      11.32941222      12.69239432      12.85671664
28
Properties=species:S:1:pos:R:3 config_type=qcd gap_pre_relax_energy=-214.53848265998096 gap_pred_energy=-215.97590405418816 gap_fmax_final=0.0008086789296248083 gap_converged=1 pbc="F F F"
Mn      12.62946354      11.44548278       7.52257148
Mn      13.17721431       9.73368577       9.59857248
Mn      11.48179521       7.64759798      10.27286432
Mn       9.71525926      12.06709393       7.72740482
Mn      10.82751278       9.55464815       8.37132710
Mn      11.81554088      14.12247835       8.69207085
Mn      14.03295396      12.39477548       9.98222706
Mn      10.21402757       8.04533945      12.64198360
Mn      14.81143325      10.03653872      11.72161618
Mn      12.65270963       8.84575744      11.97966496
Mn      11.50556402      11.99056383       9.59582032
Mn      12.77443776      11.33654935      11.85126067
Mn       8.13449099       9.52985731       8.23518985
Mn      11.96161128      13.78136120      11.59880408
Mn       9.39939041      13.58688618      10.26047389
Mn       9.02482259      11.05188334       9.89252172
Mn      11.16423880      10.08479304      13.07975364
Mn      13.36113928      10.19196955      14.01737409
Mn      11.05648551       9.98230864      10.74748214
Mn      14.32058632      12.66110587      13.03122867
Mn       9.22005493      10.66202391      14.16478215
Mn      10.25672023      11.99289249      11.98715140
Mn       7.03070671      12.10791769       9.22498537
Mn       9.28384449       8.58971108      10.22045885
Mn      11.57703089      12.26538337      14.09309892
Mn       7.05993902       9.71501936      10.72658228
Mn       7.75903619      11.97597580      12.09883088
Mn       9.07826578       9.92667556      11.99017387
29
Properties=species:S:1:pos:R:3 config_type=qcd gap_pre_relax_energy=-223.13228338202717 gap_pred_energy=-224.4017553985008 gap_fmax_final=0.0009325218315586336 gap_converged=1 pbc="F F F"
Mn      10.87953182      10.61019958       8.60875431
Mn      11.95275563      13.06131175      12.13324308
Mn      10.87310924      10.76301707      12.76494817
Mn       8.67862958      10.74277537      11.77642494
Mn       7.75840465      12.62953035      10.46253577
Mn       9.90370823      14.20597090      10.50147637
Mn       9.15406689      12.88997936      12.77928542
Mn      11.08381248       9.30844302       6.71865270
Mn      13.30691827      10.72587306       8.25281080
Mn      11.95564873       8.31125691       9.24377095
Mn       9.15953152       8.48380523       8.58910570
Mn       8.80877168      10.77452498       7.19312643
Mn      11.07729164      12.27127565       6.88266532
Mn      12.03104146      12.96150572       9.33465198
Mn      12.48503266      10.68617963      10.68923359
Mn      10.30620877       9.42470008      10.61082516
Mn       8.68200837      10.63141134       9.59028224
Mn       9.51935863      12.55479520       8.73169061
Mn      10.30643681      11.94894114      10.76118484
Mn       9.51224593       8.81915296      12.63769578
Mn      12.02533038       8.41130355      12.04281849
Mn       7.75693377       8.74487712      10.90127432
Mn       9.90159246       7.16785217      10.86938316
Mn      14.27991153      12.20987539      10.72649957
Mn      14.27842893       9.16049833      10.65802153
Mn      13.29928577      10.64551849      13.12852702
Mn      11.07229001      12.06450070      14.65581791
Mn      11.06429393       9.10164039      14.49152285
Mn       8.79778740      10.59965175      14.17413816
30
Properties=species:S:1:pos:R:3 config_type=qcd gap_pre_relax_energy=-231.00891581200716 gap_pred_energy=-232.3905407142386 gap_fmax_final=0.0009202086646649892 gap_converged=1 pbc="F F F"
Mn      12.03252327      12.88564520       8.07514299
Mn      10.93117341      10.31077652       7.86901360
Mn       8.12038699      10.28325296       7.71899449
Mn      12.63052785       8.15869127       8.51446515
Mn       9.39205773      12.55602663       8.47037238
Mn      13.52889175      10.77744556       9.14060473
Mn       9.63058034       8.05260456       9.06616992
Mn      10.77743519      14.22073601      10.02670726
Mn      13.33088937      13.34337919      10.42162426
Mn      11.34242071      11.76467213       9.79958742
Mn       9.06818124      10.35527412       9.87874115
Mn      11.54435235       9.24138357      10.24333587
Mn       7.14906622      12.07600215       9.96506787
Mn       7.09499232       9.12895349      10.35045811
Mn      11.51500022       7.03371728      11.11796409
Mn      15.22549135      11.49049000      11.36367547
Mn      13.90426060       8.78186759      11.19526477
Mn       9.32919793      12.55016888      10.91465958
Mn      12.93525070      11.03998526      11.64846220
Mn      11.40740722      12.82119579      11.81328890
Mn       7.77107794      13.58275256      12.22986427
Mn      10.44004025      10.61274671      11.73475675
Mn       9.31773428       8.54148337      11.89257857
Mn       7.94639118      10.91124857      12.32354123
Mn      13.39050508      13.03581081      13.18942073
Mn      11.77534296       8.99087323      12.87120548
Mn       9.76556926      12.36536752      13.19681024
Mn      13.88880142      10.28516026      13.78726575
Mn      11.66098452      11.33184055      13.58989115
Mn       9.71009538      10.02707729      14.14769466
31
Properties=species:S:1:pos:R:3 config_type=qcd gap_pre_relax_energy=-239.2378608150669 gap_pred_energy=-240.729547573474 gap_fmax_final=0.0009192077765128602 gap_converged=1 pbc="F F F"
Mn      12.01140696       9.46295683      12.93385059
Mn      13.67388859       8.17672948      11.61963490
Mn      11.26007301       7.09133499      12.70908163
Mn      10.37542240      10.74703734      13.95137464
Mn      14.29705120      12.55573499      11.91213114
Mn      12.31396132      11.61990358      13.06101733
Mn      13.08483567      10.53377858      11.08159683
Mn      11.84577804       6.60856263       9.76216223
Mn      11.38931108       8.67525002      10.78005209
Mn      13.09997604       9.17346692       8.89571836
Mn       9.76593059       9.04238829      12.56343492
Mn      11.96797483      12.79736531      11.04503981
Mn      12.23856505      14.12009118      13.17256889
Mn      10.83055962      10.78808275      11.50565341
Mn       9.17095989       7.33567506      10.74423841
Mn      10.28018646      12.68281793      12.71209667
Mn       8.75326522      11.13438524      12.38186745
Mn      13.53804917      12.08263041       9.09570230
Mn      11.27051187      10.89114196       9.33382738
Mn       9.05295520       9.85864978      10.39825811
Mn       7.34587030       9.12461571      12.07375644
Mn      13.00678991      14.78140863      10.28257940
Mn      10.25131484       8.68125455       8.39303563
Mn       9.50492906      12.36591636      10.53608634
Mn       7.39871042       8.98507811       9.01579949
Mn      10.19777354      14.66081872      11.17614582
Mn      11.53586519      11.01743409       7.10715260
Mn       7.15414266      11.53793752      10.49993158
Mn      10.99701773      13.38985040       8.68801791
Mn       8.36078566      13.73282552       9.25440847
Mn       8.96003814      11.27877674       8.24767887
32
Properties=species:S:1:pos:R:3 config_type=qcd gap_pre_relax_energy=-247.66713180970032 gap_pred_energy=-249.23774132030167 gap_fmax_final=0.0009709796513972824 gap_converged=1 pbc="F F F"
Mn      11.66799295      10.87140305       7.10509182
Mn      10.97029252      13.70234882       7.32768632
Mn       9.07698712      11.62912775       8.21037023
Mn      13.67916465      12.61689524       8.17659154
Mn       9.52460330       8.86899145       7.47528647
Mn      12.41303233       8.36378683       8.23306327
Mn      12.39796077      14.53266224       9.87568500
Mn       9.51329364      13.96357350       9.88522630
Mn      11.40726288      12.35078363       9.19989432
Mn      12.98625664      10.51824038       9.27323863
Mn       7.29168741      12.06492798      10.48541774
Mn      13.28264252      12.34682103      10.61736492
Mn      11.54749228      10.88910460      11.02632310
Mn       8.23258201       9.42441412       9.99136557
Mn      10.67334851       9.84243432       9.20470043
Mn       9.44684970      11.55934565      10.78265912
Mn       8.96433853      13.24890277      12.65337963
Mn      11.24696270      13.12893671      11.54404345
Mn      10.31557781       7.40932214       9.88344154
Mn      10.18031661       9.19891446      11.69719914
Mn       8.17520995      10.45428925      12.76231938
Mn      13.91500606      10.24990445      11.32976598
Mn      12.32303528       8.79859635      10.63989837
Mn       8.58327412       7.64158185      12.22891471
Mn      10.62800002      11.33561501      13.13447091
Mn       9.42529528      11.69204438      15.12176693
Mn      12.87835284      11.82088761      12.65817739
Mn      11.58737361      13.47959875      13.96018511
Mn      11.58556201       7.28390091      12.41481641
Mn      10.25729855       9.03226406      14.23148284
Mn      12.29173555       9.61206859      12.78586859
Mn      12.34718009      10.88428035      14.90027309
33
Properties=species:S:1:pos:R:3 config_type=qcd gap_pre_relax_energy=-256.14240308187453 gap_pred_energy=-257.7195806868079 gap_fmax_final=0.000950529202978478 gap_converged=1 pbc="F F F"
Mn      14.00319447      10.53144645      10.14860283
Mn      13.57717212      12.69480659       8.31959827
Mn      14.52263449      11.19949027      12.94969719
Mn      11.52646246      14.42356327       9.63421168
Mn      13.52794411      13.19828300      11.14553636
Mn      12.26496233      13.11310739      13.65298351
Mn      11.01839066      13.06110721      11.58723441
Mn      13.05044517       7.90390522       9.27501524
Mn      12.27660382      10.22186966       7.81852120
Mn      10.26263402      11.65578697      13.19444665
Mn      11.65154508       9.39004366      10.23514289
Mn      10.82755300      12.73935665       7.51138183
Mn       9.92118735      10.69731473       8.72226292
Mn      12.34005562      11.12113789      12.09855817
Mn       8.79197928      12.70182206      11.83172652
Mn      11.91456913      11.96066613       9.67231267
Mn      13.08094859       8.65469265      12.22336083
Mn      10.27788088       8.17132291       8.37271607
Mn      12.00713498      10.33896101      14.48489651
Mn       9.69587658      12.82372524       9.77348073
Mn       9.76266033      10.27796998       6.50248564
Mn       8.11603826      12.26194648       8.00783043
Mn       9.05683972       9.04101544      10.53318404
Mn       9.15770722      10.02461785      14.62156759
Mn      10.29180568      10.96336903      10.99629720
Mn      10.73356644       7.16753917      11.10424524
Mn       8.14822823      11.24250559      10.21872609
Mn      10.56945322       9.28795892      12.64003238
Mn       7.72771062       9.52386316       8.38035051
Mn       8.47273344      10.52181252      12.34085562
Mn       6.61400845       9.53307412      10.95880804
Mn       7.99982391       7.06731842       9.83948383
Mn       8.34385845       8.01820841      12.73805500
34
Properties=species:S:1:pos:R:3 config_type=qcd gap_pre_relax_energy=-263.86599166091094 gap_pred_energy=-265.8824477981374 gap_fmax_final=0.0009757620378925402 gap_converged=1 pbc="F F F"
Mn      11.98654318      14.97128832      10.11148062
Mn      10.81613176      14.88645761      12.69675183
Mn      14.09879708      12.96556297       9.91094531
Mn      10.12873312      13.55121258      10.77388443
Mn      11.68475160      12.65082859       9.31057401
Mn      12.24061138      12.91412108      14.28039469
Mn      12.24372484      13.04434781      11.69958920
Mn      14.95072210       9.98540915      10.03089740
Mn      10.19120263      12.51379311      12.87872656
Mn      14.25977583      11.54278850      12.53408164
Mn       9.37696558      12.19707997       9.25352520
Mn      13.02727404       9.95658074      14.75600034
Mn      10.63016150      12.17212615       7.15327772
Mn       8.60781802      12.15650482      11.46799553
Mn      12.86615788      10.82154726      10.51571727
Mn      10.72957997      11.28912397      10.93907501
Mn      10.14693792      10.91787915      14.81205626
Mn      13.13388660      11.01767561       7.95096662
Mn       8.68732215      10.16147899      10.30132710
Mn      12.59802546       8.52787188       9.24410035
Mn      11.82047012      10.79654331      12.92407705
Mn       7.01811177      10.40382474      12.15628636
Mn       9.44202292      10.30527729      12.59989324
Mn      10.82850660      10.37952753       8.83796755
Mn       6.95507565      11.84366460       9.64737557
Mn      11.10328713       9.19038472       6.90071621
Mn       8.51577361      10.34805130       7.73431400
Mn       9.66029839       8.06090113       9.08706534
Mn      10.88250421       8.47000951      13.54019117
Mn      13.29444836       8.78429663      12.08552333
Mn       6.89158541       8.79992528       9.59773654
Mn      10.92537172       9.09275808      11.07705833
Mn       8.68117404       8.05721463      11.78368635
Mn      11.30644880       6.95414441      11.13694327
35
Properties=species:S:1:pos:R:3 config_type=qcd gap_pre_relax_energy=-272.26970716128267 gap_pred_energy=-274.1429139939677 gap_fmax_final=0.0009695578939706117 gap_converged=1 pbc="F F F"
Mn      14.53467387      11.60004802      12.47935673
Mn      12.98675940      10.41277929      10.83687661
Mn      13.81677223       8.82655328      12.54859010
Mn      13.87620982      14.41790141      12.10362077
Mn      13.95178977      12.60088448       9.81647156
Mn      12.93987072       8.01570317       9.93961112
Mn      15.10662800       9.97744777      10.06277680
Mn      12.62231646      12.74174800      14.31763549
Mn      12.93005402      10.30878021       8.24910061
Mn      12.14143652      12.89994824       7.57424615
Mn      12.25105727      10.64151264      13.06596712
Mn      12.27877046      12.70016513      11.84627725
Mn      10.12610502      10.87801750       7.57329877
Mn      11.48338378       8.77928800      11.86224055
Mn      10.78584494      10.90644084      11.25446222
Mn      10.86166762       9.46437643       9.58477239
Mn      11.02239509       8.24086845       7.76122617
Mn      10.94452656      14.57019253      12.83903515
Mn      10.24750971       7.13180664      10.39829679
Mn      11.78127829      14.48846172      10.04933298
Mn      11.47464351      12.02599046       9.48095111
Mn      10.20137398      10.02129025      13.34820563
Mn      10.47166304      12.17127255      13.20665046
Mn       9.83156450       7.57884098      13.24767486
Mn       9.11277690       9.18931712      11.47233505
Mn       7.40450961      11.44027847       8.21579474
Mn       9.98205746      13.07861467      11.12539794
Mn       8.98479916      11.23190971       9.87141159
Mn       8.45126767       8.86186269       8.94545136
Mn       8.70728384      11.43102018      12.20490480
Mn       9.49835637      13.43190671       8.66779162
Mn       7.48786385       7.48354341      11.33534832
Mn       7.76216262       9.57341734      13.53547573
Mn       7.57660963      13.06305232      10.76577347
Mn       6.84464556      10.29538666      10.89426523
36
Properties=species:S:1:pos:R:3 config_type=qcd gap_pre_relax_energy=-280.87049175746097 gap_pred_energy=-282.45392187120297 gap_fmax_final=0.000833364033075247 gap_converged=1 pbc="F F F"
Mn      13.23373795       8.33222158      13.16391831
Mn      14.06853227       9.87285202      10.91144395
Mn      13.46935157      11.22520989      13.37052098
Mn      13.24359253       8.91274754       8.38122881
Mn      10.44368330       7.76740981      13.06846061
Mn      12.54821745      11.94437712      11.13199734
Mn      11.29270571       9.93882231      14.54739127
Mn      14.74381099      12.63016038      11.18075143
Mn      12.44687143      13.79720535      12.78647136
Mn      11.80110685       9.71846003      12.14615028
Mn      11.85579379      10.00443612       9.57414486
Mn      12.17834630       7.69265879      10.67217439
Mn       9.43395091      10.22459543      12.89530899
Mn      11.06521137      12.38155963       9.09938322
Mn      13.54782318      11.72983409       8.75099146
Mn       8.61607365       9.12428210      14.67931651
Mn      11.02585908      11.80943199      12.96649804
Mn      12.61727681      14.20947432       9.96310148
Mn       9.86720834       8.81066964      10.82736716
Mn      10.61650922      13.29262934      11.24486208
Mn       9.62641020       6.63303770      10.60026604
Mn      11.86244422      13.46771583       7.25539259
Mn       7.09181209      10.84082181      13.06691215
Mn      11.34366113      10.66834471       7.17174350
Mn       9.88635204      14.54149559       9.26726088
Mn       9.39927484      10.43821734       8.88815648
Mn      10.41849150      10.98913440      10.88539369
Mn      10.50721543       8.16528679       8.37895362
Mn       8.93374551      12.30900768      12.17470255
Mn       7.81608234       8.32188784      12.20161959
Mn       9.13774155      12.51899017       7.44390244
Mn       8.67783139       9.70618119       6.82972973
Mn       7.82287507       8.51581433       9.35333374
Mn       8.13748961      10.48076955      10.95010691
Mn       8.85852375      12.44670678       9.97831045
Mn       7.05740160      11.23056582       8.88574811
37
Properties=species:S:1:pos:R:3 config_type=qcd gap_pre_relax_energy=-289.11376161905406 gap_pred_energy=-290.96570047630934 gap_fmax_final=0.0009589126943432597 gap_converged=1 pbc="F F F"
Mn      11.92841416       7.80475241      13.05692778
Mn      12.94683375       9.60991819      11.50621666
Mn      10.90958621      10.02378604      12.81769252
Mn      12.84078996       7.43524619      10.30611746
Mn       9.11196624       8.45167470      13.10520487
Mn      10.07718834       6.41461720      11.28716102
Mn      13.35424387      10.05336228      13.93155062
Mn      14.68695928      11.62947150      12.09492076
Mn      10.63011092       8.64596277      10.87822575
Mn      12.19829091       9.60331274       9.02825883
Mn      10.96748109      10.93976800      10.62951100
Mn       9.00627037      11.11367118      14.17291740
Mn      10.36868080       7.79899638       8.55156148
Mn       8.08095794       8.50015994      10.41744823
Mn      10.94769602       9.46746459      15.00525586
Mn      12.46542916      11.69533452      12.20873455
Mn      11.58291339      11.77057950      14.31584760
Mn      14.75835917       9.72753618       9.87394195
Mn       8.85698265      10.62017029      11.57323560
Mn       9.51922530      10.24446394       9.01393317
Mn       6.83977703      10.15942298      12.63451800
Mn      10.94849020      10.18360136       6.83006152
Mn      10.05794385      13.72092229      14.45024488
Mn      10.32069592      12.49979407      12.41838649
Mn      13.20360954      11.57030551      10.05495523
Mn      13.66135939      11.16261132       7.61136144
Mn      12.61469728      13.80419023      13.00297831
Mn      11.40746812      12.07508527       8.53369342
Mn       7.25771222      11.36534226       9.83435482
Mn       7.93843030      12.99251499      12.33506917
Mn       8.99900143      12.38121211       7.61050658
Mn      11.75746349      13.20676486      10.66002781
Mn       9.40655126      12.74058346      10.12697680
Mn      10.25402325      14.85739368      11.66462704
Mn      11.72045147      13.12378564       6.40415448
Mn      13.34157950      13.68638032       8.83993077
Mn      10.65335725      14.54083218       8.83448115
38
Properties=species:S:1:pos:R:3 config_type=qcd gap_pre_relax_energy=-296.85821600201706 gap_pred_energy=-299.35579213078057 gap_fmax_final=0.0009320736924309636 gap_converged=1 pbc="F F F"
Mn      10.87721243      13.59059169      14.92419434
Mn      13.72627588      12.68457113      14.68502909
Mn      10.27653781      15.08062895      12.37379602
Mn      11.85197609      11.14237510      16.49800415
Mn      12.24678744      13.43171839      12.74532810
Mn       8.16724638      13.48187885      10.85427537
Mn      10.09585089      15.23112061       9.29963853
Mn       9.62789824      12.55002612      12.89431996
Mn       9.18531759      11.06086442      14.97980319
Mn      14.91889490      13.27749784      12.08705932
Mn      13.53873427      11.30787817      12.58946622
Mn      12.82179880      15.00020144      10.64860150
Mn      13.72232513       9.84884405      14.55772672
Mn      11.25991422      11.43422475      11.78874598
Mn      11.63457287      11.23516428      14.12186440
Mn      11.10649067       8.76705597      14.77157670
Mn      10.70698543      13.42576812      10.62345350
Mn       9.41003968      12.59721177       8.40120556
Mn      13.10716587      12.58018932      10.56303594
Mn      14.82311763      13.28602875       9.04895068
Mn      12.26401919       9.40156780      12.63158084
Mn       7.25727080      10.98560072       9.39248392
Mn       9.81128300       9.78948593      12.82536746
Mn      15.08208840      10.75304160      10.53682071
Mn       7.52741537      10.96932329      12.46391437
Mn      12.10419138      13.49257254       8.33042247
Mn      11.45534875      11.20088858       7.07644185
Mn      13.40796161      11.26044830       8.62419974
Mn      10.88269870       9.25306362      10.63596877
Mn      12.90795383      10.30795478      10.68337231
Mn       9.18533529      11.14985945      10.67328013
Mn      10.96137991       7.35981649      12.21749352
Mn      11.17369514      11.44051603       9.44878674
Mn       8.53960101       8.59629997      10.78892252
Mn      13.32506836       8.12509510      10.59505093
Mn      12.17799226       9.42004572       8.66432450
Mn       9.61164057       9.76409513       8.41182760
Mn      10.85581560       7.35238663       9.17956772
39
Properties=species:S:1:pos:R:3 config_type=qcd gap_pre_relax_energy=-305.7516841188586 gap_pred_energy=-307.3099837944908 gap_fmax_final=0.0008864459621524889 gap_converged=1 pbc="F F F"
Mn       9.85536061      15.52774131      11.67973880
Mn      12.51622853      14.77129835      10.87929003
Mn      10.31744998      14.39911836       8.94769624
Mn      11.36589877      13.97833300      13.07436049
Mn      10.40798992      13.28655998      11.15755488
Mn      14.44568227      12.97813027      10.27787654
Mn       8.78901035      13.46901669      13.25081047
Mn      12.61109387      12.46240732      11.72477038
Mn      13.19502152      14.15820168       8.12826451
Mn       7.96411292      13.54153944      10.57114604
Mn      12.06696114      12.55571468       9.43665848
Mn      10.57006268      11.83100822      12.96429194
Mn      11.17007995      12.04684918       7.19577007
Mn       8.89476213      11.41000034      11.44936641
Mn      15.84080219      10.60583259      10.31747575
Mn      14.71469045      11.80106169      12.70515638
Mn       7.31900101      10.66814691       9.76514614
Mn      12.58424148      12.38440337      14.08384641
Mn      13.92540398      11.28211690       8.16959358
Mn      13.84695573      10.28699743      14.95668031
Mn       9.62324606      11.83379492       9.24794776
Mn      11.15944444      10.87724320      10.94352539
Mn       8.65468395      10.94016033      13.80930416
Mn      14.42697267       8.91346474      12.34958769
Mn       6.82322781      11.74200469      12.35560983
Mn      13.51060940      10.59718600      10.65555017
Mn      10.93333957      10.61642896      15.07922581
Mn      11.68901770      10.03799146       8.84082179
Mn       9.57813399       9.29980529      10.27032632
Mn      11.93995587       8.11897353      13.87464893
Mn       9.34528775       9.75947935       7.76420446
Mn      12.44618889      10.38696444      13.00574654
Mn      10.16336445       9.54465851      12.75181636
Mn       7.72217667       9.14652471      12.09143013
Mn      11.98391977       8.62635833      11.25007984
Mn      13.78717499       8.52110458       9.37948664
Mn      10.96690940       7.55271542       9.08368434
Mn       9.87717190       7.25575411      11.89982073
Mn       7.92645337       7.74299786       9.56977740
40
Properties=species:S:1:pos:R:3 config_type=qcd gap_pre_relax_energy=-314.6549316030916 gap_pred_energy=-315.9136926309423 gap_fmax_final=0.0008685245609809026 gap_converged=1 pbc="F F F"
Mn      12.59434717       8.81768704       7.92633994
Mn      13.03179217      11.62816609       7.83283392
Mn      10.94573498      10.62809079       6.37465477
Mn      15.04449882      10.05074569       8.99309893
Mn      10.43084477      12.92515764       7.78586115
Mn      12.54084805      14.17154965       8.89464830
Mn      14.31469380      12.48235860      10.23336911
Mn      13.58570686       7.80244108      10.55656080
Mn       9.71173030       8.34950877       7.95331380
Mn      10.78519945      10.47069231       8.65608169
Mn       8.50005988      10.95204598       7.79015617
Mn      10.09671362      14.48656802      10.12435616
Mn      12.99933445      10.14085039      10.05173339
Mn       7.94466023      13.37654575       8.85686745
Mn      11.90499437      12.30490504       9.84233539
Mn      14.44545385      12.94207897      12.94458343
Mn      12.49572092      14.25483124      11.57397423
Mn       9.58421655      12.14272956       9.95558819
Mn      11.09974198       8.38088236      10.10861527
Mn       8.94875201       9.72024009       9.98211713
Mn      11.22363325       6.84925282      12.15146450
Mn      14.76929739      10.19697623      11.92203480
Mn      12.32098791       9.15498690      12.36508975
Mn      10.75970306      12.68234032      11.83169274
Mn       8.74635880       7.30813688      10.49272840
Mn       9.65123516       8.96882712      12.28643465
Mn       7.39137207      11.36589893      10.15426694
Mn       7.97925320      13.47206290      11.58839225
Mn      10.07254821      14.71984020      12.78917308
Mn      13.15217671      10.60261560      14.36188671
Mn      11.87639149      13.13109152      14.07159304
Mn      12.75825026      11.61791705      12.14833372
Mn      10.91324188      10.48966887      11.03104070
Mn      10.98012217       8.67243689      14.53853806
Mn       8.49855505       7.25018073      13.51767456
Mn       9.31089765      12.60622196      13.66318171
Mn       8.87031130      11.22283271      11.93969110
Mn       7.17776294       9.37211125      11.84136187
Mn      10.81992394      10.86925633      13.41037729
Mn       8.49171488      10.18805121      14.22673643
41
Properties=species:S:1:pos:R:3 config_type=qcd gap_pre_relax_energy=-322.52566459030373 gap_pred_energy=-324.25688361970884 gap_fmax_final=0.000925327679966004 gap_converged=1 pbc="F F F"
Mn       9.18081699      12.36434787      14.70964291
Mn       7.61299264      12.43311041      12.42688107
Mn       8.88378869      14.38230833      10.94714026
Mn       7.46106053      10.07430972      14.04106128
Mn       7.24937709      12.55823866       9.59986313
Mn      11.68434540      12.11517051      16.14562868
Mn       9.71559893      13.31980137       8.43126065
Mn      11.35430110      13.74568654      14.14324921
Mn      10.00227044      12.79740185      12.44860847
Mn       9.40291632      10.53960125      12.79449534
Mn       7.58036112       9.95137842      11.03261761
Mn      11.15791938      13.31704232      10.42673386
Mn       9.20572905      11.81742319      10.49377412
Mn       9.30267621       8.05268022      12.64994478
Mn      10.28275979       9.65797693      15.06571801
Mn       8.93424658      10.47238731       8.39324558
Mn      11.16981679      14.80468519      12.11743558
Mn      11.50878726      11.49421583      13.87583141
Mn      11.18160019      11.25259044       9.10387103
Mn      11.25212723      11.12591470      11.47230010
Mn      10.08192300       9.37538372      10.53537253
Mn      11.61530943       9.17448670      12.82952989
Mn      11.07508884      15.46634399       9.64186014
Mn      13.41434830      14.60356555      10.81172739
Mn      13.27738426       9.94913618      14.82614648
Mn      13.06349451      11.95585887      10.25146057
Mn      12.48389262      12.91989669      12.27404149
Mn      12.67528121       9.55219509      10.45042967
Mn      11.28902715      11.52806541       6.91607552
Mn      13.40661693      10.79460512      12.48959402
Mn      12.56893388      13.48872347       8.39042593
Mn      13.79353446      12.74437742      14.30124969
Mn      11.44550946       8.88778654       8.31299680
Mn      11.66344937       7.36313443      10.93116779
Mn      14.12644094       8.45653761      12.32484341
Mn      14.99432797      12.87290429       9.43688661
Mn      13.63011504      10.76039137       8.25190711
Mn      15.60765005      10.86923359      13.26328188
Mn      14.64715806      12.66133143      11.84058353
Mn      15.13667498      10.43543387      10.57272475
Mn      14.16228403       8.14627386       9.31032793
42
Properties=species:S:1:pos:R:3 config_type=qcd gap_pre_relax_energy=-329.7955598550981 gap_pred_energy=-331.4102015298841 gap_fmax_final=0.0009195791965201724 gap_converged=1 pbc="F F F"
Mn       7.26939740      14.87013804      11.72250518
Mn      10.01494427      12.82860436      14.94388308
Mn       7.64829884      12.72070420      13.36141104
Mn      11.41900034      10.96601002      13.85028704
Mn      11.28980091      10.57365271      16.02556649
Mn       9.62622263      12.03765705      12.51402064
Mn       8.13699124      10.87935547       8.97415775
Mn       9.01758470      10.28349442      14.25719350
Mn       9.52646011      14.52467250      12.74861952
Mn       9.48148796      15.29724444      10.18771782
Mn      11.61377226      15.08724097      14.41081139
Mn      12.91242264      12.63336433      15.14686987
Mn       7.91574532      10.44623165      11.65042926
Mn      11.67515506      13.35148396      13.06556894
Mn       8.21674004      12.88204259      10.66920530
Mn       9.74153152      13.01529080       8.51874423
Mn      11.16775460       8.46315743      14.03633040
Mn      11.74574275      11.62678696      11.67985440
Mn       9.92888934      11.17146130      10.26979406
Mn      10.23996176       9.85122409      12.07074123
Mn      14.02853377      14.27337224      13.14909490
Mn      13.59031134      11.69830463      12.84556784
Mn      11.91401009      15.51835285      11.64246136
Mn      10.60812861      13.43858794      10.79166326
Mn      11.19805529       7.72240765      11.26098214
Mn      13.71430887       7.57725583      12.95509956
Mn      14.49352788      15.03853344      10.53276839
Mn      13.04976261      13.34965690      10.94098459
Mn      13.62135865       9.87553135      14.60272742
Mn      11.59793254       9.87120686      10.15133032
Mn      15.43002746      11.96062922      13.89747139
Mn      12.05599507      14.55568514       8.98130604
Mn      12.57648414       9.47359920      12.21541131
Mn      15.05913470       9.79864576      12.20453503
Mn      14.20876980      12.74493262       8.75002391
Mn      11.79889528      12.04996789       9.35760431
Mn      15.36125044      12.59307281      11.28438276
Mn      13.62001878      10.96505008      10.45387696
Mn      17.17333044      11.06894049      11.99880654
Mn      13.73609564       8.41940878      10.18948763
Mn      13.05657926      10.25795186       8.23246125
Mn      15.73494117      10.45444466       9.67359749
43
Properties=species:S:1:pos:R:3 config_type=qcd gap_pre_relax_energy=-340.285498574852 gap_pred_energy=-341.4828410241252 gap_fmax_final=0.0007707963101147001 gap_converged=1 pbc="F F F"
Mn      11.91565073      14.35597422      14.19740743
Mn      14.79622658      13.26273371      10.47017447
Mn      12.62104907      14.72196492      11.37304430
Mn       9.75946149      14.82045747      12.11256031
Mn       9.39818274      12.85215540      14.28955838
Mn      13.84723558      12.81205460      12.98189929
Mn      12.81460934      12.29502815      10.55109821
Mn      11.86608206      11.66216327      14.77487521
Mn      11.22854709      12.91553608      12.51357964
Mn      10.71712893      13.44528922      10.13588530
Mn       8.21850275      13.91838633       9.83079735
Mn      14.05691442      10.25414429      13.93207516
Mn       8.90956417      12.39657927      11.77075062
Mn      10.02775157      10.68155039      13.07224547
Mn      12.40738171      10.92802996      12.54252085
Mn      12.69959620      13.77021159       8.60987792
Mn       7.50049247      11.84995750       7.71066893
Mn      10.77524319      11.20673787      10.91659036
Mn      14.76324087      10.73108259      11.38853690
Mn      10.07047927      13.24599997       7.64403837
Mn      11.71550501       8.96235316      14.14713143
Mn      13.49462719       8.34747774      12.09050162
Mn       9.12485485      11.64944822       9.37457642
Mn       8.90174478       9.88209380      11.06553204
Mn      14.38744487       8.76206625       9.51326001
Mn       9.58364651      10.23626009      15.18794362
Mn       7.59549338      10.80902090      13.22704469
Mn       6.87838962      11.39415337      10.53193301
Mn      11.48170504      11.37549182       8.73476648
Mn       9.84138404      10.45081940       7.14726245
Mn      12.71855583       9.96492363      10.37134683
Mn      11.11999569       9.04176850      11.81613057
Mn       7.95004966       9.35367490       8.85801609
Mn      10.55401474       9.36996874       9.49444788
Mn       9.05806628       8.39413328      13.21604519
Mn      11.17211749       6.89766278      12.42163045
Mn       7.03187666       8.80759174      11.43764200
Mn      12.23463806      11.82668212       6.73029928
Mn      12.39269491       9.28531775       7.78665426
Mn      14.09668092      11.31597888       8.65828462
Mn       9.29742887       7.49090725      10.58657850
Mn      10.04587117       7.87323407       7.97303223
Mn      12.02306395       7.47612452       9.90494560
44
Properties=species:S:1:pos:R:3 config_type=qcd gap_pre_relax_energy=-346.9185359592347 gap_pred_energy=-348.717307335743 gap_fmax_final=0.000963862656539963 gap_converged=1 pbc="F F F"
Mn      10.24708738      11.51912070      12.60713612
Mn       7.74602600       8.37190976      11.80474740
Mn       8.00541410      10.59335843      13.48257900
Mn       6.41833684      11.06658716      11.17820730
Mn       7.76032576       9.42889678       8.98101712
Mn       9.30259768      12.85700368      14.37310825
Mn       9.93404203       9.18480980      12.55803447
Mn       9.78115643       8.45724312      10.25894882
Mn      10.24536533      10.42030773      14.53098601
Mn       8.32864750      12.87883752      11.90589439
Mn       8.73975603      10.49462444      11.01937746
Mn      11.65595280       8.15993969      11.52307130
Mn      10.91410577      13.70408842      12.47795684
Mn       8.25138114      12.39368042       9.22909295
Mn      10.07209953      10.58146962       8.81871338
Mn      11.94630909       9.84940176      13.04313568
Mn      10.15109600       8.36525848       7.65298861
Mn       9.18873555      15.23198218      12.90410722
Mn      10.98313560      12.11013089      16.27556823
Mn      13.54677725       8.08497892      13.21699702
Mn      11.08848610      10.29239090      10.85997898
Mn       9.79875709      14.58953576      10.22600154
Mn      12.46937815       9.81209353      15.44556827
Mn      11.56544724      14.50699231      14.64741200
Mn      12.05201911       8.89573176       9.26548912
Mn      11.97997747      15.77258667      11.83238923
Mn      14.25172775      10.92669802      13.42587425
Mn      10.87017317      12.97080140       8.18259675
Mn      12.48552367      11.35787833       9.48071609
Mn      13.11975563       7.75127679       7.46967196
Mn      10.45329424      12.39196444      10.49471413
Mn      11.32851104       6.54396169       9.63625533
Mn      13.60813512      13.65369487      12.84735428
Mn      12.02607156      12.04715327      14.15369635
Mn      13.43687802       9.79697548      11.22292283
Mn      12.42431504      11.87490584      11.82485837
Mn      14.52408527      14.81721541      10.47571866
Mn      14.61005780      12.05886722      10.85764196
Mn      12.07505003      15.42222708       8.79318054
Mn      12.10745791      10.58146179       7.17947424
Mn      13.72791739      12.91542572       8.24819999
Mn      14.46332998      10.03264108       8.88097782
Mn      13.91371808       7.53838456      10.38802997
Mn      12.44161622      13.73553750      10.35964071
45
Properties=species:S:1:pos:R:3 config_type=qcd gap_pre_relax_energy=-355.82941187299724 gap_pred_energy=-357.8767884529919 gap_fmax_final=0.0009547925436799625 gap_converged=1 pbc="F F F"
Mn      11.05509328      14.26728941      10.12928836
Mn      13.49449248      15.04434970       9.85311986
Mn      13.10743805      12.57715605       9.53516783
Mn       8.78974594      15.13180751      11.29658047
Mn      11.61412831      15.94384695      12.04601816
Mn       8.91450170      13.82788929       8.56769481
Mn      11.82933221      13.78515731       7.66306064
Mn       9.83423967      11.61738186       6.72152508
Mn      15.27698854      12.85303852      10.96585538
Mn      14.69075671      10.34073050       9.58403949
Mn       9.48726889      15.26204961      14.20868837
Mn      11.29573560      12.25439978      11.12244306
Mn      12.64044741      10.84481612       7.55228126
Mn      12.97807381      13.73925316      11.96310058
Mn      10.49555831      13.78860767      12.69741126
Mn       6.80047332      13.00147171      10.56946573
Mn      10.62789994      11.99179642       8.86081356
Mn       9.03573323      12.72565202      10.81284573
Mn       8.13519727      11.02354297       8.97172279
Mn      12.32943092      14.24057675      14.42068495
Mn      10.31112423       9.33783256       8.36614551
Mn      15.50130765      10.13579057      12.31157075
Mn      10.98706894       8.32831201      10.70267162
Mn      15.30561199       7.71712872      10.64883749
Mn      13.51365087      11.41044788      11.63662778
Mn      14.37575064      12.34724479      13.78946894
Mn       8.46901235       8.44920087      10.33941724
Mn      12.88369599       8.17334572       8.92497308
Mn       7.63353364      10.65869597      11.77143371
Mn       9.79052691      10.47918866      10.56654041
Mn       9.79936784      11.47770582      12.75251087
Mn      11.98756684      11.98829693      13.43045356
Mn      12.15254053      10.35723329       9.78732374
Mn       7.97829795      13.03280212      13.20690586
Mn       9.86305667       6.79915391      12.25960095
Mn      10.13953682      12.50801384      14.99662556
Mn      13.40428204       8.87894038      11.42906286
Mn      13.18501956      10.05570733      13.55676403
Mn      12.59421289       6.49955967      11.42128904
Mn      11.70767109       8.28590498      13.07885002
Mn       8.50614358      10.43607238      14.34065455
Mn       9.61253914       9.15739880      12.52877822
Mn      10.98957663      10.09618505      14.13605227
Mn      11.59720989      10.22171299      11.88410828
Mn      14.20297077       7.83112248      13.51533729
46
Properties=species:S:1:pos:R:3 config_type=qcd gap_pre_relax_energy=-363.7978429223147 gap_pred_energy=-365.7556403297214 gap_fmax_final=0.0008409909529644347 gap_converged=1 pbc="F F F"
Mn      15.25074160      13.35550998       9.72884707
Mn      14.64439051      11.10923853      10.88855515
Mn      15.59420663      12.84801090      12.59642054
Mn      15.01173487      10.68711117       8.33148749
Mn      15.36894669       9.91209636      13.17773524
Mn      15.15221537       8.65343550      10.51630392
Mn      13.77351743      13.14139670       7.05966504
Mn      13.35708354      13.36100542      11.34755519
Mn      13.65753145       8.05249346       7.90458106
Mn      14.40427098      11.87705512      15.24361546
Mn      12.70134805      14.74865190       9.27773990
Mn      13.29597058      14.07242393      13.79089072
Mn      13.10564601      12.17503584       9.10042344
Mn      13.00079151       9.62115325      14.71711009
Mn      13.53743427      11.60550764      13.00973447
Mn      12.48802505       7.29124066      10.65139250
Mn      12.30643903      10.59765498       7.21590279
Mn      13.21878095       9.29115022      12.08998131
Mn      11.69083363      15.06665272      11.82521893
Mn      12.93837811       9.59093847       9.56255645
Mn      12.10539982      11.11522312      16.77334564
Mn      10.89653090      13.06865678       7.80581907
Mn      11.88380176      12.23870856      14.78091242
Mn      11.29768235       8.04604541      13.22554700
Mn      11.33113404      12.75391154      12.47888346
Mn      12.31458753      11.24699552      11.04172968
Mn      10.81603834      10.95976535       9.22490010
Mn      11.13714205      13.05519002      10.20666595
Mn      10.99221165       9.24847902      11.06420964
Mn       9.87370844      15.08006845       9.73828226
Mn      11.51018282      10.54262401      13.10296315
Mn      10.74533857       8.58305482       8.61875581
Mn      10.30862434       9.87073534      15.16356810
Mn      10.60904722      14.34314742      14.17038428
Mn       9.69225935      12.50738198      16.06000461
Mn       9.33393203      13.71624903      11.87722329
Mn       9.07097534       9.46577503      12.77525993
Mn       8.75475268      12.52317265       9.55561816
Mn       9.52722325      11.88362503      13.75201960
Mn       8.66781638       9.87998278      10.10824518
Mn       9.25280356      16.01328353      12.49546472
Mn       7.64526113      10.82471036      14.62794580
Mn       7.23501608      14.31475043      11.01117782
Mn      10.03291292      11.22950785      11.43452517
Mn       7.59585921      11.68536711      11.93594388
Mn       7.88308432      13.75743838      13.94650088
47
Properties=species:S:1:pos:R:3 config_type=qcd gap_pre_relax_energy=-371.85730614939064 gap_pred_energy=-373.4221677243928 gap_fmax_final=0.000808316916898705 gap_converged=1 pbc="F F F"
Mn      13.41947353      11.72268396       7.74447811
Mn      10.80352731      11.03543339       8.09719450
Mn      12.84051162       9.30443663       9.04871174
Mn      11.20312882      12.94103311       6.39048178
Mn       9.17131129      13.21149561       8.18767338
Mn      11.70688784       7.87455080      11.16425966
Mn      14.50657818       8.33527179      11.23674683
Mn      11.88818994      13.69048173       8.55323940
Mn      12.38948147      11.77314369       9.73535700
Mn      10.13451625       8.57537729       8.96154445
Mn       8.41844105      10.78962320       9.52669887
Mn       8.96315807       8.73661912      11.50370587
Mn       9.92919116      15.10073364      10.15641648
Mn      12.84928364      10.08761606      11.34204862
Mn      10.68806900      15.46279161       7.59041564
Mn      14.38657418      13.55524591       9.69557924
Mn      14.91692474      10.87399445       9.98855145
Mn       8.77345562       9.90805736      14.09593510
Mn      10.69598303      10.15728944      10.36249108
Mn       6.94895833      10.63965639      12.00839775
Mn      10.85315170       9.78140550      12.68629262
Mn      10.19399422      12.62689085      10.06789620
Mn       7.89388146      13.26703808      10.89117692
Mn      12.70837284      11.08811866      13.50465445
Mn      10.57766348       7.80327550      13.63854798
Mn      12.63995858      15.83704293       9.75327538
Mn       8.14176451      12.72007299      13.87021975
Mn      12.99548949       8.77766570      13.39438314
Mn      13.57232867      12.34562325      11.56995947
Mn       9.99358868      13.69019284      12.34931431
Mn       9.11910496      11.34862233      11.95487141
Mn      15.39347350       8.61714958      13.98238334
Mn      11.40606888      15.75078129      12.52642360
Mn      14.77845136      10.49474657      12.52132886
Mn      11.26223668       9.90211732      14.97814819
Mn      11.31410334      11.83991813      11.81801818
Mn      12.01863782      13.92913439      10.98029755
Mn      15.90483472      12.62849059      12.01256301
Mn      13.47610113       9.62093299      15.65668323
Mn      14.98356449      11.08724129      14.63474504
Mn       9.78889864      11.58928612      16.16352621
Mn      10.51205545      11.92285617      13.97546926
Mn      14.09190822      14.84703398      12.09428711
Mn      14.28687261      12.82915927      13.73207535
Mn      10.59960925      14.21642322      14.88605600
Mn      12.26907250      13.46327961      13.30184779
Mn      12.57998945      12.18878736      15.65445044
48
Properties=species:S:1:pos:R:3 config_type=qcd gap_pre_relax_energy=-378.1206879155399 gap_pred_energy=-382.15712883921407 gap_fmax_final=0.0009405228577296973 gap_converged=1 pbc="F F F"
Mn      13.10556536      11.43456205      15.79791198
Mn      14.27953373       9.02460643      14.56105093
Mn      10.19738677      11.37635842      15.72469675
Mn       7.62782905      11.23282725      14.40851320
Mn       9.44229405       8.73079956      14.51384879
Mn      11.77432912       9.72633202      14.21746320
Mn      11.96769694       7.28484423      13.70575672
Mn      10.52150612       8.68699836      12.08256641
Mn      13.67979248      11.00167966      13.28470709
Mn      11.51593294      12.00002264      13.91095118
Mn       9.33897428      13.35335675      13.98182417
Mn      15.66366693      10.02112794      12.08466399
Mn       8.01061481      12.45505036      11.78517312
Mn       7.96887477       9.46422475      11.92967965
Mn      13.68204035      13.40562173      14.13504180
Mn      11.58435235      13.86664491      15.66643621
Mn       9.57438386       8.47382470       9.64132978
Mn       9.60894295      10.81857569      13.17632426
Mn      14.37252202       8.83171057       9.81792887
Mn      12.07020048       7.08695982      10.69422690
Mn      11.90011334       9.52144051       9.98745553
Mn      15.70002500      11.79969965      14.48719582
Mn      10.08928868      15.93179332      14.22794802
Mn      13.21750553       8.88490240      12.15420534
Mn      12.07887388       8.41676808       7.89203398
Mn       9.69568184      10.80865722      10.59486918
Mn      10.40100005      12.66886725      11.84164341
Mn      15.80529121      14.61645898      13.46947675
Mn      15.03306192      12.57186330      12.12002252
Mn       9.41270826      14.91666427      11.61702711
Mn      10.49113007      10.87960508       8.16866491
Mn      12.66597007      12.69962699      12.12068938
Mn      13.75111263      10.95513623      10.89681353
Mn      11.66361889      10.70175571      11.95029683
Mn       9.58459284      13.23406552       9.51854748
Mn      13.28839429      11.02924733       8.37225620
Mn      11.54634090      14.39055230      13.18312550
Mn      13.18273675      15.93046635      14.18234297
Mn      15.95799843      14.24425776      10.57107681
Mn      11.88036869      14.31206605      10.57881200
Mn      13.90083371      12.92927838      10.06814685
Mn      10.79106533      15.79413996       9.29009096
Mn      11.79503889      11.98269608      10.04614179
Mn      11.85410100      13.37259636       8.12420834
Mn      11.54109310      16.28970999      12.03267090
Mn      13.78748469      14.97631057       8.98232136
Mn      12.95549515      16.80965463      10.38870032
Mn      13.84356316      14.85651950      11.81404889
49
Properties=species:S:1:pos:R:3 config_type=qcd gap_pre_relax_energy=-389.1424943245816 gap_pred_energy=-390.59587472020286 gap_fmax_final=0.0008301699813607357 gap_converged=1 pbc="F F F"
Mn      16.64503225      13.64078247      11.34477470
Mn      15.62622337      12.31467725      13.50086727
Mn      14.70130018      12.53251498      11.06070298
Mn      14.69073513      14.60948245       9.69568447
Mn      14.58764813      14.77588926      12.62945373
Mn      14.26275013      10.57395615      12.25420348
Mn      14.10911592      10.60527845       9.88891956
Mn      13.62795423      10.77418382      14.85706827
Mn      13.54493893      13.70442932      15.22815376
Mn      14.48630277       8.33944734      10.95938871
Mn      12.59611694      11.83325348      11.15846007
Mn      13.32825602      12.69762774      13.12181611
Mn      13.07985726       8.47820141      13.37610307
Mn      12.70889815      14.12296161      11.06405869
Mn      13.28383494      12.58436964       9.07037814
Mn      11.41519952      12.26980585      14.67921592
Mn      11.81529136      14.82110468      13.42839230
Mn      12.70794670       8.33826640       8.85502678
Mn      12.50492265       9.44978039      11.08631204
Mn      10.93311328       9.67882218      14.99240247
Mn      10.67359075      14.12998703      15.82556795
Mn      11.79133558       7.06237908      11.20873646
Mn      11.98947215      10.66798458      13.03165881
Mn      11.86579884      10.68809801       9.20114902
Mn      11.01427943      12.79940352      12.34804520
Mn      11.87641415      14.70811071       8.64039620
Mn      10.56616316       8.89834844      12.53063566
Mn      10.18881401       7.01907749       8.71051653
Mn      13.25584930      10.58112402       7.45993255
Mn      10.39918176       8.87027792       9.99263196
Mn       9.26156044      13.79231507      13.50691309
Mn       8.52503720      10.05691828      11.31173335
Mn      11.00951153      12.83297012       9.85966457
Mn       8.92665724      11.79303556      15.35181307
Mn      10.24685473      14.94678373      11.09375332
Mn      10.56604890       9.50678231       7.45883328
Mn       9.62483011      11.16872296      13.22733138
Mn      10.58068652      10.84134079      11.12412771
Mn       8.82036523       7.48129058      11.36253784
Mn      11.09695769      12.26658006       7.39965094
Mn       8.99431239      12.63578793      11.17451336
Mn       8.07138830       9.01857339       8.95627812
Mn       8.29849504       9.19396326      13.77724616
Mn       6.37455772       9.23759557      11.40028973
Mn       9.02587954      13.68709472       8.77549734
Mn       7.25696284      11.81545123      12.81129291
Mn       9.44902581      11.13933150       9.15359211
Mn       7.09881825      11.65844149       9.82810235
Mn       8.42294311      11.28462538       7.15340610
50
Properties=species:S:1:pos:R:3 config_type=qcd gap_pre_relax_energy=-393.7858583282242 gap_pred_energy=-396.8419329573688 gap_fmax_final=0.0008552984448351847 gap_converged=1 pbc="F F F"
Mn      15.03586790       9.69986844      13.46411536
Mn      16.43947049      11.78868604      11.91764551
Mn      14.64840956      12.37146151      14.08084979
Mn      15.76870610       9.15191652      10.80775589
Mn      13.45652864       8.93480017      11.44139671
Mn      13.00714674      10.82432700      13.03898837
Mn      13.09875812      10.54248121      15.46150145
Mn      14.45011545      11.13578313      11.37076827
Mn      12.49037320       8.69338027      13.58553201
Mn      13.02709217      13.35057462      16.05245706
Mn      11.39737109       9.47505670      11.75985541
Mn      15.31949290      14.38026582      12.62292682
Mn      15.34091876      11.17446335       9.16104543
Mn      15.25636513      13.55670083      10.23343313
Mn      12.63555694      10.35450807       9.78433741
Mn      12.02609533      12.67488051      14.17408909
Mn      10.88962233      10.48357975      13.98696504
Mn      10.88986134       8.85788797      15.65757789
Mn      10.54942155      11.80218919      16.01942743
Mn      11.35705666      11.84224989      11.68415856
Mn      13.34320055      13.07125070      12.05328192
Mn      10.04787549       8.52850022      13.26826782
Mn      13.25160941      11.53268441       7.65018082
Mn      13.07154559      14.91146730      13.78068062
Mn      10.45528846      14.53597283      14.77571491
Mn       9.50365717      12.51132434      13.58359515
Mn       9.25021528      10.57453038      12.21960122
Mn       8.52494059      10.20667025      14.68127705
Mn      13.28642492      12.57077256       9.92497533
Mn       9.49143895       8.56017127      11.11470913
Mn      11.02390579      16.34898864      12.43873736
Mn      11.53798753       7.98503179       9.79328515
Mn      13.90042060       8.89638260       8.58628422
Mn      11.10111177      14.09014711      12.26415251
Mn      13.19062869      15.19061346      11.03423201
Mn       9.28298991      12.61930034      10.77450065
Mn      11.13361955      12.44000851       9.05695821
Mn       7.61482397       8.88414572      12.56425063
Mn       8.59004852      14.48482390      12.30005347
Mn      10.23666011      10.32547381       9.84590339
Mn       7.25810330      11.82846965      12.57568881
Mn       9.01306400       8.59934476       8.76384933
Mn      12.84977069      14.20368729       8.53461758
Mn      10.70445921      14.71369322      10.09877636
Mn      11.22481127       9.84649116       7.66551682
Mn      10.90701851      12.52157046       6.81441454
Mn       7.68269333      10.33388816      10.35526461
Mn       9.08296678      13.82189499       8.46261107
Mn       7.10936874      12.94825705      10.02799908
Mn       8.79467317      11.36893438       8.23534583
51
Properties=species:S:1:pos:R:3 config_type=qcd gap_pre_relax_energy=-402.9468373471628 gap_pred_energy=-405.79729355078433 gap_fmax_final=0.0009915882486951477 gap_converged=1 pbc="F F F"
Mn       9.24850801      10.48131101      15.51690474
Mn       8.24752913      12.67658158      14.29535821
Mn      11.80990071      10.07813399      15.12239794
Mn       7.31804782      13.83632575      11.76709584
Mn       7.82557801      10.14633214      13.30445668
Mn      10.77028277      12.86253044      15.19600989
Mn       7.99208013      14.26490633       9.16844330
Mn      14.08843682      10.08170980      13.77084613
Mn       8.82486097      12.14590523      12.22453115
Mn      10.82440117      13.30265753      12.72799935
Mn       9.70556115      13.88953428      10.94577104
Mn       9.75786129       8.51108651      13.53595524
Mn      12.44870526       7.79837144      13.75558982
Mn      10.22849584      11.04232721      13.56202284
Mn      13.41274082      12.22290590      15.50571752
Mn       9.55832734      14.90659234      13.38293141
Mn       8.57440537      12.09916396       9.99873396
Mn      15.28109455       7.77884258      13.15709701
Mn       6.89883602      10.98251404      11.09105712
Mn      11.73448842       9.64233628      12.61669762
Mn       8.92003255      15.97278553      10.91585744
Mn      11.54352018      15.40205009      11.27111764
Mn      12.54143875      11.90445141      13.42775725
Mn      10.42546882      15.10049810       8.66545781
Mn       8.14220229       8.21698717      11.14820338
Mn      12.55509747      14.49987305      13.77039908
Mn       9.48702104      10.00282127      11.21444599
Mn      11.10892483      11.68955845      11.25849248
Mn      10.51224391      13.07914340       9.14500749
Mn      15.76575746      10.29198725      11.71213372
Mn      14.81687848      12.68142027      13.02340056
Mn       8.93570549      12.40148163       7.60222439
Mn      11.91343637       9.63343436      10.37372537
Mn      12.46934871      11.97759177       9.46913912
Mn      13.67460256       8.54968256      11.56186727
Mn       8.02176379      10.02005730       8.80455905
Mn      10.91616731       7.60178411      11.35380483
Mn      12.92691322      13.34105730      11.45197616
Mn      10.45148075      10.76105646       8.92715741
Mn      11.54877649      12.64032298       7.09256261
Mn      14.31823446      10.07348877       9.39878925
Mn      13.52450029      10.98262221      11.34119505
Mn      10.10330300       8.40259487       8.98584798
Mn      15.01108867      12.59227670      10.22775778
Mn      15.44683307       7.84088238      10.11084572
Mn      10.04651815      10.19370543       6.79664328
Mn      12.91224745      14.23325000       9.10824244
Mn      12.43937781      10.05093078       7.83047253
Mn      13.25838293       6.23399980      11.46628973
Mn      14.08355617      12.14679753       7.78524947
Mn      12.73457505       7.83687786       9.21930004
52
Properties=species:S:1:pos:R:3 config_type=qcd gap_pre_relax_energy=-412.203880725464 gap_pred_energy=-415.0944054756407 gap_fmax_final=0.000894477741076449 gap_converged=1 pbc="F F F"
Mn      15.08504144       9.12888677      12.71192726
Mn      14.12452800      13.45128853      12.53355634
Mn      15.65893031      12.76528635      14.48002662
Mn      15.61270426      11.57574548      11.64800149
Mn      14.57659710      13.71938007      10.03121831
Mn      14.07983871      15.32294884      14.34518640
Mn      13.43759047      15.81212722      11.55286115
Mn      14.11989877      11.12492553      13.83225872
Mn      13.75298245       9.48729355      10.78338692
Mn      14.63573738      11.23043673       8.97716409
Mn      13.44833455       8.66591728      14.80091202
Mn      14.02423401      10.96619159      16.27391665
Mn      12.91459924       7.51218747      12.31059966
Mn      11.82107015      14.69317408      13.31031135
Mn      13.24068942      11.64051036      11.06140604
Mn      13.86333400      13.34629135       7.29862583
Mn      14.03420709      13.79126978      16.96312094
Mn      12.67167900       9.84740723      12.85001007
Mn      12.32122067      15.25938690       8.99033181
Mn      13.05867193      13.09262040      14.94410968
Mn      12.40908354      12.79920971       8.93035138
Mn      11.94323025       8.39013944      10.09928022
Mn      11.43559561      14.90897209      15.75819566
Mn      13.56978572       8.86327155       8.24457089
Mn      11.59801764       9.26227685      16.72067730
Mn      11.86234932      10.80336755      14.95387814
Mn      12.12623515      12.14553541      12.81184663
Mn      12.12121991      13.92320375      11.15118322
Mn      10.82394687       8.45815876      14.18899683
Mn      12.17526364      10.51341172       9.36151607
Mn      12.35016010      11.00397623       7.00888145
Mn       9.37433544      10.51188341      15.21969705
Mn      10.86476013       8.60905659      11.90024374
Mn      11.43169534      12.20172494      16.87633188
Mn      11.04464195      11.95415842      10.70258925
Mn      10.82863500      13.51457473       7.11247825
Mn      10.09056582      13.81639706       9.64538867
Mn      10.13364366      11.46865342       8.52632461
Mn      10.48323130      15.78688672      11.24310347
Mn       9.20377548      14.97865356      13.77779041
Mn      10.37307161      10.80228707      12.73383993
Mn      10.37167424      12.77729142      14.57618438
Mn      10.74205172       8.91424568       7.99127180
Mn       9.99762763      13.34556196      12.23778464
Mn      10.12080840       9.84168091      10.37183375
Mn       9.55361818      10.95440824       6.31353701
Mn       8.10690962      12.83197110       8.36014227
Mn       7.95828496      14.17836672      11.06942650
Mn       8.56027579       9.41600841      12.60359598
Mn       8.07546356      12.18647335      13.34083873
Mn       8.26330684       9.88476864       8.79209351
Mn       8.64890833      11.64421080      10.80125680
53
Properties=species:S:1:pos:R:3 config_type=qcd gap_pre_relax_energy=-421.0354110472489 gap_pred_energy=-423.57662577640923 gap_fmax_final=0.0008309873529609176 gap_converged=1 pbc="F F F"
Mn      15.48609528       8.46866366      12.51253902
Mn      13.50425851       8.78034978      14.66715021
Mn      13.01923251       6.72716520      12.66959775
Mn      14.48632319      10.53256517      13.16982635
Mn      13.72416023      11.28187514      15.66998034
Mn      16.05676824      12.20592362      14.18072347
Mn      13.99831696       7.87577801       9.99365984
Mn      14.75251098      10.31138839      10.74352013
Mn      15.20955132      12.32036492      11.69749580
Mn      13.14392853       8.99369900      12.11357157
Mn      15.22099684      14.70678569      12.93893480
Mn      11.04461200       8.41167374      13.69394500
Mn      11.19780204      10.29176604      15.83102035
Mn      12.89736483      11.38428108      11.72052418
Mn      11.49513554      12.88903857      14.80805190
Mn      13.37004728      16.26346021      11.42582947
Mn      13.97010093      13.95225692      15.50055962
Mn      11.15201539       7.74758942      10.86310396
Mn      12.19409621      10.73438522      13.74251776
Mn      12.50719349       9.82535419       9.85922922
Mn      13.39225195      12.31479266       9.77800366
Mn      13.83258805      12.62811858      13.63631344
Mn      15.11253935      14.40501456      10.10702235
Mn       8.65751609       9.19457921      14.92056927
Mn       8.95922709      12.26027513      15.51118825
Mn      15.81985424      12.00525398       9.19449818
Mn       9.79867854      10.83881650      13.77522778
Mn      11.71852788       8.45425241       8.14457058
Mn      12.67635124      15.19716744      13.78015683
Mn      11.04245425       9.92347716      11.80675568
Mn      10.98076614      14.39185671      12.50918995
Mn       7.31687406      11.14896121      13.14058334
Mn      13.14243050      13.76782596      11.85122635
Mn      13.68421277      13.22003382       7.70952550
Mn       9.91937093      15.02006116      14.55214778
Mn      11.09437159      11.62619689      10.18412775
Mn      11.06463315      12.24386601      12.33825603
Mn       9.03128357      11.22996397      11.39191566
Mn       8.99952419      13.15147045      13.13558101
Mn      14.10611192      10.26551843       8.11041410
Mn       7.33768852      10.24562886      10.20311823
Mn      10.95342205      16.77759915      12.53724388
Mn      11.56626232      11.27376026       7.85888788
Mn       8.88673070       8.83128452      12.12047438
Mn      10.97753938      15.38527352      10.55310948
Mn      12.77709964      14.71945710       9.64741765
Mn      11.25050619      13.50096578       8.96333201
Mn       8.65901114      15.43172867      11.93306217
Mn       7.37632792      13.11708807      10.88787828
Mn       8.99823616      12.03880007       8.75252158
Mn       9.88866327       9.68237160       9.56237004
Mn       9.80415357      13.39983628      10.76206543
Mn       9.01767678      14.87773536       9.11286022
54
Properties=species:S:1:pos:R:3 config_type=qcd gap_pre_relax_energy=-427.9076637689521 gap_pred_energy=-430.6925031355189 gap_fmax_final=0.000867785683431721 gap_converged=1 pbc="F F F"
Mn      15.42568778      11.02961134      14.32989292
Mn      16.12900886       9.11974603      12.22190523
Mn      15.10877867       9.76465203       9.75348231
Mn      16.34403059      11.76356221      11.71226886
Mn      15.92997224      13.62692813      13.58222681
Mn      13.70377540      13.30738666      15.18346810
Mn      14.12589017       8.50278862      13.98447273
Mn      11.40887575      14.93311557      14.99262578
Mn      13.63544747      15.19140542      13.25795027
Mn      15.28796746      14.24660519      11.03249658
Mn      14.23108486      12.00225859      10.49271204
Mn      12.97466475      11.02069182      14.29485352
Mn      15.89665255      12.32508591       9.09314955
Mn      14.34249180      10.46604514      12.17764777
Mn      13.87878734       7.93770903      11.27745865
Mn      12.91562490      13.92030787      11.29017040
Mn      12.84156824       8.57246147       8.50837895
Mn      13.75287867      13.95233863       8.66108339
Mn      12.53312943      10.01168661      10.30346338
Mn      13.96888903      12.72992066      12.97080618
Mn      11.43305123      13.20229411      13.48983423
Mn       9.24950861      13.05016552      15.02416124
Mn      11.48782683      11.99631290      15.91994397
Mn      11.55050994       7.31739604      13.13455998
Mn      11.33731801      15.57168551      12.22513746
Mn      13.29292722      16.01139595      10.50129225
Mn      11.94843522      11.59759269      11.96628714
Mn      12.41021390       9.34126899      12.80026299
Mn      12.10028893      12.54558567       9.65487304
Mn      11.73934112       9.08793759      15.33015715
Mn      11.60045985       7.62638660      10.70373124
Mn      11.26959771      10.89290380       8.24564621
Mn      10.39316297      10.72859512      14.09307004
Mn      11.35376873      14.82349439       9.34763088
Mn       9.32179167      15.69590096      10.64349044
Mn       9.28093605      14.76210728      13.16561149
Mn      10.38609829      11.21997726      10.22751117
Mn      13.61008236      11.25622579       8.02832091
Mn       9.08946286       7.54524347      11.37702179
Mn       7.74963448      10.93285046      14.35109380
Mn       9.27651722       8.43235139      14.10736520
Mn      10.40953513      13.48858026      10.92759133
Mn       8.94558599      14.03681790       8.58300443
Mn      10.17060424       8.93412304       9.18080655
Mn      10.38881598       9.47375982      11.90199276
Mn      11.37610525      13.05347467       7.33741128
Mn       8.11774076       9.67149408      12.56487013
Mn       7.97940147      13.85651662      11.19079960
Mn       7.16798169      13.29250453      13.34026508
Mn       8.42970368      10.00721068      10.43321041
Mn       9.06703711      11.18257011       7.90547566
Mn       9.17283225      12.01325378      12.45282588
Mn       8.49131270      12.17981893       9.90539157
Mn       6.71986610      11.50055864      11.57150077
55
Properties=species:S:1:pos:R:3 config_type=qcd gap_pre_relax_energy=-436.3661391902317 gap_pred_energy=-438.7688064495151 gap_fmax_final=0.0008206711357817649 gap_converged=1 pbc="F F F"
Mn       7.36976475       9.66297097      13.61350624
Mn       9.38431118       6.92442352      10.03053596
Mn       7.77540249       9.18292686      10.74459291
Mn       9.17948161       7.69623976      12.59930058
Mn       7.63365433      11.35194242      11.98508688
Mn      11.54423874       6.95300282      13.60829771
Mn       9.10474719       8.98387206       8.33698086
Mn      11.43882455       7.41653964      11.22483650
Mn      10.03311947       9.10668301      14.77396341
Mn       9.45446722      10.24980303      12.57269234
Mn       8.94844813      11.37038975      14.64625959
Mn      10.07575169       9.17657101      10.75402065
Mn      11.30848696       8.09641132       9.06728084
Mn       7.29298777      12.94652653      13.62877095
Mn       9.06774038      11.37357389       9.78680230
Mn      11.46949306       9.17980354      12.71429018
Mn       7.64634072      13.46139417      10.72777547
Mn       9.47427595      12.62083452      12.45879791
Mn      11.56327122       9.14232842       6.89652646
Mn      13.29524506       7.13627134       9.86105579
Mn       9.87446622      11.27948159       7.07247138
Mn      13.38266290       7.95783347      12.20540354
Mn      12.66016215       9.10378524      14.70510165
Mn      11.40043684      11.31793669      15.97642033
Mn      11.18380670      10.39750274       8.93137792
Mn      12.49876003       9.40907522      10.62505137
Mn      11.46477909      11.41677137      13.68850022
Mn       9.01934524      13.67828749       8.24308614
Mn      10.01685701      13.52644240      14.75266401
Mn      11.38193052      11.43972697      11.20336910
Mn       8.99303220      14.92572617      12.66956117
Mn      10.02665482      13.76072362      10.59269592
Mn      13.36029183       9.33101412       8.65423438
Mn      13.55466090      10.34232879      12.56859774
Mn      11.21205102      12.61507446       8.80638162
Mn       9.20334734      15.85438380      10.19123142
Mn      11.59236750      13.63362629      12.59744794
Mn      12.80639883      11.28266818       7.67079312
Mn      15.02480873       8.96432781      10.73536406
Mn      14.00294175      11.32089101      14.73214147
Mn      15.11409104       9.02915664      13.57333676
Mn      13.89335320      11.35940162      10.14535392
Mn      11.59189158      13.35871213       6.69015054
Mn      12.66583785      13.61437152      14.81167564
Mn      13.61668294      12.72059239      12.48402378
Mn      11.24394778      15.68982717      13.67828102
Mn      12.47408219      13.50379101      10.41563573
Mn      13.58577151      13.33995971       8.49844835
Mn      11.31030607      15.15162127       8.66902358
Mn      13.59889897      15.23683859      12.57109042
Mn      15.74269881      11.26290157      12.16732209
Mn      15.27706501      13.44333720      13.75669755
Mn      11.50426496      15.47363705      11.19750170
Mn      13.55141833      15.57358973       9.90059770
Mn      15.12541068      13.66768140      10.80312819
