3
Properties=species:S:1:pos:R:3 config_type=qcd gap_pre_relax_energy=-20.86116655264243 gap_pred_energy=-21.061867392405635 gap_fmax_final=5.366876432253537e-05 gap_converged=1 pbc="F F F"
Mo       8.97511822       9.87617702       9.49541718
Mo       9.81217947       8.26576515       8.25067345
Mo       7.65787150       8.30322702       8.69907855
4
Properties=species:S:1:pos:R:3 config_type=qcd gap_pre_relax_energy=-31.425174517628076 gap_pred_energy=-32.192366146159884 gap_fmax_final=0.00010455754679992501 gap_converged=1 pbc="F F F"
Mo      15.65354939      15.46788299      13.64514989
Mo      13.56487669      15.95470212      15.98995456
Mo      16.43520592      14.04536262      14.01011841
Mo      14.34636799      14.53205225      16.35477714
5
Properties=species:S:1:pos:R:3 config_type=qcd gap_pre_relax_energy=-38.79110984743211 gap_pred_energy=-39.966949398730804 gap_fmax_final=0.0009144579185719583 gap_converged=1 pbc="F F F"
Mo      10.79929657       8.70923370       9.07110721
Mo       8.21666186       9.82550669      10.69492467
Mo      10.89094036      10.88089715       9.18263755
Mo       7.80471644       9.92612591       9.07379458
Mo      11.30966213       9.67951390      10.99881335
5
Properties=species:S:1:pos:R:3 config_type=qcd gap_pre_relax_energy=-38.391259352053595 gap_pred_energy=-39.50549104274514 gap_fmax_final=0.00034028991507503465 gap_converged=1 pbc="F F F"
Mo      15.63552093      16.34690915      14.15838709
Mo      16.07470199      16.39763177      15.80844973
Mo      13.56225692      14.49781076      15.77915766
Mo      13.60943712      13.93494650      14.16698359
Mo      16.11808303      13.82270183      15.08702193
6
Properties=species:S:1:pos:R:3 config_type=qcd gap_pre_relax_energy=-48.534352485673516 gap_pred_energy=-49.498020993780145 gap_fmax_final=0.0005082087801259768 gap_converged=1 pbc="F F F"
Mo      16.00434920      16.44456095      15.27259817
Mo      16.82898710      13.96081938      13.99641126
Mo      15.65218624      13.08245888      14.81037150
Mo      15.13278030      16.30704458      13.83430775
Mo      13.34893209      14.30339832      15.86576281
Mo      13.03276509      15.90171789      16.22054851
6
Properties=species:S:1:pos:R:3 config_type=qcd gap_pre_relax_energy=-48.11940831028295 gap_pred_energy=-49.59382595248083 gap_fmax_final=0.0005929811718633298 gap_converged=1 pbc="F F F"
Mo      10.69828131       9.00573525       7.72798108
Mo      11.59782950      11.29599175      11.03365078
Mo      10.91496478       9.03905282       9.38493720
Mo      10.12920843      10.74111154      11.58316191
Mo       7.70018165       8.96288978       8.79578605
Mo       7.75288558       9.74857013      10.26783426
7
Properties=species:S:1:pos:R:3 config_type=qcd gap_pre_relax_energy=-56.18554538893685 gap_pred_energy=-57.15534258548901 gap_fmax_final=0.0006146503439955762 gap_converged=1 pbc="F F F"
Mo      16.47002452      13.08378417      15.52795934
Mo      13.46545474      13.52475795      15.73276034
Mo      17.33884302      14.26757953      14.67698731
Mo      15.21980851      15.41740062      15.80512909
Mo      15.69969721      16.56857988      13.54453081
Mo      12.60262204      14.97843453      15.64023630
Mo      14.20354996      17.15946330      14.07239680
7
Properties=species:S:1:pos:R:3 config_type=qcd gap_pre_relax_energy=-56.41644190442208 gap_pred_energy=-57.157430355675956 gap_fmax_final=0.0007541415476710947 gap_converged=1 pbc="F F F"
Mo      10.81445037       9.95145421       8.36887147
Mo       8.11047343      10.26412871       6.99352391
Mo      11.04651165       8.72303400       9.51083005
Mo       8.47793493       9.34179913       9.44278998
Mo       6.84131720       9.20909508       7.37182044
Mo       8.76014690       6.82366958      10.19330602
Mo       7.25923855       6.99689233       9.42893118
8
Properties=species:S:1:pos:R:3 config_type=qcd gap_pre_relax_energy=-66.26707439127014 gap_pred_energy=-68.16000841307704 gap_fmax_final=0.0005479678320599809 gap_converged=1 pbc="F F F"
Mo      17.04682175      13.19695603      16.90145651
Mo      15.86498373      16.09668879      11.98252071
Mo      15.09188761      14.15207839      14.47806794
Mo      15.57693999      13.46030946      17.65684744
Mo      13.36363014      15.00800482      16.42689767
Mo      15.73348681      15.64774151      15.20560317
Mo      14.31059066      16.56711921      12.38634230
Mo      13.01165932      15.87110180      14.96226425
8
Properties=species:S:1:pos:R:3 config_type=qcd gap_pre_relax_energy=-65.99088922333681 gap_pred_energy=-67.87855234868582 gap_fmax_final=0.0005551759840234086 gap_converged=1 pbc="F F F"
Mo       9.15011740      11.56746774       8.13045551
Mo       7.61481711       9.18782383      10.63319695
Mo       8.06621262      10.26554796       8.14353339
Mo      10.72014217       9.48357871      10.01867761
Mo      11.08797923       9.00229750       8.38496065
Mo       9.04765350       7.15585656       7.75098392
Mo       6.67391606       8.30588887       9.51687089
Mo       9.60467277       6.99704969       9.38683196
9
Properties=species:S:1:pos:R:3 config_type=qcd gap_pre_relax_energy=-75.04848077160787 gap_pred_energy=-76.33271918197589 gap_fmax_final=0.000922939517075045 gap_converged=1 pbc="F F F"
Mo      12.98387923      13.30150963      15.82346364
Mo      14.17896398      15.79881134      15.41498584
Mo      16.29047601      14.99393464      16.30076786
Mo      15.64403968      13.17871015      15.40628005
Mo      15.08076912      17.22667717      13.18094692
Mo      14.29026888      14.44117685      13.40582456
Mo      16.36405200      14.86788636      13.57906400
Mo      13.85984606      13.80361869      17.35430387
Mo      16.30770502      17.38767516      14.53436327
9
Properties=species:S:1:pos:R:3 config_type=qcd gap_pre_relax_energy=-74.84834433996838 gap_pred_energy=-76.33560214435542 gap_fmax_final=0.0007839783661381324 gap_converged=1 pbc="F F F"
Mo      13.49197787      15.02403651      15.04030024
Mo      15.54945725      15.58458738      16.38653199
Mo      14.24712488      13.09173555      16.96963072
Mo      14.20429450      16.93282913      13.07163808
Mo      15.45599961      14.39941738      13.58663102
Mo      16.62019308      16.07953981      14.10627784
Mo      16.63040029      13.86869972      15.80710095
Mo      14.43388942      17.67415842      14.69048589
Mo      14.36666311      12.34499611      15.34140327
10
Properties=species:S:1:pos:R:3 config_type=qcd gap_pre_relax_energy=-84.91884436057856 gap_pred_energy=-85.9235936528619 gap_fmax_final=0.0009198844625269626 gap_converged=1 pbc="F F F"
Mo       7.56927645       9.87237188       6.90220619
Mo       7.18367491       7.77830151       9.25711005
Mo       7.12501534       9.39810537      10.03898706
Mo      10.68091124       7.74233439      11.43247068
Mo       9.49085386       8.90938054       8.70002245
Mo      12.08199925       9.45221125       9.32586506
Mo       8.51737532      11.17377771       7.53164260
Mo      11.62044777      10.62995266       8.10385004
Mo       9.00754593       7.52562777      11.56116501
Mo       9.72533385      10.52037083      10.14911475
10
Properties=species:S:1:pos:R:3 config_type=qcd gap_pre_relax_energy=-84.43700948447994 gap_pred_energy=-85.93900348900004 gap_fmax_final=0.0007635689955586181 gap_converged=1 pbc="F F F"
Mo      14.45915545      13.95314506      13.85205521
Mo      17.02249847      14.89515658      13.01752788
Mo      14.28874893      11.97594020      15.77187375
Mo      15.90108643      14.33233124      15.48811983
Mo      17.39710436      16.19403282      14.10994268
Mo      14.29636862      16.53433844      13.37248129
Mo      14.61027038      15.86451304      17.28901767
Mo      13.32741390      13.31892928      16.27990786
Mo      15.62727116      16.86788631      16.30928352
Mo      13.07008233      16.06372703      14.50979029
11
Properties=species:S:1:pos:R:3 config_type=qcd gap_pre_relax_energy=-93.59616147834362 gap_pred_energy=-94.51057931626049 gap_fmax_final=0.000987272427933684 gap_converged=1 pbc="F F F"
Mo      10.52816155      10.68209357      10.73488508
Mo      14.90413624      12.61749260      12.07042220
Mo      10.34704152      12.44012262      14.05963628
Mo       9.22886333      12.38796072      12.59955845
Mo      13.09796568      11.13358128      13.40243048
Mo      14.09398735      12.87289438      10.26713505
Mo      13.18009538      14.03643193      13.72544657
Mo      11.83565674      12.78297371      11.69748057
Mo      10.72131432      10.10378832      12.63462561
Mo      13.15072311      10.60100745      11.31192710
Mo      13.50843625      14.93803490      12.09283409
11
Properties=species:S:1:pos:R:3 config_type=qcd gap_pre_relax_energy=-92.8385467956674 gap_pred_energy=-94.39257992574949 gap_fmax_final=0.0008238877267618211 gap_converged=1 pbc="F F F"
Mo      10.44710987      10.62228488       9.86287515
Mo      10.52544855       7.93114458      10.27552866
Mo       6.86593442       6.70555470       9.40859889
Mo       7.53278422       9.23081671       8.01677465
Mo       9.45952577       7.37795691       8.48894633
Mo       9.16724634      11.47450091       7.67526981
Mo      11.16524243       9.57562403       8.21337658
Mo       7.99344593       6.14085658      10.62466667
Mo       7.97943799      11.54274257       9.23020874
Mo       8.36106035       8.97513571      10.30772608
Mo       9.19414814       9.11476645       6.58741245
12
Properties=species:S:1:pos:R:3 config_type=qcd gap_pre_relax_energy=-103.67163145910267 gap_pred_energy=-104.7614593273188 gap_fmax_final=0.000868153246637965 gap_converged=1 pbc="F F F"
Mo      16.95709534      15.81746843      16.25394228
Mo      13.13949247      13.79735081      13.43254256
Mo      12.97793642      16.81184172      14.89430445
Mo      13.96372887      13.12675986      16.14055648
Mo      14.75882051      13.19417500      13.34109345
Mo      15.70964918      17.06137158      13.93646205
Mo      17.06323473      13.15443181      15.10503683
Mo      17.40754304      14.27072324      13.83992105
Mo      14.80596537      14.13181075      17.25662100
Mo      15.71021535      16.86506774      16.83896159
Mo      12.63894181      15.71271125      16.14009202
Mo      14.86737691      16.05628781      12.82046624
12
Properties=species:S:1:pos:R:3 config_type=qcd gap_pre_relax_energy=-102.6760611710129 gap_pred_energy=-104.35677250620081 gap_fmax_final=0.0007470842166647686 gap_converged=1 pbc="F F F"
Mo      11.71417963      10.96636694       9.87814147
Mo       8.90872514      11.97178391       9.94148059
Mo      12.29498461       9.59217365       8.99526716
Mo       9.81117224       8.82613745      10.17994848
Mo       9.65892277      10.08503324       8.17592358
Mo       7.50960596       9.58116705      11.40689063
Mo       7.55738782      11.53238407       8.94052978
Mo      10.68979421       7.51238486       7.35508945
Mo       7.56816788       7.84923809      11.66226567
Mo       9.14070518       7.85902931       6.55747450
Mo       7.53768282       8.50264522       8.87152343
Mo       8.64332217       6.75630664       9.07011567
13
Properties=species:S:1:pos:R:3 config_type=qcd gap_pre_relax_energy=-111.76917914222511 gap_pred_energy=-114.13698619363397 gap_fmax_final=0.000976983426046763 gap_converged=1 pbc="F F F"
Mo      14.39110705      14.40925197      11.96142634
Mo      16.34673888      16.07090306      13.04388082
Mo      13.70598736      15.98984962      12.19805608
Mo      17.82808293      14.11248712      15.19528747
Mo      12.66218216      13.98793413      14.63827681
Mo      15.14700728      12.57607684      15.97497661
Mo      15.04572717      14.77238070      14.85150227
Mo      12.59862388      15.85153870      15.21483182
Mo      17.63970384      15.70299273      15.99167162
Mo      13.50800645      14.36731842      17.25853622
Mo      15.36274593      17.25222663      14.23294584
Mo      16.11158053      13.83379273      17.29283062
Mo      14.65250654      16.07324731      17.14577747
13
Properties=species:S:1:pos:R:3 config_type=qcd gap_pre_relax_energy=-112.37034038743683 gap_pred_energy=-114.00718882807288 gap_fmax_final=0.000853601535865365 gap_converged=1 pbc="F F F"
Mo       9.66838605       9.46646401       9.74371024
Mo       8.52812803      10.39920900      11.86214904
Mo       8.48464055       7.51449842      11.67639073
Mo       9.74732422      10.90939135       7.20044637
Mo       9.60207840       7.81404033       7.79293203
Mo      10.75795083      11.61708081       8.78202812
Mo      10.65379619       7.24271934       9.25229044
Mo       8.09494033      11.60970663       9.45469589
Mo       7.57542618       7.12251362      10.19393236
Mo      12.65083892       9.71077779       9.46219989
Mo      12.31454996       9.59507659       7.76462649
Mo       6.90037281       9.60319310      10.94832048
Mo       7.50667702       9.88043853       8.35138743
14
Properties=species:S:1:pos:R:3 config_type=qcd gap_pre_relax_energy=-121.43551555799482 gap_pred_energy=-124.12308219558425 gap_fmax_final=0.0008684231195400826 gap_converged=1 pbc="F F F"
Mo      15.28974766      13.12011467      17.03619414
Mo      15.04185822      12.51433752      13.84370429
Mo      12.66591292      13.75239030      15.10578027
Mo      16.94544648      12.89577728      16.44077454
Mo      16.49754134      13.45453296      13.30586811
Mo      12.62967758      14.85826487      16.52446963
Mo      15.07403937      14.91235362      15.03824569
Mo      13.89812293      15.09641177      12.26245175
Mo      16.70536610      15.53264905      16.78586833
Mo      17.41654316      15.67220513      14.87581165
Mo      14.19406879      17.45426220      16.60018076
Mo      15.17671838      16.33102110      12.53299543
Mo      13.26056202      16.40792817      14.38610686
Mo      15.20439505      17.99775138      15.26154857
14
Properties=species:S:1:pos:R:3 config_type=qcd gap_pre_relax_energy=-120.65085017055767 gap_pred_energy=-122.52146114055954 gap_fmax_final=0.0007994019357039378 gap_converged=1 pbc="F F F"
Mo       8.32552011      11.89592386       8.03173643
Mo       7.15487498      11.95976258       9.33210512
Mo       8.96341690       9.51628912       6.02795349
Mo      10.30982663       9.46041986       7.15496877
Mo       7.24974147       9.34388182       8.32646249
Mo       9.18336408      10.08869359       9.92378181
Mo       7.03370548       9.35861956      11.14356793
Mo      11.62337035       8.77059108      10.01516948
Mo       6.23323435       7.83197894      10.19525126
Mo       9.82943395       6.80963362       6.42939132
Mo       8.18147161       6.79905820       8.65543940
Mo      11.15264193       9.04232824      11.64759232
Mo       9.07714563       7.49448908      10.37291342
Mo      10.80996040       6.75603833       7.87137463
14
Properties=species:S:1:pos:R:3 config_type=qcd gap_pre_relax_energy=-121.3422445370047 gap_pred_energy=-122.12244569685167 gap_fmax_final=0.0008478684033737102 gap_converged=1 pbc="F F F"
Mo      13.89381210      11.76557430      14.10790054
Mo      14.46703047      18.39347060      14.77561263
Mo      15.72100647      15.98572983      15.40433217
Mo      18.15639589      14.66509255      15.28604777
Mo      13.99098773      16.86714026      13.58910394
Mo      13.68343859      14.44031020      14.96013028
Mo      16.01690158      13.48422130      14.05320385
Mo      16.34651331      15.62230247      12.82311021
Mo      14.31085199      14.65683975      17.06335494
Mo      14.68405222      14.38160678      12.33431457
Mo      14.28095095      17.26439921      17.30265789
Mo      17.09312980      13.82247669      16.47662230
Mo      12.77696242      16.74718057      16.08085006
Mo      14.57796650      11.90365550      15.74275886
15
Properties=species:S:1:pos:R:3 config_type=qcd gap_pre_relax_energy=-131.2479590978881 gap_pred_energy=-134.59700412672987 gap_fmax_final=0.0009403924431523088 gap_converged=1 pbc="F F F"
Mo      12.56290489      12.56292155      12.56290102
Mo      13.42299813      14.24970657      13.97587272
Mo      11.70275455      10.87609611      11.14992999
Mo      12.47539246      15.23723529      11.62857941
Mo      15.28976577      12.38880612      13.31586196
Mo      14.12355835      11.79422412      10.32537692
Mo      12.74920233      12.69035042       9.59167764
Mo      13.48918158       9.73289657      12.67179904
Mo      10.82412316      14.34188211      14.20329846
Mo      10.07700233      13.04866374      11.29116770
Mo      14.40884129      11.98865427      14.83045129
Mo      11.36397800      12.88735525      15.11052047
Mo      12.04774433      10.02105592      13.70590199
Mo       9.68291313      11.79951081      12.52179254
Mo      14.22315389      14.82415537      11.55838304
15
Properties=species:S:1:pos:R:3 config_type=qcd gap_pre_relax_energy=-131.64168494245706 gap_pred_energy=-133.42822767063382 gap_fmax_final=0.0009222562605297105 gap_converged=1 pbc="F F F"
Mo      13.96881053      14.99399573      12.35087374
Mo      13.89742763      16.70158370      13.10014692
Mo      16.57119318      15.92884777      12.96225753
Mo      15.06937159      14.96720513      14.93444940
Mo      16.47730671      14.04135790      12.74247337
Mo      14.06843902      12.42070283      14.27460847
Mo      15.24071079      17.70897197      15.48269254
Mo      17.90948384      14.42774687      15.52009591
Mo      15.54121518      12.21497542      15.23705138
Mo      13.79791464      13.87441014      16.74091423
Mo      16.74080901      16.98195221      16.07441257
Mo      14.32094567      15.52690386      17.68924350
Mo      11.96893392      14.75928440      14.88880573
Mo      12.35399768      16.13797895      15.93418361
Mo      17.07344061      14.31408310      17.06779110
16
Properties=species:S:1:pos:R:3 config_type=qcd gap_pre_relax_energy=-139.97952913964392 gap_pred_energy=-142.7048761675593 gap_fmax_final=0.0008593398735092728 gap_converged=1 pbc="F F F"
Mo      13.44208583      12.57188816      15.73030407
Mo      11.80512480      12.00591619      15.39973715
Mo      11.68049322      14.73634515      15.96197496
Mo      13.32626252      15.38034882      15.98099294
Mo      13.41636837      10.21387089      13.41590666
Mo      10.38280707      13.52894191      13.17269335
Mo      12.51962603      15.06267552      13.33236218
Mo      15.09395777      14.51612164      13.55587322
Mo      15.08674701      11.19722072      13.30195036
Mo      13.05251547      12.71620291      12.64311127
Mo      13.44925530      13.20160856      10.14590639
Mo      11.77598785      11.20296522      11.23494561
Mo      13.65831382      10.52537431      10.85273158
Mo      10.75663981      14.24633143      11.59099837
Mo      14.61348559      15.50087129      12.11109767
Mo      15.18900566      12.64199336      10.81809032
16
Properties=species:S:1:pos:R:3 config_type=qcd gap_pre_relax_energy=-140.29168576229446 gap_pred_energy=-142.30878384763423 gap_fmax_final=0.0007714138440042382 gap_converged=1 pbc="F F F"
Mo      10.43372992      11.54070769       9.05830321
Mo      11.34017636      10.01979973      11.07685243
Mo      11.49124273       9.94471033       8.23193080
Mo       9.04098901      11.13727542       6.77994701
Mo       8.86938412      10.71790218      11.10276186
Mo      11.49819646       8.17473395      10.24225083
Mo       8.00189650      11.83856769       8.00868152
Mo       9.72297898       7.97021493       6.35015681
Mo      10.56236472       6.90888506       7.46829849
Mo       9.16732025       9.13517816       9.19332739
Mo       6.66576811       9.82155840      10.10638956
Mo       9.13970544       7.02955893      10.56556826
Mo       8.68920023       8.64858760      11.99618029
Mo       7.02214267       8.75009654       7.68056835
Mo       7.97119791       6.95552743       8.13932792
Mo       6.71454910       7.73753850      10.33029780
17
Properties=species:S:1:pos:R:3 config_type=qcd gap_pre_relax_energy=-149.4794055790279 gap_pred_energy=-151.94245522803084 gap_fmax_final=0.0006760068911588492 gap_converged=1 pbc="F F F"
Mo       8.06575370       9.34154945       8.27279211
Mo      10.36277146       7.14268625       8.89050226
Mo       9.80763299      10.06996364       7.53847310
Mo       8.35593880       8.25049391      10.72068646
Mo       7.13865298      10.61657120      11.08731860
Mo       8.22599791      12.16265892       8.42791858
Mo      10.09165102       7.99651879      12.00080813
Mo      11.73739879       7.66432110       7.95303751
Mo       7.93427203      10.10127769      12.58158162
Mo       9.84068364      12.71703798       8.05182737
Mo       9.98724031      10.21152600      10.21493777
Mo       9.78556597      12.45907661      11.30217559
Mo      12.04074767       8.52653734      10.48078665
Mo      12.08635324      10.44446249       9.01308021
Mo      11.14206532      10.48858130      12.55147364
Mo      11.68262200      12.52468514      10.60325375
Mo      13.01352538      10.58092538      11.60821989
17
Properties=species:S:1:pos:R:3 config_type=qcd gap_pre_relax_energy=-149.9173635808907 gap_pred_energy=-152.55012474188382 gap_fmax_final=0.0009993141394953867 gap_converged=1 pbc="F F F"
Mo      10.27976963      10.77535426      14.11454658
Mo      13.21065699      10.66881242      12.62420065
Mo      11.17285095       8.34805914      12.14630302
Mo       8.70309335      11.95917618      12.24756007
Mo      10.77036836      12.46329159      13.79421422
Mo       8.08327730       9.40304491      12.20232735
Mo      13.14560287      12.16196824      11.54681384
Mo       7.86777574      10.04824042      10.55974283
Mo      10.36280346      10.41165382       8.53937648
Mo      13.37922406      10.38513614       7.58864494
Mo      12.62652240       9.89476160      10.26910098
Mo       8.95840070      13.02972354       9.83429355
Mo      11.54754973      11.97601562       9.07035543
Mo      10.56004277      10.86954390      11.28678573
Mo      14.27601763      11.48054150       8.61163910
Mo      10.54980837       8.13988109      10.44883815
Mo      10.26716273      13.74572267      10.87618412
18
Properties=species:S:1:pos:R:3 config_type=qcd gap_pre_relax_energy=-158.31141783726122 gap_pred_energy=-161.0904670651429 gap_fmax_final=0.0008919781928718903 gap_converged=1 pbc="F F F"
Mo      12.59017383       9.96907298       9.46531601
Mo      12.41787783       7.94295199      11.22616924
Mo      12.04859337       9.45762529      12.03174585
Mo      11.86354006       8.38264041       8.17574881
Mo      10.23271641       9.70101959       6.66646402
Mo      10.68816808      11.22171546       8.00700664
Mo       8.39244117      12.98097877       8.53821598
Mo      10.03057902       6.71052551       9.48944369
Mo      10.00030843       9.38223870       9.80772293
Mo       9.02788166       7.67096763       7.88774843
Mo      10.35929799      11.97630196      10.83466684
Mo       9.15220145       8.06179052      11.52256351
Mo       9.30025253      11.14897203      11.99574801
Mo       7.44201966       9.61323332      10.41859741
Mo       6.30477113       8.16920101       8.39485312
Mo       8.12348688      10.35311044       8.28633279
Mo       7.30383531      12.39433174       9.77926208
Mo       6.91443554       7.05590302       9.66497500
18
Properties=species:S:1:pos:R:3 config_type=qcd gap_pre_relax_energy=-158.63815615541995 gap_pred_energy=-160.43991794624026 gap_fmax_final=0.000982629885543526 gap_converged=1 pbc="F F F"
Mo       9.35540013       8.57840960       8.24458678
Mo      10.15153818      10.12812588      10.13748741
Mo      10.15713459      13.17688809      10.02032959
Mo      10.17518570       7.33711551      10.27229581
Mo       8.83002366       8.71712728      11.83657895
Mo      11.24201987       9.08369048      12.51897498
Mo       7.22218962       7.72813020       9.80547217
Mo      11.11010682      11.54616531      12.05929921
Mo      12.40099551       8.33622922      10.59159676
Mo      12.88918504      10.66525932      10.53453198
Mo      11.84098798       8.93262228       8.26443524
Mo       8.33680870      11.43379696      12.21671833
Mo      10.09089893      10.47114945       6.35140604
Mo       9.01250967      11.25293272       7.54050547
Mo       9.02640451      10.75703309      13.71584280
Mo       7.19282804       9.51223090       9.73434730
Mo      11.89459959      13.50565473      10.25699515
Mo      11.63333965      11.39959516       8.46075219
19
Properties=species:S:1:pos:R:3 config_type=qcd gap_pre_relax_energy=-167.26677732602124 gap_pred_energy=-169.72618786245295 gap_fmax_final=0.0009830362232185858 gap_converged=1 pbc="F F F"
Mo      10.94149897      14.38187607      15.30759543
Mo      13.45511085      15.26389282      16.87051728
Mo      12.18651013      10.90483170      11.86249307
Mo      15.36856399      15.36952807      13.19925525
Mo      11.85050711      15.18441711      12.34227778
Mo      11.91451811      12.86902466      10.02519534
Mo      13.37627010      14.06797297      14.61301765
Mo      13.21263190      11.52936747      14.20417313
Mo      15.21899956      15.35396459      16.48148172
Mo      13.63627585      12.32803137       9.88968450
Mo      15.81390094      12.83013809      14.91217058
Mo      13.35006450      15.50671246      11.20982308
Mo      11.10010194      12.15887657      12.96730002
Mo      13.91863746      16.49850076      13.74520548
Mo      14.64240056      12.71979918      16.46472166
Mo      11.46654652      12.85899666      16.12039855
Mo      15.31285226      11.01491647      12.28431689
Mo      13.69913512      13.13487217      12.30729681
Mo      16.09132797      12.58013468      11.74892964
19
Properties=species:S:1:pos:R:3 config_type=qcd gap_pre_relax_energy=-168.08360678628105 gap_pred_energy=-170.2691714519048 gap_fmax_final=0.0008825792371608252 gap_converged=1 pbc="F F F"
Mo      10.09872602       8.40687207       7.45155536
Mo       9.81518494      13.32784254      11.98303295
Mo      12.80972040      11.98477288      12.00341863
Mo      10.65170877      10.43741662      11.35213864
Mo       9.09501463      10.21028645       7.25661407
Mo       9.55952717      11.85769951       9.30555021
Mo       8.81718238       9.54337265      13.90516080
Mo      11.72484675      12.37621449       9.54740692
Mo       9.93030398      12.42002143      13.49198260
Mo      13.21549937      10.25003404      11.10976842
Mo      11.63284609       8.43146714      12.65723289
Mo       8.34515221       8.50478002      12.59682562
Mo       8.58122088       9.32857749       9.73712959
Mo      10.96914452      12.09994635       6.47981380
Mo      11.52324324      10.10317354       8.73659854
Mo      10.34663664       8.12618337      10.10995093
Mo      11.45901743      10.58744294       5.77872382
Mo      12.01537026       9.91704145      13.71083561
Mo       8.39378623      11.07098693      11.77039252
20
Properties=species:S:1:pos:R:3 config_type=qcd gap_pre_relax_energy=-177.81010626652647 gap_pred_energy=-180.57776723534164 gap_fmax_final=0.0008098117676552299 gap_converged=1 pbc="F F F"
Mo      10.41939190      11.26429117       6.60447627
Mo       8.73672592       9.10150039       7.46856194
Mo       7.87895982      10.89231612       7.80098676
Mo       9.84444975      12.67102007       7.82614190
Mo      13.31472107      10.56665444       8.00428340
Mo      13.00049297      12.25547781       8.34114547
Mo      10.45426271       7.51308021       9.74023684
Mo      10.56649356      10.30056244       8.87449308
Mo       8.05446633       9.33256814      10.03683516
Mo       8.68612018      11.55021641      10.38559487
Mo      12.13661001       8.13789580       9.88395095
Mo      10.99082190      12.45347227      10.83544117
Mo      12.47228461      10.91774438      10.62815986
Mo      10.27702401       9.66719065      11.46186191
Mo       7.47987560      10.86640741      12.64800670
Mo       8.74140759       7.88798078      12.53020062
Mo       8.86516933      11.85358945      13.09031357
Mo      12.62922438       9.30938023      12.90543070
Mo      11.96798826      10.91921534      13.37929405
Mo       9.69841211       8.75433849      13.76948685
20
Properties=species:S:1:pos:R:3 config_type=qcd gap_pre_relax_energy=-177.5937937889806 gap_pred_energy=-179.74701238106593 gap_fmax_final=0.000971317389460748 gap_converged=1 pbc="F F F"
Mo       8.59033192       9.45560534       6.40913077
Mo      11.39661937      11.02106536       6.73545152
Mo       8.31061320      11.11218657       7.49659118
Mo      10.11054750       8.97094466       8.30725373
Mo       6.65412119       8.90069513       8.19990871
Mo      12.66119012      10.08229592       7.53176243
Mo      11.01375423       6.47094099       9.51242445
Mo       8.08173940       7.51865268       8.43860758
Mo      10.87972672      11.15420802       9.44399237
Mo      12.16259861       7.02520062       8.27373720
Mo       8.14162900      10.10470409       9.77674001
Mo      11.96918197       8.93715537      10.21765147
Mo       6.82253936       8.04658699      11.31031640
Mo       8.65763555      12.94420172      10.21150339
Mo      12.34382479      11.01202464      11.99195121
Mo       9.55026844       8.44242470      11.15618195
Mo       9.67564902      10.95006944      11.78607808
Mo       7.38368561      12.35991645      11.30561085
Mo       7.19671325       9.37731445      12.40743445
Mo      11.74323050       9.45940666      12.83327202
21
Properties=species:S:1:pos:R:3 config_type=qcd gap_pre_relax_energy=-186.95138326546444 gap_pred_energy=-190.9588288000673 gap_fmax_final=0.0008963493028684627 gap_converged=1 pbc="F F F"
Mo      12.47949142      11.86943348      15.00509560
Mo      16.21708160      11.16981761      11.56751098
Mo      13.41232585      12.81761425      11.21421909
Mo      14.93748714      10.57857829      15.33847385
Mo      17.15901388      10.76056140      12.97920383
Mo      12.57720506      14.15673976      13.49933798
Mo      10.72067426      15.65230839      13.49499354
Mo      14.51630700      12.44476058      13.51409136
Mo      10.36025381      14.12257015      15.60443141
Mo      13.56254248      13.44780702      15.81261142
Mo      11.99132284      15.76531574      11.11834616
Mo      14.11760594       9.92615994      13.79189472
Mo      16.78628210      13.44879800      12.99621022
Mo      15.43625153      15.54411759      14.06337564
Mo      16.67022555      13.16515566      14.99501081
Mo      12.06809476      11.86000592      12.17866435
Mo      12.71562912      17.28883030      13.72455473
Mo      12.54148434      16.47741096      15.29662737
Mo       9.81748803      13.26664535      14.12964463
Mo      15.01264427      15.42575336      12.32268170
Mo      10.67038154      14.58140875      11.12281310
21
Properties=species:S:1:pos:R:3 config_type=qcd gap_pre_relax_energy=-187.72574978824616 gap_pred_energy=-190.16469111275018 gap_fmax_final=0.0009895520874675118 gap_converged=1 pbc="F F F"
Mo      10.82927142       8.77540611       6.50567007
Mo       8.86853078      10.69181551       6.59920723
Mo      11.65580541      10.37124937       6.69070035
Mo       7.76353553       8.46352781       7.59918863
Mo      10.02024290      12.98085775       7.74571671
Mo       6.85230477       9.91749102       8.18719808
Mo      11.90662899       9.01545167       9.17996073
Mo      10.30194769       7.63257988       9.50424832
Mo       8.26546463      12.86617840       8.15978156
Mo       9.75402994      10.36628298       8.77687990
Mo       8.06054665      11.20905038      10.95036108
Mo      10.62666946       9.92612074      11.21779883
Mo       9.86328739      12.27567405      10.49815433
Mo       8.37883887       8.84384674      10.41011881
Mo      12.68772371       7.83759885      11.70461667
Mo      13.39571895       9.49319065      11.55737122
Mo      11.76048300      12.10311894      12.61202933
Mo       8.67770296       8.99703818      13.29320989
Mo      10.12440100      11.92885859      13.35827092
Mo       9.58877089       7.54291977      12.70536858
Mo      11.31441960       9.45806710      13.44047327
22
Properties=species:S:1:pos:R:3 config_type=qcd gap_pre_relax_energy=-196.3660266816749 gap_pred_energy=-199.41052257748174 gap_fmax_final=0.0009481849690596377 gap_converged=1 pbc="F F F"
Mo      11.46046611       8.68567238       6.78260894
Mo      11.96339733      10.62404350       7.04296919
Mo      13.36290896       9.30489315       8.81371924
Mo       8.79057508      10.58268756       6.85087389
Mo      12.50049815       7.58398626       9.14392169
Mo       8.48017180       7.48661992       7.53698104
Mo       9.58875590       6.47882907       8.43133788
Mo      10.46744004       9.37580252       8.86926739
Mo      11.91274124      11.59346906      10.00617366
Mo      11.95889986       9.59738487      11.10318928
Mo       9.68873446      12.19347879       8.67956697
Mo      10.10262405      13.20498918      11.43075986
Mo      11.60274829      11.58967931      12.84873489
Mo      10.14878746       7.75275101      11.30800709
Mo       9.45928598      10.55651141      11.06914770
Mo       7.76349272      10.34085678       8.61078395
Mo       8.43516571       8.25590307      10.18653100
Mo       7.97822162      12.57229108      10.00437666
Mo       8.80311364      12.14928129      12.77080424
Mo      10.46460212      10.09517422      13.48194140
Mo       7.53053899       9.07964292      12.68102699
Mo       6.65389854      10.01312072      11.46434509
22
Properties=species:S:1:pos:R:3 config_type=qcd gap_pre_relax_energy=-196.34232858178012 gap_pred_energy=-199.2676980534343 gap_fmax_final=0.0007652214546019794 gap_converged=1 pbc="F F F"
Mo      11.58882313       7.03313371       8.45441502
Mo      11.55660151       6.14991245       9.95062841
Mo      12.34801007       8.65759768      10.46323119
Mo      12.17001545       9.96161011       7.88521243
Mo       9.45153566       9.13596413       7.77346695
Mo       8.45660968       7.09648812       9.49633097
Mo      11.33412624       7.67118990      12.76294466
Mo       8.68234486       6.66665924      11.22508105
Mo      11.70077776      11.28615259      10.69467476
Mo      11.26837593      10.70198952       6.57100619
Mo       9.96395922       8.93258170      10.50916727
Mo      11.24262567      13.03544038       8.74638947
Mo       9.53465481      11.20446033       8.97756992
Mo       8.48391356       9.26002508      12.92435043
Mo      11.75020922       9.37926990      12.98525714
Mo       7.42258777       9.58344837      11.49944687
Mo       6.96419689       9.62017120       8.51234685
Mo       7.29508446      10.66987859       7.15461276
Mo       8.37326307      13.41088433       8.45228062
Mo      10.21422878      13.65885729      10.35186898
Mo       9.56858310      11.31659613      11.56682384
Mo       7.53240998      12.47062605       9.94583099
23
Properties=species:S:1:pos:R:3 config_type=qcd gap_pre_relax_energy=-206.80327640207184 gap_pred_energy=-209.74168005401543 gap_fmax_final=0.0008133977273626377 gap_converged=1 pbc="F F F"
Mo      11.82082142       8.26457374       6.28183323
Mo      10.96807018       9.78427952       5.99921032
Mo      12.65454362      10.19371871       8.68298611
Mo      10.19952030       9.04064672       8.93879700
Mo      10.61336879       6.11250527       8.43617689
Mo      12.75233307       8.36311503       9.37745662
Mo       9.34981355       7.90286394       6.94777082
Mo      12.46601739      10.44451845      11.40033439
Mo      12.08838756      12.16441345      10.56408769
Mo      10.16998114      11.52062149       8.71143356
Mo      10.56579798       7.90499416      11.20267000
Mo      10.34493946       9.77298146      13.84987648
Mo       8.91705812       6.24157532       8.92021346
Mo      10.53097534      12.14050052      12.75527378
Mo       8.73081537       8.33415518      11.39651703
Mo       8.16153883      10.28743308       7.30742859
Mo       9.45864467      13.81841822      10.99639681
Mo       9.63381475      10.69508645      10.99855973
Mo       8.74463348      10.52586335      13.85919925
Mo       8.29905592      13.33642692      12.23712506
Mo       7.34287843       9.13994415       8.65327673
Mo       7.50795612      11.69468512       9.61752640
Mo       6.96224843      10.59989372      11.14906401
23
Properties=species:S:1:pos:R:3 config_type=qcd gap_pre_relax_energy=-205.82935255376321 gap_pred_energy=-207.405846736826 gap_fmax_final=0.0008016663233445091 gap_converged=1 pbc="F F F"
Mo       9.85655339      13.41570566      11.97026403
Mo      10.85680614      12.38589332      13.05789724
Mo      11.10116238      11.44116105      10.42924587
Mo      13.43754962      10.78965840      11.82145199
Mo       6.46518000      10.39112968      11.08865883
Mo      10.53877751      13.63238752       8.77268913
Mo      11.96817251      12.75444013       8.11691472
Mo      13.82521731      10.88553365      10.06517064
Mo       8.28864094      12.08503958       9.88629443
Mo      10.94153697       9.47356739      12.60218112
Mo       8.76788251      10.79888252      11.97486236
Mo      11.03044671       6.83646991      11.77850500
Mo       9.71344530      11.04566099       7.94657237
Mo      12.03188416       8.72540921      10.48123818
Mo      11.89029682       9.82784377       8.10682820
Mo       9.79063422       8.99932563       6.51150734
Mo       9.50167426       9.28928441       9.92200900
Mo       7.24274639       8.47734285      10.67216705
Mo       9.09333155       8.16748357      12.54983447
Mo       9.67108427       6.79195674      10.16918223
Mo       7.17145304      10.49757488       8.72100184
Mo       8.38440832       8.28128735       7.90682582
Mo      11.12270875       7.69855485       8.14029124
24
Properties=species:S:1:pos:R:3 config_type=qcd gap_pre_relax_energy=-215.48297424714502 gap_pred_energy=-218.47141411967016 gap_fmax_final=0.0007331171262094835 gap_converged=1 pbc="F F F"
Mo      10.20684963      11.74767672      11.79664998
Mo      12.05413033      10.10987066      13.31121162
Mo       9.06323875       9.44700272      12.23448572
Mo      10.85298173      13.36189413       9.60391287
Mo       6.97778522      11.43454388      11.93654265
Mo      12.26609180      11.24242458      10.88651152
Mo      10.82411628       7.27869446      12.23724950
Mo       8.78312630      13.42027991      10.07109747
Mo       9.06405439      10.97382743       9.53083281
Mo      13.38567218       9.35526286      12.45526942
Mo       7.51330398       9.20372767      10.54240813
Mo       9.63084595      12.90969418       7.31194622
Mo      10.99686326       9.05866437      10.46003571
Mo       7.66884924      12.51561995       7.82067390
Mo      13.24633177       9.23609353       9.13759769
Mo       9.06473216       6.88102171      11.11827893
Mo      11.24747349      11.11133652       8.39057060
Mo      12.73868857       7.00701161      10.39740356
Mo       6.11191934      11.50487395      10.41328291
Mo       9.26906020      10.20054001       6.85459692
Mo       9.34725608       8.13716118       8.87396264
Mo      11.04868229       6.21294837       9.51587994
Mo       7.41256527       9.91824891       7.79935467
Mo      11.81836663       8.32456556       7.89322947
24
Properties=species:S:1:pos:R:3 config_type=qcd gap_pre_relax_energy=-215.53846060509693 gap_pred_energy=-218.6496030848851 gap_fmax_final=0.0008492815041654468 gap_converged=1 pbc="F F F"
Mo      12.46034477      11.89407779       6.84567063
Mo      13.81463300      11.03385029       7.60309640
Mo      11.01381940      13.62292585      11.74645984
Mo      12.31505812      12.25052228       9.64892192
Mo      13.57802518      11.63565610      11.80248706
Mo       7.90773283      11.61590985      10.27308261
Mo       9.84153989      11.46003454       8.21866422
Mo      10.95093515      11.11731710      13.70651405
Mo      13.56783343      10.24258786      10.65149278
Mo       9.91271459      13.66830083      10.12881990
Mo      11.43478195       9.94450120       8.54398335
Mo      10.62160273      10.98437112      11.07348010
Mo      11.44496725       9.51446199      13.03128034
Mo       9.08355962       9.00243221       9.97739327
Mo      11.37413289       7.80242189      10.35829937
Mo       9.15704504       8.89560059       7.46254630
Mo       7.54045680      10.13760984       7.88833403
Mo       8.58126661      12.42406183      12.12551669
Mo       6.54176924       8.92323692      10.69224551
Mo       8.76671258       9.75516232      12.37548838
Mo       8.94416363       6.40876498       8.61407651
Mo       7.36626784       6.99854221       8.16147268
Mo      10.23866529       7.03184794      11.49858119
Mo       7.35513673       7.44896706      11.38525743
25
Properties=species:S:1:pos:R:3 config_type=qcd gap_pre_relax_energy=-224.55703086251071 gap_pred_energy=-227.18566063569506 gap_fmax_final=0.0008812304218122374 gap_converged=1 pbc="F F F"
Mo      10.04661068       8.88231151       6.21734902
Mo      10.75756348       7.44085412       6.89886358
Mo      12.00298209       9.71802335       7.86600680
Mo       9.87763828      11.44036596       8.26669421
Mo       7.95077809       7.90844055       8.58466814
Mo       7.64459749       9.75351533       8.07292962
Mo      12.59726953       8.18526524       9.04303233
Mo      11.81644000      12.18773136       9.15213696
Mo      10.22312541       6.07689725       9.82070443
Mo      10.02855096       9.09082194       9.48361703
Mo       7.81843232      12.65491785       9.34677454
Mo       9.28219891      13.66550401      10.05219272
Mo      11.04092212       6.56063478      11.30692734
Mo      14.26129232      12.40901306      10.66256522
Mo       9.73777043      11.41631164      10.92637326
Mo      12.32892793      10.32842114      10.65548916
Mo       7.49490736      10.05647544      10.68013025
Mo       7.29047097      12.66132667      12.50621920
Mo      11.74941357      12.88105772      11.89362146
Mo       8.76500438       7.90760235      11.24171930
Mo       8.84761436      12.91646372      13.26950133
Mo      14.25347489      11.60387869      12.26610896
Mo      10.70358932       9.22239930      12.24223211
Mo      11.60204086      11.30803380      13.28966261
Mo       8.42461922      10.26996819      12.80071537
25
Properties=species:S:1:pos:R:3 config_type=qcd gap_pre_relax_energy=-224.67533896073928 gap_pred_energy=-226.6973103704422 gap_fmax_final=0.0005576752112120591 gap_converged=1 pbc="F F F"
Mo      10.59765021      12.12852508       7.21104984
Mo      10.66764630       7.54868917       8.47160046
Mo       9.74653961      13.15730700       8.42350303
Mo       7.42120986      11.16205677       7.54219268
Mo       8.85610414       7.13206410       8.60385811
Mo      12.13463313      10.03318480       8.46921655
Mo      14.49345649      11.33994107       9.20443049
Mo       9.42221400       9.88254120       8.50963818
Mo       6.77023293       9.63490673       8.22920702
Mo      11.86153525      12.30573878       9.67804436
Mo       7.96908566      11.26641608      10.28306044
Mo      12.20785186       8.63692575      10.66264089
Mo      14.65306725       9.57682128       9.60486875
Mo      10.38032348      10.30362925      10.94452492
Mo       6.85198004      10.58802171      12.68531260
Mo      10.08978398      12.76350896      11.19516420
Mo      13.26004845      10.89571590      11.68905330
Mo      10.03027814       7.43414840      11.11836981
Mo       8.18472764       8.88824940      10.74934658
Mo       8.04571387      11.81338635      12.98396146
Mo      12.60285824      13.60494900      12.36030748
Mo      13.36436281      12.82611230      13.73093337
Mo      11.58555027       8.73514145      13.14316332
Mo      11.12781470      11.27548629      13.12703749
Mo       9.55015597       8.94135747      13.25433900
26
Properties=species:S:1:pos:R:3 config_type=qcd gap_pre_relax_energy=-234.68521363492096 gap_pred_energy=-237.36171751126727 gap_fmax_final=0.0008267714414510299 gap_converged=1 pbc="F F F"
Mo      12.32503010      10.14322853      13.63738907
Mo       7.88642279      12.60816588      12.01963182
Mo       8.77744788      10.90188932      10.23360770
Mo       8.23168046      10.99702729      13.19175447
Mo      12.23380710       8.38164335      13.60391816
Mo      12.55764603       9.36490648      10.94144985
Mo       6.85588184      13.05666102       9.02035078
Mo      10.02029060      13.47545106       9.77398318
Mo       8.90943526       9.92730000       7.36358101
Mo      10.58479359       6.07618560       8.20240400
Mo      10.07087524       9.30654996      11.98774127
Mo      10.71225418       9.12705960       9.06576519
Mo       6.62942722      11.65510228       7.99342330
Mo       7.69404907       8.82181590       9.17702546
Mo       9.27289415      12.30998408       8.08038185
Mo      13.43870286      10.05096804       8.39475140
Mo      11.84607257       7.25543594      10.83287744
Mo       9.35042194       7.34972348      10.23331248
Mo      11.34532630      11.64459206       9.62007171
Mo      11.51602226      10.98971316       6.94676448
Mo      11.35584106       8.88593709       6.65071800
Mo       7.43992877       8.82972320      11.85380780
Mo       9.07331581       6.74086669       7.63005462
Mo       6.43943905      10.50465200      11.04948461
Mo      13.09557349       8.04957573       8.49835408
Mo      10.46233730      11.67075912      12.12231316
26
Properties=species:S:1:pos:R:3 config_type=qcd gap_pre_relax_energy=-234.67219224567685 gap_pred_energy=-238.11185819966545 gap_fmax_final=0.0007658327538659906 gap_converged=1 pbc="F F F"
Mo      13.71120607      12.30507752      10.18652797
Mo      12.42312369      10.19134469       8.92736170
Mo      12.84513200      10.15489908      11.85186267
Mo      12.07242463      13.18605480       7.50885881
Mo      12.69820474      13.08456565      11.55722133
Mo      11.46423379      14.23607683       8.77086076
Mo      11.02297911      11.62855118      10.15237587
Mo      10.99635967       8.90678246      14.25213504
Mo      10.58520267      10.73619524       7.07451744
Mo      13.20221561       7.73680561      10.35457508
Mo      10.65216645      11.45612977      12.78234703
Mo       9.52769906      12.32822891       8.16184797
Mo      12.78394903       7.41183942      12.04293397
Mo      10.74124857       9.09957776      11.07662735
Mo      10.76763397       8.45532710       8.44388465
Mo       8.18360993      12.01985370      11.25495003
Mo       9.94528549       7.60527151      13.63221219
Mo       8.90436849       9.94257917       9.14406440
Mo       8.98613571      10.02869950      12.92639886
Mo       9.98511319       6.89735928      10.47253801
Mo       6.85779325      11.74210028       8.29009978
Mo       7.93794413       7.79526443       8.21143719
Mo       7.46488900      10.85421986       6.87279374
Mo       6.87285589      10.82200220      11.37983998
Mo       8.28276498       8.19922036      11.06483745
Mo       6.50271038       8.59322312       9.02414018
27
Properties=species:S:1:pos:R:3 config_type=qcd gap_pre_relax_energy=-244.22536240932573 gap_pred_energy=-248.10597656122115 gap_fmax_final=0.0008866941618335505 gap_converged=1 pbc="F F F"
Mo      10.61760524       8.01926157      13.18847513
Mo       9.42473794      10.60867611      13.13534366
Mo      12.69774769       8.96836621      11.45712994
Mo      11.75360858      11.04950625      12.30676219
Mo      14.46986610      10.91184642      11.04334294
Mo       9.71493761       6.37115586      10.37762680
Mo       8.81379195       7.81060398      13.12962234
Mo      10.09248793      13.24819874      13.37192509
Mo       8.34450474      13.12855357      13.10679023
Mo      14.68072467       9.68398413       9.78925120
Mo       7.39252175      10.46558984      12.27487211
Mo       9.55524588      11.72990726      10.68320359
Mo      12.47740225       7.63462269       9.62122164
Mo      10.70358713       8.24570653       8.45113510
Mo      12.93445871       9.08796359       7.09788022
Mo       9.92084686       9.00885415      10.96522416
Mo       6.64446268      12.66886127      10.35970473
Mo       8.33806165       7.40962194       9.80615042
Mo      11.72973946      10.50502581       9.51383636
Mo       9.69591676      13.90074188      10.19827966
Mo      12.87614853      12.09502114       8.45310403
Mo       7.52048197      10.15016399      10.02114030
Mo      11.94302241      12.92787006      10.69585786
Mo      11.51058266       9.91519421       6.44343370
Mo       9.21495934      10.26012846       8.27086130
Mo       7.19590673      12.43675161       8.69633444
Mo      10.41141199      12.43259191       8.21626003
27
Properties=species:S:1:pos:R:3 config_type=qcd gap_pre_relax_energy=-244.58662440431215 gap_pred_energy=-248.1285557915249 gap_fmax_final=0.0008255558192938296 gap_converged=1 pbc="F F F"
Mo      11.12350055      15.81699179      12.05881468
Mo      12.55191104      13.89915228      13.16694313
Mo      16.43644669      15.68403125      14.44420634
Mo      14.05799075      12.31347657      11.04278391
Mo      16.43865761      16.19258976      11.54280796
Mo      18.23165697      13.64684202      12.56920217
Mo      15.05979125      12.00087243      16.69683840
Mo      15.22696379      14.85122231      18.32562176
Mo      16.09908537      14.74446129      10.37196345
Mo      11.50361694      13.13049527      15.41140648
Mo      10.03873427      12.10661595      13.41981260
Mo      16.60344702      14.85808740      17.26931974
Mo      14.08475592      13.86073364      15.43266110
Mo      14.53302006      11.83193193      13.63815049
Mo       9.47120568      13.71788516      13.84097786
Mo      13.90317196      16.36692969      13.45785776
Mo      17.17181844      12.24470271      12.19292975
Mo      16.71663957      13.22070679      14.63364138
Mo      13.39629767      12.37819447      17.49383305
Mo      12.29024932      15.29738753      16.97378574
Mo      11.79662784      15.80838219      15.08337575
Mo      15.25350754      14.39350762      12.81030164
Mo      14.56012718      16.21259468      16.10916838
Mo      13.57748704      15.54466723      11.20694623
Mo      11.24368790      14.10158089      11.11652628
Mo      12.64369423      11.25543813      14.68435256
Mo      12.73895498      11.27356660      11.75881903
28
Properties=species:S:1:pos:R:3 config_type=qcd gap_pre_relax_energy=-253.0889456873776 gap_pred_energy=-256.4463195422493 gap_fmax_final=0.0009947250036268641 gap_converged=1 pbc="F F F"
Mo      10.90250524      12.30425393       7.92679478
Mo      11.73287742      10.11561365       6.63275533
Mo       8.59148427      11.92874843       9.04831901
Mo      12.67571346       9.05215805       8.07854855
Mo       9.73389526      14.33577757       9.60013210
Mo      12.91045908      11.63434605       8.85185112
Mo      12.44577610      14.18386902       9.41827172
Mo      10.95547138      12.39419445      10.97774483
Mo       9.10130092       9.66505444       7.39381973
Mo      10.73953396      10.09566279       9.34865124
Mo       9.03602909      13.88116260      11.63393502
Mo      12.27478425      11.36497527      13.38949850
Mo      11.31469932      15.44099971      11.39055656
Mo      11.36915854      14.07242878      12.93610747
Mo      13.03375786      10.74627875      11.33389553
Mo      13.32946879      13.42738610      11.26894709
Mo      13.02405936       8.26297846      13.30465225
Mo       9.62664867      11.44141950      13.79515616
Mo      12.28705983       8.31476654      10.74477444
Mo       8.48628995      11.29192092      11.08504103
Mo      10.58583839       9.80576196      12.05138176
Mo      10.30555806       9.70299228      14.43485293
Mo      10.20951602       8.00617419       7.71977581
Mo      11.72549740       7.09361092      13.05182708
Mo       7.56207327       9.08596415      12.74559531
Mo      10.32985239       7.27389937      10.41417015
Mo       8.59602085       8.87945837      10.17522509
Mo       8.51404014       7.59751304      12.64708869
28
Properties=species:S:1:pos:R:3 config_type=qcd gap_pre_relax_energy=-253.61586603938372 gap_pred_energy=-256.9950638878283 gap_fmax_final=0.000984123975144807 gap_converged=1 pbc="F F F"
Mo      10.32041261      10.84554702       6.42156605
Mo      12.14190573      10.15860037       8.17858514
Mo      10.88423070      12.61532543       7.43177956
Mo      12.82563785      12.11545898       9.27032455
Mo      14.86671317       9.63294827       9.78117334
Mo       9.73124400       7.93249329       7.92593303
Mo       8.03805046      11.87635142       7.23822518
Mo      12.63147209       7.78241029       9.34697999
Mo       8.16425934       8.65681981       7.49781420
Mo      14.73229953      10.55115164      11.33850508
Mo       9.75912870      10.77323527       9.04566688
Mo       8.65471403      13.34855165       8.59185498
Mo      10.79265473      12.69191317      10.52709449
Mo      11.99996356      10.20476537      10.81517124
Mo      12.76542145      12.98866494      12.25597647
Mo      13.38308242       8.18067392      11.38575854
Mo       7.20417168      11.04316824       9.57906845
Mo       8.13856501      12.43410749      11.00523126
Mo      12.39678464       9.97988924      13.39210632
Mo      10.52070495       8.05457807      10.67617138
Mo       9.56697195      10.50701596      11.84140478
Mo      11.25639000      12.99158815      13.12821499
Mo       8.38482106       8.82802476      10.16843733
Mo      11.29336946       8.44246734      13.21004676
Mo       6.98237693       9.66911644      12.45885470
Mo       9.52290348      10.78867465      14.39374343
Mo       8.50658175      12.15495000      13.81024860
Mo       8.10372224       8.32006230      12.85261680
29
Properties=species:S:1:pos:R:3 config_type=qcd gap_pre_relax_energy=-263.0990724545585 gap_pred_energy=-267.16432319437513 gap_fmax_final=0.0009849479016532776 gap_converged=1 pbc="F F F"
Mo      17.85575973      12.71131396      14.16099317
Mo      14.69503378      16.45515436      12.26710418
Mo      13.76248101      15.30156148      14.57931708
Mo      17.01275963      11.04224065      13.60733186
Mo      15.86786372      17.60663050      14.46044490
Mo      12.05266254      10.35403861      13.74279899
Mo      11.23566693      11.76727617      12.61160986
Mo      16.15879995      14.68483113      15.84487703
Mo      11.12028350      14.54765185      10.84305872
Mo      14.18189045      13.32268084      16.70871326
Mo      12.70673952      12.59323932      14.36716830
Mo      11.03797864      14.41833457      13.77261400
Mo      16.34868893      12.92942570      11.55829791
Mo      14.30433163      11.36614287      12.51117189
Mo      16.41871552      15.12138984      13.03716330
Mo      12.01356154      16.83597537      15.60619466
Mo      11.89812625      14.17877611      16.25686995
Mo      12.41021272      15.55184908      10.11194132
Mo      13.60207425      13.93310417      12.22194604
Mo      16.08275775      11.53735711      16.67824507
Mo      11.55963692      11.54010799      16.74897207
Mo      15.49444171      13.07931665      14.15666251
Mo      10.18348933      12.12230813      15.75357941
Mo      15.42530407      14.50521292      10.43127675
Mo      14.34515268      18.39118250      14.07083895
Mo      13.65015126      12.49383583      10.51437528
Mo      12.16990565      16.20062761      12.75008808
Mo      14.60305390      10.81667424      15.84433317
Mo      13.66409421      16.45337816      16.64362995
29
Properties=species:S:1:pos:R:3 config_type=qcd gap_pre_relax_energy=-262.33907675472994 gap_pred_energy=-265.46251158402504 gap_fmax_final=0.0009243112565909773 gap_converged=1 pbc="F F F"
Mo      12.89710878       8.67821171      10.94130182
Mo      11.23337025       8.93914704      13.00005055
Mo      12.16911446       7.35894662       8.50661378
Mo      11.81285534       6.84063782      11.12020642
Mo      10.12590612       7.46830888       6.43152738
Mo      11.81385323      11.56011286      11.23242556
Mo      10.03852407       6.80323365      13.24313944
Mo      11.64936379       8.87246337       6.47534746
Mo      11.74410283       9.83644271       9.20911774
Mo      10.17539971       6.62879052       9.12363896
Mo       9.47115301      10.73475093      13.06788995
Mo       9.79234842       8.62665794      10.98804073
Mo       8.33313418       6.41688517      11.18329075
Mo       9.45143823       8.92453811       8.16545079
Mo       8.46180069       8.17587666      13.42918886
Mo       9.33287093      11.10730733       9.82135386
Mo      10.48151015      11.37263121       7.15933801
Mo      11.78158342      12.53674556       9.70782669
Mo       7.29119355       7.06072744       8.21634955
Mo       8.84233614      13.08069233      11.03180320
Mo       8.99290715      10.43872181       5.61268665
Mo       7.85003316      10.42490154      11.82266409
Mo       6.88069647       7.85431014      11.34849444
Mo       6.97926789       8.26049030       6.91649505
Mo       7.24754999       9.48069530       9.26135607
Mo       9.30781060      13.67933782       7.90555949
Mo       9.14186534      13.54299240       6.14833384
Mo       7.24317999      12.50435356      10.07912741
Mo       7.90948045      11.24284759       7.30313980
30
Properties=species:S:1:pos:R:3 config_type=qcd gap_pre_relax_energy=-272.20981510455545 gap_pred_energy=-276.7488213842105 gap_fmax_final=0.000927331478993225 gap_converged=1 pbc="F F F"
Mo      13.67993520       9.90676155      12.05882941
Mo      14.35455408       8.49980826       9.18207176
Mo      12.98156664      12.57567024      12.22115336
Mo      13.21236824      11.32807676       9.80349690
Mo      12.67672393      14.34594017       9.46949003
Mo      13.54871581       7.29187530      12.08813099
Mo      11.60293485      10.77973123      13.06170969
Mo      11.56846050      14.76243763      12.49854718
Mo      12.57799743       7.91664231      13.41720700
Mo      13.09241120       7.28252190       8.85931952
Mo      12.26330143       9.75569450       8.21061688
Mo      11.33613947      12.35534162       8.34941209
Mo      11.70616728       9.31549940      10.66932779
Mo      11.10000461      13.63379901      13.76276150
Mo      10.89117021      12.19645099      10.84402479
Mo       8.83111921      13.54966762      11.41381404
Mo      10.96817864      14.81787997       9.29739364
Mo      10.25315751       8.27163976       8.64895158
Mo       9.57319782      10.31312764       7.63832135
Mo       9.75202535       9.02693669      12.39858610
Mo      10.58569669       6.96298065      10.97824797
Mo       8.98169480      12.42986836       8.94661050
Mo       8.91412518      11.61170090      12.50220274
Mo       8.93438527      10.07587947      10.14271899
Mo       7.44505202       8.69288916       7.75007336
Mo       8.60010527       7.50066925      10.59979410
Mo       6.60464712       9.54552513      12.23779498
Mo       6.92231838      10.38664795       7.69541642
Mo       7.09099269      11.62994801      10.68166854
Mo       5.98711674       9.27465212      10.60857039
30
Properties=species:S:1:pos:R:3 config_type=qcd gap_pre_relax_energy=-272.66869103920374 gap_pred_energy=-275.3723468844779 gap_fmax_final=0.0009403523185158329 gap_converged=1 pbc="F F F"
Mo       8.54139798       7.05515963      10.35613497
Mo      11.14702258       6.95320489       8.46603137
Mo       9.21960330       8.53484561       7.53742983
Mo       7.36085033       9.71816198       9.22303874
Mo       9.96278684       7.33214210      11.59332335
Mo       8.07255154       9.45478034      11.42437494
Mo      12.11284619       8.55411293       7.79269850
Mo      10.10808149       9.35394428       9.77596178
Mo       8.72818082      11.49057911       8.44496609
Mo      12.27114914       8.33968497      10.45480322
Mo      12.52424696       8.54563226      13.30762641
Mo      10.31128372      10.19261985       6.75679753
Mo      10.19989866       9.99877537      12.84222400
Mo       6.67926004      11.96091904      10.54580782
Mo      14.16061542       8.91040333      12.14497561
Mo       9.42207795      11.75771043      10.90872556
Mo      12.16642634      10.77278514      11.56179006
Mo       8.01973567      13.74788977      12.36464560
Mo      12.15361902      10.94880668      14.51807704
Mo      13.94436410      11.15223041      13.49225916
Mo       7.69365089      11.83793658      12.99133950
Mo       7.66369249      13.60033754       9.74330556
Mo      11.52273475      11.26579905       8.79769255
Mo      10.74955764      14.00842133       8.97222627
Mo      14.25200937      10.58927131       9.23614488
Mo      15.06918289      11.51911908      10.51185861
Mo      10.44488390      12.56922067      13.29038718
Mo      10.72681839      14.43819710      10.72434791
Mo      12.46448052      13.15152643      12.62510023
Mo      12.81132177      12.75011347      10.10023641
31
Properties=species:S:1:pos:R:3 config_type=qcd gap_pre_relax_energy=-283.2989988615361 gap_pred_energy=-287.4724629680013 gap_fmax_final=0.0009436258225830883 gap_converged=1 pbc="F F F"
Mo      12.83025955      13.73133643      16.79546080
Mo      11.23832156      14.66478426      15.48979496
Mo      17.05257006      14.08648627      11.52330662
Mo      14.62439506      14.16702192       9.32845272
Mo      14.66818806      11.12805298      13.28796460
Mo      11.83104891      17.31235034      14.78118234
Mo      10.88798200      12.14736793      12.02504049
Mo      11.68551509      10.83904603      13.35272019
Mo      15.67963660      16.37394762      12.92835744
Mo      14.85371594      13.15460319      15.37265543
Mo      12.79019628      14.24119404      11.20378942
Mo      17.33859874      12.09450864      14.01047700
Mo      14.63402708      11.75446666      17.47793643
Mo      13.58206468      11.77768135      11.38537100
Mo      16.95431724      13.73848369      16.76779674
Mo      15.87105144      17.66676461      15.28540534
Mo      10.46992248      12.14978120      16.11809436
Mo      13.52334808      11.04442829      16.11541448
Mo      14.65298541      15.76952673      10.03432135
Mo       9.44309856      12.74123237      14.83526292
Mo      16.50471572      12.30377865      11.08897100
Mo      14.91787547      13.71872194      12.54484040
Mo      16.70957482      10.87864880      15.16941052
Mo      16.67358441      15.04177353      14.43133478
Mo      13.03803052      16.44395815      12.37248272
Mo      15.47410941      14.95615031      17.07801811
Mo      10.96710236      14.89957184      13.02141483
Mo      14.75451383      18.52517302      14.24631109
Mo      12.88635219      16.83232472      16.35766279
Mo      13.65824777      15.46538823      14.47582658
Mo      12.49494906      13.04174461      13.78522097
31
Properties=species:S:1:pos:R:3 config_type=qcd gap_pre_relax_energy=-281.50829344579137 gap_pred_energy=-286.0727923956355 gap_fmax_final=0.0005459930506301378 gap_converged=1 pbc="F F F"
Mo      13.54872222      12.61690585      10.04704726
Mo      13.08262441      11.87875481      14.47166060
Mo      15.58362956      13.20128976      11.63830018
Mo      15.64044370      13.14682557      14.40145947
Mo      13.45155791      13.99986724      12.85340293
Mo      14.09820807      14.25745947       9.67549953
Mo      11.14488401      14.61771943      11.15498546
Mo      15.91955558      16.10655516      11.76983488
Mo      13.14423885      16.31894529      11.42799147
Mo      11.20304648      14.13537940      14.26603576
Mo      15.68076201      15.62680927      14.37580726
Mo      12.97827937      16.46787872      14.02168826
Mo      13.53529031      12.30917593      17.29405314
Mo      16.00952210      13.20040350      17.03019084
Mo      13.46738297      14.46233237      15.69573578
Mo      13.71917308      14.01816858      18.47505009
Mo      11.36845051      14.32224558      17.17309724
Mo      15.65120264      15.34125715      17.04238485
Mo      13.12955319      16.71787739      16.84813718
Mo      18.02024373      14.59424513      15.06908612
Mo      17.81418474      14.00032806      13.33939214
Mo      14.58874539      17.58484423      15.67217162
Mo      15.36096379      17.65642707      12.48341576
Mo      14.86671582      10.82478216      12.17449844
Mo      15.69864105      10.81362179      15.36835614
Mo      10.94901265      16.21731040      15.17086356
Mo      10.62252909      16.12434815      11.94925245
Mo      11.11517838      12.46496379      16.26342903
Mo      11.93709439      11.95755356      12.70212273
Mo      16.63982462      10.96435255      12.23897672
Mo      17.43029034      11.45132359      15.30602408
32
Properties=species:S:1:pos:R:3 config_type=qcd gap_pre_relax_energy=-292.49038563455395 gap_pred_energy=-294.96631858538444 gap_fmax_final=0.0008964815248611095 gap_converged=1 pbc="F F F"
Mo      13.78252802      14.20165226      15.78068724
Mo      16.31613805      14.63195297      15.60629625
Mo      11.25827466      13.92989234      15.93960217
Mo      15.04112414      16.93360066      15.57462248
Mo      12.80008505      16.66703556      15.94753317
Mo      14.67790124      11.70511798      15.44944560
Mo      12.06618925      11.78256769      15.48642390
Mo      17.50667849      12.23709225      15.31272746
Mo      17.21050498      11.94914313      11.61620777
Mo      13.48907658      14.41732283      11.40362000
Mo      16.14312840      14.56555543      11.52306844
Mo      10.66366785      14.20489739      11.76359516
Mo      14.96075760      17.10776531      11.37225383
Mo      12.37507055      16.99178398      11.72543494
Mo      14.53706668      11.97410117      11.40713473
Mo      11.73176543      11.86784019      11.32111531
Mo      15.50783305      13.18222147      13.56025523
Mo      12.69393629      13.12273286      13.43528647
Mo      18.15148566      13.30876467      13.63283129
Mo      10.05610114      13.06865041      13.45225334
Mo      13.79821455      10.71765840      13.15860400
Mo      11.13987657      10.75614182      13.01951556
Mo      16.61882450      10.81184950      13.27952395
Mo      14.21499152      15.71293266      13.48994703
Mo      16.84489116      15.83198924      13.31814975
Mo      11.61994916      15.51693022      13.90635439
Mo      13.04449851      18.06703464      13.41328173
Mo      15.61746302      18.16977351      13.07679056
Mo      13.33058579      12.71432002      17.90184214
Mo      15.40899157      12.92474776      17.72999777
Mo      14.58473345      15.43092096      17.95201277
Mo      12.50528286      15.19362648      18.14120134
32
Properties=species:S:1:pos:R:3 config_type=qcd gap_pre_relax_energy=-292.1011117479501 gap_pred_energy=-294.90747948811435 gap_fmax_final=0.000982877383599711 gap_converged=1 pbc="F F F"
Mo       9.42929612       6.32923107      13.99450970
Mo       8.55473218      10.81600387      11.07551498
Mo       9.10625729       9.08757832       8.78662624
Mo      11.09651900       6.86643216      13.94315051
Mo       8.66826555       6.39065417       9.55413460
Mo       6.96608414      12.07672606       7.10804822
Mo       6.71521005      10.66363087       8.15076022
Mo       7.70798630       6.24751526      11.26926260
Mo      10.48926902      14.93871292       7.98737399
Mo      12.06042020      12.48456285       7.52588400
Mo      13.44786116      11.49092730      11.84027294
Mo       9.58275145       8.38723165      11.56303243
Mo       7.25791876       8.63255365      10.11625546
Mo      11.32891103       7.63213075       9.27608029
Mo       9.18859902       9.57218422      13.76124408
Mo       7.59573734       8.87817792      13.11341286
Mo      13.62279608       8.82134591       8.85275042
Mo      11.40606356      10.11030574      10.23841143
Mo      11.62570657      12.70645495      10.06014414
Mo      14.24603672       9.63850675      11.39386060
Mo       8.77052809      14.74205981       7.65717978
Mo       9.01841509      10.44290314       6.78774830
Mo      12.44924279       7.60815138      11.26209961
Mo       7.51626680      13.11539038      10.10050422
Mo      10.39622658       6.05768891      11.53916849
Mo      11.47013002      10.11610119       7.52041282
Mo      10.10430300      12.76173793       6.43704795
Mo      13.63496991      10.94851009       9.21585547
Mo       9.14275116      13.78114841      10.77042833
Mo       9.55476735      11.98065380       8.84447662
Mo      11.91307221       9.63131674      12.72793813
Mo      10.57779628      11.68836267      12.17130140
33
Properties=species:S:1:pos:R:3 config_type=qcd gap_pre_relax_energy=-301.78245022924824 gap_pred_energy=-305.2086277972453 gap_fmax_final=0.0007270442522671019 gap_converged=1 pbc="F F F"
Mo      12.62173005      11.66791820       8.95217702
Mo      11.41230714      10.24012339       7.54487516
Mo      10.37440433      12.88318794       8.55040586
Mo      13.55283536       8.76481686       7.51263389
Mo       8.95681120      11.40627627       6.50152716
Mo      10.45389712      14.97931908      10.13261780
Mo      14.59579471      10.01656160      10.27864686
Mo      12.06454620      14.61111125       9.46103220
Mo       9.27773616       8.70020589       6.77696708
Mo      12.22110893       7.66416089       7.89107106
Mo      13.51733718      12.41077481      11.37451355
Mo       7.65161173      11.95677900       7.93563532
Mo      10.97217294      12.03108952      11.09113212
Mo       9.34796964      10.47978811       9.14445645
Mo      12.39461050      14.39083971      12.66986710
Mo      13.94463250       8.28273177      10.71878666
Mo      12.58108201      13.02611137      13.75704407
Mo       9.47374430      13.19435941      12.66293376
Mo       8.46128798      12.68661463      10.74882129
Mo      11.84463561       9.49142867      10.12187887
Mo      12.88049484      10.38247026      12.36391301
Mo       7.54851583       9.22959472       7.71543210
Mo       9.51260124       7.88520123       9.35447393
Mo       9.47166459       9.31337641      11.60790409
Mo      10.37793036      10.79376315      13.35302437
Mo       7.18157210      10.36067206      10.63252124
Mo      11.21919153       6.89142619      10.89453321
Mo       7.84826971      11.02352824      12.78753980
Mo      11.45375428       8.07439667      12.66901376
Mo       7.25422106       7.69557583      10.50850533
Mo       8.64121506       8.57345814      13.99035327
Mo       6.87010916       8.67960691      12.97582439
Mo       8.67481369       6.86734088      11.97454728
33
Properties=species:S:1:pos:R:3 config_type=qcd gap_pre_relax_energy=-301.09387940104773 gap_pred_energy=-304.9181968029396 gap_fmax_final=0.0006643619100755247 gap_converged=1 pbc="F F F"
Mo       6.82691850       9.71570801       9.85556332
Mo       7.76170545       8.04368638       9.66422314
Mo       7.94369799       9.81623918       7.49416184
Mo       7.44432661       8.63687173      12.83099789
Mo       6.40710401      12.01013351       7.57911233
Mo       7.87467515      10.38419379      12.88316777
Mo       7.84125062      12.37361822       6.61021555
Mo       7.24980626      12.65847378      10.64631183
Mo      10.00166953       8.52452581      13.18068576
Mo      10.48701931      10.45654424       6.22416743
Mo       9.55520773       9.56763186      10.96728603
Mo      10.04037885       8.86369714       8.22600177
Mo      10.38286632       7.37316416      10.78896173
Mo       9.03113918      11.40422512       9.07133112
Mo      10.66773364      11.09365913      14.38076006
Mo       8.24532566      13.80473235       9.60097738
Mo      12.35754968       7.64112359      12.54056158
Mo      12.22045546       8.27934466      15.11257677
Mo       9.81347380      12.33907788      11.73301816
Mo      12.09087414       8.68501202       9.87467854
Mo      10.61582477      13.14511446       7.95203023
Mo      11.60183887      11.42878804      10.07555465
Mo      11.24737876      13.94771028       9.84834589
Mo      11.99679469      10.11959205      12.43944229
Mo      11.98417335      10.30441384       7.16219184
Mo      13.40463886      12.98327896       8.31152427
Mo      11.94659480      12.78506879      12.36320249
Mo      12.51574413      11.50121211      14.65231837
Mo      13.85502885       8.56120664      14.53176952
Mo      14.42988286       8.86062271      11.43672081
Mo      13.83830128      13.23268135      10.19264501
Mo      13.79720036      10.61891730       9.48852504
Mo      14.42717042      10.74348085      12.18471954
34
Properties=species:S:1:pos:R:3 config_type=qcd gap_pre_relax_energy=-312.0012198794388 gap_pred_energy=-315.0313241457656 gap_fmax_final=0.0008950049275176279 gap_converged=1 pbc="F F F"
Mo      11.57052903      17.04702992      13.23523215
Mo      14.46771102      10.07223664      13.23839199
Mo      13.88238837      15.69566575      17.88312896
Mo      17.30800037      13.10321186      14.33311481
Mo      17.86839968      17.02806533      13.16911237
Mo      13.11504115      17.11366689      11.02297730
Mo      16.09318296      13.74897921      11.71897792
Mo       9.95873587      15.68115678      14.86742459
Mo      11.27229129      16.16905167      10.76198121
Mo      12.97684228      12.74492823      17.18390564
Mo      12.99975854      14.32664326      14.99780665
Mo      13.40580237      14.86754959      12.34303020
Mo      10.75791279      13.19772417      15.51291843
Mo      10.89750241      14.54343711      13.10550057
Mo      13.72800267      14.71548291       9.89127582
Mo      17.88361003      13.21182293      17.50928722
Mo      11.93374567      13.68393469      10.48797420
Mo      14.55086359      12.48683916      13.69089053
Mo      16.85599061      14.54615003      18.11306299
Mo      15.33232204      13.43496892      16.26512767
Mo      17.50891421      15.05218869      15.54707305
Mo      12.18339342      12.20026506      12.94526877
Mo      14.82398946      16.56989532      16.66890301
Mo      15.39899358      11.12145113      17.50341426
Mo      16.12116780      10.79782059      12.63855045
Mo      16.18809476      10.91084656      15.87727637
Mo      11.00837709      14.62783534      17.12827240
Mo      18.31758177      15.50774699      12.42136587
Mo      12.14659864      16.53418286      15.90579821
Mo      12.95635446      11.40102170      15.56521004
Mo      15.73571552      16.11205877      11.80186956
Mo      13.71025721      16.97006354      13.83890388
Mo      13.97484296      12.13809939      11.28278680
Mo      15.62429692      15.19518952      14.10139659
34
Properties=species:S:1:pos:R:3 config_type=qcd gap_pre_relax_energy=-311.26206803701024 gap_pred_energy=-315.3034082292702 gap_fmax_final=0.0009024427963899137 gap_converged=1 pbc="F F F"
Mo       9.55820196      11.08185846       8.69262854
Mo       7.24010706       8.60852424       8.47507875
Mo       6.95267612      11.65374335       9.37672653
Mo      11.58937244      12.58706534       8.12280160
Mo      14.25789259      11.72262610       7.61512636
Mo      10.54762457      11.91952407      10.91696589
Mo       9.81774493       8.44271722       9.19542639
Mo      13.93632203      14.71515789       8.81508044
Mo       6.35199413      10.58753005      10.91624121
Mo      12.05975399       9.92148071       8.34963923
Mo       7.27654565       7.58921634       9.88839460
Mo       8.80768785      10.06922719      10.88012134
Mo      11.76846537      14.10921992      10.13174017
Mo       9.03168325      13.50364669       9.78341440
Mo       8.15457047      12.58919563      11.65236703
Mo      15.43982295      11.85386992       9.19106949
Mo      13.06556977      11.79941991       9.97100961
Mo       7.70292666       8.48772872      13.00210728
Mo      14.08771497       9.40475576       8.89883506
Mo       7.84667203      10.11997746      13.76718757
Mo      14.27502976      14.63939236      10.54715111
Mo      10.08975553       7.49553057      11.09938609
Mo      10.54131750      14.71389356      12.40237815
Mo      11.88565292       9.26912387      10.78478953
Mo      12.23418508      14.15493763      12.68440915
Mo      12.54411782      11.04435085      12.75038506
Mo      10.09190002      11.93176587      13.57339667
Mo      10.21187208       9.45086851      13.01543123
Mo      14.62858714       9.97450402      11.58557633
Mo      13.08045888       8.75920683      13.62952447
Mo      14.75217952      12.00741355      12.30024180
Mo      11.99826606      12.29161637      15.29753270
Mo      11.22010449      10.67683716      15.54932612
Mo      14.21951669      10.09036619      14.40480240
35
Properties=species:S:1:pos:R:3 config_type=qcd gap_pre_relax_energy=-320.72861589663563 gap_pred_energy=-325.07451626161117 gap_fmax_final=0.000856332270957132 gap_converged=1 pbc="F F F"
Mo      11.31225843       8.88971202       6.69368393
Mo      13.11572060      10.94155969       6.62822938
Mo      13.68671597       9.33415522       7.92082731
Mo      10.47492573      10.77303943       6.69295480
Mo      14.50793369      11.95577540       8.67366923
Mo      11.98769986      12.50566135       8.35463741
Mo      11.90576520       6.88701199       9.13027972
Mo       9.51517745       9.06193784       8.59401413
Mo      11.62588981      10.06858179       9.30076599
Mo      12.91365275       7.43629319      10.46592635
Mo       9.32065816      11.69749795       9.26135995
Mo      11.78693708      12.35030860      10.89710177
Mo      14.90022023      12.98239852      11.13375790
Mo      13.47371412      14.06746613      10.05029690
Mo      10.29732990       8.21376358      10.79664244
Mo      14.05662836      10.47747232      10.33793246
Mo       9.79184576      13.71143917       9.60273893
Mo      12.26326912       9.73804498      12.14845488
Mo      11.70995085      15.23297212      11.73472943
Mo       7.60085898       9.42807545      10.66224323
Mo      13.69406323      11.46505058      12.97919006
Mo      13.10454378      14.66691802      12.70140100
Mo      11.22074151      12.23303669      13.51005290
Mo       7.14302984      12.55815822      11.31566920
Mo       9.73625712      10.61158536      11.61284905
Mo       7.96411694       8.65857891      12.28491796
Mo      10.69363729       8.63972222      13.94455033
Mo       9.40704617      13.22266632      12.16141709
Mo      12.35332689      10.55950890      14.91607777
Mo      10.44571961      14.46861077      14.55553916
Mo       7.31819316      11.80326757      12.94234313
Mo      13.29293125      13.05681200      15.51584080
Mo       9.25649128      13.17634027      15.00737680
Mo       9.70151217      10.21243142      14.47469273
Mo      12.00285854      12.49576687      16.57945676
35
Properties=species:S:1:pos:R:3 config_type=qcd gap_pre_relax_energy=-320.80379843323954 gap_pred_energy=-322.82265629392765 gap_fmax_final=0.0008203625838466388 gap_converged=1 pbc="F F F"
Mo      13.74156728      13.22752761      11.11886809
Mo      13.34087354      10.42171940      12.75280613
Mo      14.11859914      10.80416618       9.93732924
Mo      11.50712314      13.04674953      12.81236342
Mo      13.17135071      13.25243859       9.19758340
Mo      10.97521881      13.63212192      10.66390815
Mo      10.55888851      10.75520636      14.26404342
Mo      13.52311417       8.84185564      11.58061164
Mo       9.05740601      12.89948454      14.64315719
Mo      11.76486967      11.16296220      10.91618553
Mo      10.88823264       9.14756919      12.14987410
Mo      13.21032550      10.74751855       7.81758049
Mo      14.47224780       8.40444703       8.47668755
Mo       8.64928622      14.15762890      12.33820339
Mo      10.83860240      11.72979747       8.45378790
Mo       9.27328058      11.69946651      12.20382554
Mo       7.17344630      12.29743525      14.04815257
Mo      12.93513639       6.48181053       9.42528893
Mo       8.57296001       9.99222507      14.05148763
Mo      11.76349842       8.89669855       9.33845639
Mo      12.90449205       8.18241761       7.06803867
Mo      10.68514149       6.92940172      10.81569240
Mo       8.63134561      12.61563615       9.76796612
Mo      11.23724274      10.32455506       6.21467799
Mo       6.84079981      13.30276646      11.65281826
Mo       9.23313518      10.02844108       9.86717435
Mo       8.39833933       8.30606090      11.75730592
Mo       7.02724596      10.56474402      11.66992077
Mo      11.38230617       6.32173872       8.09929438
Mo       8.86799437      11.37426288       7.25861912
Mo      10.12024364       8.85028496       7.31300094
Mo       6.57836432      11.12413652       9.21710215
Mo       9.14230306       7.41779669       9.36375994
Mo       6.70944014       8.39404935      10.36832677
Mo       7.46454153       9.42384147       8.13506416
36
Properties=species:S:1:pos:R:3 config_type=qcd gap_pre_relax_energy=-330.64520789337524 gap_pred_energy=-334.5344901996934 gap_fmax_final=0.0009455801388532442 gap_converged=1 pbc="F F F"
Mo       9.49472732       8.26643909      14.49817895
Mo      10.31397004      10.96626164      14.20618187
Mo       7.93831863      10.36749276      12.81648197
Mo       8.83679421      12.55450878      12.30089066
Mo      11.39113365       8.21686503      14.44757119
Mo      10.95984545      13.62905751      13.96623911
Mo      10.31920935       6.06454867      12.23139936
Mo      12.56390171      11.09608267      14.12853228
Mo       7.94877216       8.04731896      11.77279385
Mo      13.18256046       9.43458089      12.26332126
Mo       6.52765398      12.26622630      11.25677090
Mo       9.02441689      10.54488676      10.44889460
Mo       6.41644073      10.30974271      10.64930397
Mo      11.39559606      11.77068451      11.84906930
Mo      11.93626709       6.51670115      11.66627047
Mo      10.89421278      14.31868892      11.15048217
Mo      10.50547636       9.20893829      12.36917968
Mo      12.77732160      13.57080193      13.04788333
Mo      12.73533309      14.10068040      10.20654738
Mo       7.52019630      11.78489454       8.72428121
Mo      13.83908714      11.45946105      11.42264230
Mo      10.92573288      12.40014507       9.36174204
Mo      13.30867137      11.68527308       8.76536636
Mo      11.68513894       9.77315762       9.78307256
Mo      14.14839331       9.31496306       9.60338614
Mo       7.70639011       8.20725677       9.63140198
Mo      10.53991208      14.91197634       7.94287481
Mo      10.09859567       7.72101173      10.11827096
Mo       9.41055785       9.90667551       8.14004367
Mo       8.52621309      13.39947194       9.80036900
Mo      12.43234047       7.37945888       8.99816566
Mo      11.84778400      10.88455806       7.07066105
Mo      11.83755052      14.03638540       7.07090300
Mo      13.77534837       9.22047120       7.54389774
Mo       9.73188693      12.43002100       7.25193231
Mo      11.37220971       8.10227215       7.36295726
36
Properties=species:S:1:pos:R:3 config_type=qcd gap_pre_relax_energy=-329.96083952300233 gap_pred_energy=-334.13626939287434 gap_fmax_final=0.0009087893188181778 gap_converged=1 pbc="F F F"
Mo      14.11052347      13.21103234      11.79331129
Mo      14.26600937      12.89237206      14.85396021
Mo      16.88995219      14.02150227      12.64664366
Mo      16.79307669      13.86096734      15.17014531
Mo      14.75553085      15.32082807      13.70427657
Mo      14.56864670      14.66274684      10.78950607
Mo      12.62841260      15.21717115      12.55947753
Mo      16.46944750      16.71845796      12.30293581
Mo      14.41143095      17.43011703      12.44620637
Mo      12.44895253      14.69566224      15.21933581
Mo      16.77947033      16.81286676      15.05685145
Mo      14.53553929      17.92334652      15.20370031
Mo      13.72693198      12.99589361      17.16960913
Mo      16.11696053      13.89936507      17.71080340
Mo      14.78495393      15.61493721      16.46611942
Mo      14.95332796      15.88238914      19.40250170
Mo      12.72859248      14.95659307      17.90065107
Mo      16.91640300      16.47400325      17.68606412
Mo      14.29479120      17.34282307      18.36039347
Mo      19.15112471      15.22346374      16.42364127
Mo      18.41717730      15.54980294      13.84741709
Mo      16.75643308      18.95902832      17.02460801
Mo      16.79627627      19.12697936      13.78163008
Mo      16.37272568      11.53853050      13.43490480
Mo      16.39784891      11.42805246      16.70703133
Mo      11.94959152      17.46311735      16.17157634
Mo      11.95389570      17.41060678      14.42477061
Mo      10.83022397      13.11496752      16.97182266
Mo      11.65392294      12.62804364      13.79647840
Mo      18.09422637      11.88063782      13.87318949
Mo      17.98902723      12.16739466      17.10599937
Mo      18.44106897      18.34586697      13.33916463
Mo      18.45053140      18.40228767      16.57591801
Mo      10.39105225      13.91917162      13.79666892
Mo      10.21773248      14.82440503      16.87418087
Mo      19.88245752      14.00883852      15.33277532
37
Properties=species:S:1:pos:R:3 config_type=qcd gap_pre_relax_energy=-339.88827728850015 gap_pred_energy=-344.6588208427907 gap_fmax_final=0.0008766934805488172 gap_converged=1 pbc="F F F"
Mo      13.98716596      12.90277944      11.84944892
Mo      14.12824891      12.77531617      15.07454073
Mo      16.65228997      13.49556640      12.44780512
Mo      16.98937234      13.63958834      15.01794314
Mo      14.85942268      14.77521324      13.56831022
Mo      14.77982180      14.14448605      10.69769379
Mo      12.54802244      15.26987025      12.26820093
Mo      16.56772259      16.27517721      12.41103238
Mo      13.83578143      16.82786943      12.19551855
Mo      12.58778320      15.32680449      14.93952430
Mo      16.76207393      16.45983919      15.12898361
Mo      14.22082686      17.70155489      15.24046255
Mo      14.13740167      12.93390977      17.47639509
Mo      16.67028846      13.77230488      17.80224476
Mo      14.83875545      14.98918969      16.44361978
Mo      14.55138057      15.52637129      19.46200799
Mo      12.55726691      15.17786481      17.69327895
Mo      16.56212012      16.64103922      17.75562674
Mo      14.12618498      17.07752521      18.45591921
Mo      18.42104603      14.94698603      16.86896792
Mo      18.32624307      15.36588258      13.22510653
Mo      15.98615746      19.17841116      17.47418951
Mo      15.48413117      18.62790144      14.34553687
Mo      16.00776667      11.12095615      13.60531805
Mo      16.28295560      11.72843899      16.24428948
Mo      11.58452771      17.52548698      17.13301034
Mo      11.30546118      17.19735164      13.94028385
Mo      11.35901894      13.32142281      15.83660120
Mo      11.66527337      12.79270360      14.10088140
Mo      17.82443248      11.36144061      13.94933302
Mo      19.39377790      12.57724191      16.50869632
Mo      18.55395743      18.07410778      13.93496501
Mo      17.59768789      18.89215258      16.89949653
Mo      19.42174145      16.94142253      15.13250088
Mo      19.84260923      13.65517719      15.10481857
Mo      10.30545331      16.32085387      16.94663206
Mo      10.26005175      15.64401507      13.80503859
37
Properties=species:S:1:pos:R:3 config_type=qcd gap_pre_relax_energy=-340.4956489722645 gap_pred_energy=-344.8914549560003 gap_fmax_final=0.0009484518989519696 gap_converged=1 pbc="F F F"
Mo      10.65775006       6.47042448      12.41699109
Mo      13.06798993       8.50404715      11.61150482
Mo      11.42727065       9.14570185      13.64880433
Mo      12.10925149       6.69734561       9.48585194
Mo       9.01942767       8.52942262      12.18064373
Mo       9.42232738       6.15405686      11.21437988
Mo      13.00849562      10.02283358      13.93835870
Mo      15.31088950      10.75919704      11.71242287
Mo      10.83772978       8.84395918      10.35435016
Mo      12.78286073       9.27409005       8.60617050
Mo      12.39112226      10.86049002      11.29150333
Mo       8.70238985      10.87552854      13.78097722
Mo      10.64488313       7.30852684       8.44104682
Mo       6.96288401       8.85644784      10.33805998
Mo      10.63819020      11.58958213      15.59131965
Mo      13.65028673      13.09019053      13.01318590
Mo      12.93210252      13.21059650      14.67913738
Mo      15.21953394      10.16596775      10.02493379
Mo       9.49840205      10.97494986      11.32432331
Mo       9.09663952       9.86154245       8.61337972
Mo       6.46709557       9.62746317      11.86051703
Mo      11.03873008       9.96839036       6.71218891
Mo       9.87277558      13.28634441      15.02727720
Mo      10.95662274      12.25040202      13.13412260
Mo      13.82263896      12.37530984      10.15978979
Mo      13.54166123      11.24305937       7.78380637
Mo      11.34824385      15.33625932      12.88695732
Mo      11.25311480      11.52159975       9.00029830
Mo       7.51844842      11.43787129      10.05590074
Mo       7.88044136      12.42704521      12.69671810
Mo       9.03009979      11.98169996       7.81965310
Mo      11.54426653      13.67626003      10.78207583
Mo       9.30061881      13.30358827      10.12734036
Mo       9.72848491      15.06279065      12.27173207
Mo      11.35560198      11.97381889       6.46813009
Mo      12.67310720      14.33137796       8.33925873
Mo      10.94639368      14.66059115       8.26566084
38
Properties=species:S:1:pos:R:3 config_type=qcd gap_pre_relax_energy=-349.34477175634214 gap_pred_energy=-353.1194828830649 gap_fmax_final=0.0009654853168531746 gap_converged=1 pbc="F F F"
Mo      10.61586339      10.07258234       7.76920229
Mo       7.80983387      10.77995000       7.40285264
Mo       8.18220807       8.98721130       7.70665595
Mo      12.10943777      14.37765279       6.84064379
Mo      12.87826619      11.40552015       7.51700232
Mo      10.23869198      12.50155811       7.04753502
Mo      13.97269336      12.66250433       8.89405591
Mo       5.99879506       9.68950079       9.91600485
Mo      13.00083046       8.72545903       8.53980225
Mo      10.18443150       7.59906872       9.80242698
Mo       9.06211203      10.60374996       9.66236956
Mo      10.58949018      15.08159609       7.45526543
Mo       8.56341619      13.14489601       9.04851667
Mo      11.34264844      12.78343252       9.23792497
Mo      14.37884848      10.04059913       9.47640563
Mo      12.53748992      14.87015474      10.03020590
Mo      11.93687784      10.36228729      10.11071488
Mo       5.97992741      11.44512560      10.07763594
Mo       8.51339658       7.68674716      10.61198119
Mo      12.75115697       8.20841523      11.31465572
Mo       9.75599590      14.34492781      10.50947861
Mo      13.26028919      12.26553264      11.48598643
Mo      10.47518995      12.13935874      11.73620424
Mo      14.35194108       9.78432111      12.22973257
Mo      12.01936984      14.41763337      11.94996399
Mo       8.11941129      12.49878948      11.71224433
Mo       9.99094924       9.26596938      11.80330001
Mo      12.07397168      12.60909060      14.09567602
Mo       7.59913194      10.27453138      11.95635477
Mo      13.35067332       7.44633529      13.73755761
Mo      12.06218618      10.17615664      13.13224157
Mo      13.98205732      11.88717994      14.23284048
Mo      10.71550293       7.35918511      12.83487550
Mo       9.46153032      11.36330181      13.95172950
Mo      13.85629747       9.15969536      14.80370904
Mo       9.17958256       9.27007219      14.21564564
Mo      11.33268210       8.14353532      15.31431274
Mo      11.47766023      10.27721070      15.54712732
38
Properties=species:S:1:pos:R:3 config_type=qcd gap_pre_relax_energy=-349.2761731747387 gap_pred_energy=-353.0179252902314 gap_fmax_final=0.0008677860364450576 gap_converged=1 pbc="F F F"
Mo       9.98241086       6.98851155       8.02838155
Mo      11.69283305       8.20410766       7.68940841
Mo       9.54805359       9.54548722       6.76093087
Mo      11.50737636      11.41398661       7.68254105
Mo      13.44557771      10.35073792       8.18633638
Mo       8.07655032       8.75832829       8.14562759
Mo      11.02043132       7.15297717      10.20239535
Mo       8.74637523      11.82413053       8.18997291
Mo      15.31471296      12.78261409       8.10095573
Mo      13.79335760      13.59878685       8.31669303
Mo      13.07262924       8.68814273      10.27556881
Mo      10.35943399       9.62427540       9.27392137
Mo       7.45467077      10.68940680       9.77858465
Mo      10.99266117      13.46861022       9.13422725
Mo       8.42883391      14.28857462       9.13932538
Mo      14.57989876      12.56532877      10.74540250
Mo      15.15095490      10.58991334      10.22907548
Mo       8.87483471       7.99854566      10.73853621
Mo      10.05312707       6.60469541      12.84561067
Mo       9.52339005      11.90116361      10.69727331
Mo      13.02502962       7.77520785      12.22437121
Mo      12.32844813      11.40537782      10.35057604
Mo       9.66233887      14.24758810      11.58795930
Mo       8.35352784      10.09757121      12.19032322
Mo      12.30399019      14.02978910      11.02048264
Mo      10.96395594       9.60713771      12.02566023
Mo       7.24851186      13.27775156      10.36587009
Mo      13.56942381      10.43012671      12.50566225
Mo       7.73231517      12.53876480      13.45509426
Mo       8.83472299       7.67112443      13.53481389
Mo      13.43044575      13.08732953      13.19058403
Mo      11.15163053      12.37903752      12.84726264
Mo      11.72518663       8.95533693      14.39662450
Mo       9.67354013      10.78471283      14.09373718
Mo      12.34027026      10.89259409      14.68707348
Mo      11.57091362      14.99201927      13.90159197
Mo       8.86268376      13.30652791      14.55106158
Mo      11.93860749      13.81733438      15.24413915
39
Properties=species:S:1:pos:R:3 config_type=qcd gap_pre_relax_energy=-359.2526916571243 gap_pred_energy=-362.7954785964618 gap_fmax_final=0.0008100906876103667 gap_converged=1 pbc="F F F"
Mo      11.98910086      13.91372716       9.83680026
Mo      10.73373618      12.93047829      13.92687218
Mo      13.65384271      14.82127102      11.08097040
Mo      10.79105115      14.74375555      11.96961707
Mo      13.00965551      12.36554226      14.53858141
Mo      13.12297513      12.76171839      11.97683230
Mo      14.06550012      14.27234713       8.01807141
Mo       8.27022086      14.56918930      11.32987131
Mo       8.64673594      11.63575628      14.85353788
Mo      10.18161334      12.40890452      11.40850687
Mo      14.45128587      12.23748927       9.45779935
Mo      11.64845544      10.44772396      12.72400199
Mo       8.02855627      10.69523475      12.18201267
Mo      13.61268484       9.23535793      14.44003355
Mo       8.04554823      12.93687035      13.81330516
Mo      12.29392796       8.03027023      14.56438079
Mo      11.26023061      10.36064819      15.03260283
Mo       9.24092476      14.94406836       9.82849984
Mo       9.51388071       8.99340547      13.43118682
Mo       7.59332095       8.09233839      11.69594498
Mo      12.77804194      15.04441157      14.25397786
Mo      15.33012978      11.75417825      13.46493844
Mo      10.41658013       7.43419075      12.02383425
Mo       9.83904733       9.67550470      10.72700240
Mo       8.10911011      12.04833926      10.00640879
Mo      12.58846648       8.46068163      11.47395200
Mo      12.18176319      10.97900412       9.94931506
Mo       6.96300384       9.71771012       9.82510870
Mo      14.47371946      14.62214634      14.25452391
Mo      12.70560673      12.99699610       7.44053129
Mo      10.07376169      12.04407573       8.68916235
Mo      14.39280518      10.43383815      11.60194093
Mo       8.65592306       7.43971845       9.98204706
Mo      11.41526428       9.98794969       7.80601679
Mo      14.03029216      10.56215070       7.49065201
Mo      11.31535387       8.18133274       9.24137320
Mo      15.76784403      12.96260337      11.85945463
Mo       8.64152888       9.71698314       8.49365808
Mo      13.90728156       9.28085953       9.04544431
39
Properties=species:S:1:pos:R:3 config_type=qcd gap_pre_relax_energy=-358.2310116569961 gap_pred_energy=-361.94212708269583 gap_fmax_final=0.0009427232053243935 gap_converged=1 pbc="F F F"
Mo      12.86592000       7.03044116      10.01845315
Mo      14.59724514       9.25445028      11.42940644
Mo      13.87117039       9.75344265       8.67998761
Mo      11.64601657       8.63167797       7.91299189
Mo      14.50743492      11.21375761      12.76382712
Mo      14.30493598       8.78119984      14.25453068
Mo      13.52729385       7.51671317      13.13244894
Mo      13.41369913      12.28233262       7.63048960
Mo      13.56300112      11.69841805      10.58891559
Mo      12.32524600      11.04475832       6.47476468
Mo      10.93155631       6.74358934       9.65850319
Mo      12.04586422       9.27296812      10.54336821
Mo      12.34321153      10.11492723      13.07250255
Mo      12.59286231      12.37835215      14.33912572
Mo      11.32839959      11.20601749       8.64616559
Mo      12.82580665      13.52331683      12.45058149
Mo       9.47292375       9.27629198       9.39880113
Mo      10.53807131      13.63329236       7.29415822
Mo      11.70668966      13.68834392       9.63532789
Mo       9.69561243       9.21543221       7.08170212
Mo       9.28142680      11.91807046       6.99261240
Mo       9.17496481      14.72622287       9.30425339
Mo      11.79596852       9.99701743      15.89781175
Mo      10.87303751       7.68769206      12.05689471
Mo      11.16839290      12.03674586      11.41153696
Mo       9.63167455       9.93822276      12.12842692
Mo       8.97577977      12.08549907       9.62911781
Mo      10.32213299      14.47286721      11.83126209
Mo      10.96095141       8.71790026      14.86830545
Mo       8.14567694       7.51058815      11.31003805
Mo      10.39060810      13.92428523      13.84976217
Mo       7.06096027      10.73171087       8.33056697
Mo       7.68021587      13.74999418       7.96654181
Mo       7.61613126      14.20325687      11.13540225
Mo      10.28587515      11.35138622      14.21992322
Mo       8.27714952       8.09695741      13.12598270
Mo       7.47239165      10.08361545      11.16700028
Mo       8.53292768      12.53299184      12.24036151
Mo       6.41025412      12.13473317       9.68762842
40
Properties=species:S:1:pos:R:3 config_type=qcd gap_pre_relax_energy=-369.0875991519569 gap_pred_energy=-373.30628404016437 gap_fmax_final=0.0009514988734137768 gap_converged=1 pbc="F F F"
Mo      11.69581311      15.29951749      16.67444004
Mo      16.00642419      13.75946581      11.34779866
Mo      13.91323100      15.04444732      10.07006206
Mo      17.82852571      13.06009824      17.66046685
Mo      14.22686746      13.65195677      15.55733967
Mo      12.65957756      12.16237907      13.16957070
Mo      13.22874126      11.49029480      17.15290706
Mo      15.32576462      18.18105943      13.88577000
Mo      11.57846708      14.56385320      13.97971160
Mo      15.69785682      13.25142351      18.05637794
Mo      13.85598006      14.42443397      12.72743249
Mo      13.32228889      13.35845581      10.54606524
Mo      16.18299050      10.15663940      13.28970138
Mo      18.00651622      14.66916721      13.21981621
Mo      14.25094837      18.17640825      16.32573551
Mo      15.80939541      15.73158008      14.20139508
Mo      13.87909579      11.14931428      14.56676053
Mo      12.40450402      18.99078602      14.46266007
Mo      13.06658617      17.07561006      18.45325266
Mo      15.82588063      12.78782623      13.64054964
Mo      13.13685311      16.33528661      14.82639290
Mo      16.11451803      11.52616813      16.08677953
Mo      17.06879162      14.26861919      15.91276666
Mo      15.26787789      11.04788057      11.81307320
Mo      14.84967856      15.84064494      16.97054497
Mo      17.04733686      16.10369784      18.59160868
Mo      16.25352180      16.16595773      11.79060003
Mo      10.73430526      16.72136351      12.89912030
Mo      13.93175344      17.19882698      12.33951272
Mo      14.39341639      15.79655834      19.46719270
Mo      16.84394493      17.33020559      16.05034359
Mo      17.90814812      17.52909422      13.34868175
Mo      18.76652407      16.29160425      14.83368449
Mo      18.33996775      12.05909548      14.64553208
Mo      11.95494586      12.52689719      15.91274241
Mo      11.49976985      18.07300045      15.77461577
Mo      11.16297251      15.56298738      11.66297580
Mo      12.97726075      14.07693996      17.91343081
Mo      17.97642260      12.00825760      12.55186824
Mo      16.19351032      17.73917166      18.80769457
40
Properties=species:S:1:pos:R:3 config_type=qcd gap_pre_relax_energy=-368.6219730296051 gap_pred_energy=-372.76866233942206 gap_fmax_final=0.0007388775695989351 gap_converged=1 pbc="F F F"
Mo      13.88697538      11.84369626      10.31755456
Mo      15.08253992      12.83518541      13.16050283
Mo      13.89840042      10.31693308       8.08376718
Mo      13.84720569       9.06302158      10.62165838
Mo      14.30797280      14.12421234      10.31474427
Mo      13.73701176      10.60490755      12.83349131
Mo      13.47868740      12.98078610       7.85055190
Mo      14.05418766      12.57677865      14.58370123
Mo      13.17306858       7.35091932      12.46516785
Mo      12.77252155      15.13472986      12.90900853
Mo      11.38245808      11.54685579       9.39284052
Mo      11.92410427       8.70371074       8.99865066
Mo      13.26128746       6.52131115      10.90758168
Mo      12.13267462      12.73688666      12.01278337
Mo      12.04336781      10.76430013       7.05500753
Mo      11.62830554       9.91318054      11.50395281
Mo      12.21495467      14.26990532       9.85158991
Mo      12.35068636       9.71062164      14.40373064
Mo      11.48175413      14.53062665      14.11110009
Mo      11.38575597      13.30939614       7.46880580
Mo      10.53963713       7.48918593      11.34950080
Mo      10.66695612       6.70750700       9.06583738
Mo       9.89343640       9.26361004      13.25359666
Mo      11.09380320      11.50725281      14.06367221
Mo       9.96084776       9.05511746       7.30383309
Mo       9.34665679       9.31081633       9.73767418
Mo       9.26930892      11.24949231       7.91796800
Mo       8.15868076       6.79451288      10.54821748
Mo       9.44057999      13.22870645       9.80417582
Mo      10.37549281      14.61450488      11.78418039
Mo       9.53159966      11.41462952      11.70151251
Mo       7.88417416       9.06448218      11.82454711
Mo       8.26214666       7.33725566       8.43045706
Mo       8.14363180      10.81603729      14.19298958
Mo       6.72886821       9.44016555       7.70434455
Mo       8.88752981      13.21289347      13.42619939
Mo       7.64266048      11.29261909       9.97258331
Mo       6.11475108       8.75863241       9.19372146
Mo       7.65114264      13.64977183      11.65829588
Mo       6.81389987      11.40456630      12.67022646
41
Properties=species:S:1:pos:R:3 config_type=qcd gap_pre_relax_energy=-378.3688370165189 gap_pred_energy=-383.7094095003507 gap_fmax_final=0.0009613697920341203 gap_converged=1 pbc="F F F"
Mo      12.68672539      12.10416725      17.13231264
Mo      17.55712451      16.64698288      12.22410192
Mo      12.42105507      11.40476469      11.79143098
Mo      11.10751372      16.05568227      12.85852336
Mo      17.68755927      17.34589972      14.83099390
Mo      14.90051263      12.98503965      10.42065409
Mo      14.93702088      15.56967169      11.72515930
Mo      16.97959211      11.77883564      13.88146065
Mo      17.38072566      14.98333805      16.57750776
Mo      15.77018092      19.35077212      15.71181339
Mo      12.02157454      16.79163862      15.23378957
Mo      12.86130856      18.24556377      13.33137665
Mo      14.95825346      12.97996777      13.15788791
Mo      15.03804006      17.70113596      13.44542518
Mo      15.06695909      12.90176245      18.21125464
Mo      15.49602762      15.65078199      18.26274753
Mo      15.93900794      18.20901348      18.74714494
Mo      16.87117130      12.50004447      16.20926059
Mo      17.23967538      13.73781119      12.04686924
Mo      11.69685216      10.52863367      14.91217586
Mo      12.67096277      12.74564265      14.51324136
Mo      13.39216140      14.05649973      18.83285902
Mo      13.62239001      15.45927037      13.95460774
Mo      19.25327890      16.08124898      15.76083755
Mo      12.16895908      14.40288484      16.52693235
Mo      17.41219006      17.59296510      18.00576679
Mo      15.63187068      11.42894138      11.13858867
Mo      10.46980803      11.88464581      15.38953354
Mo      15.12892059      16.77171953      15.95014002
Mo      19.23264467      15.76654850      12.97890917
Mo      14.65217434      10.44753227      13.78271258
Mo      10.80692891      12.08943952      12.14711384
Mo      13.36907132      16.55458711      17.57137904
Mo      10.59244799      14.62446837      14.19452137
Mo      13.20428190      16.84660496      11.37769090
Mo      14.02063422      19.00446248      16.22395905
Mo      14.74464217      13.91587681      15.96302132
Mo      12.52895368      14.01699314      11.99148493
Mo      16.50078980      15.19447247      14.07615217
Mo      18.50751533      13.85491696      14.42330654
Mo      14.73327740      11.04955524      15.74613553
41
Properties=species:S:1:pos:R:3 config_type=qcd gap_pre_relax_energy=-379.44962618895454 gap_pred_energy=-382.9258039147718 gap_fmax_final=0.0008463872812267738 gap_converged=1 pbc="F F F"
Mo      14.40926913      13.27103670      11.41087598
Mo      14.21614859      13.37394227      14.87574165
Mo      16.77657096      14.20587342      12.46319640
Mo      17.04056715      14.13589813      15.06715767
Mo      14.99431846      15.80916077      13.85305038
Mo      14.72097496      14.84865992      10.67629072
Mo      12.81208714      15.11473534      12.76328011
Mo      16.54790739      16.97247895      12.29368375
Mo      13.77411112      17.35941416      12.45877522
Mo      12.61901391      15.49926204      15.73091432
Mo      16.91195278      17.11312794      15.17943000
Mo      14.07232279      17.89685181      15.13982233
Mo      13.66888672      13.53495279      17.54264128
Mo      16.52916889      13.94881710      18.09733673
Mo      15.24316326      15.48041417      16.64874239
Mo      14.40613699      15.49425711      19.19312507
Mo      12.43419590      15.51671330      18.47881203
Mo      16.65376546      17.27928140      18.06893943
Mo      14.02607490      17.50161150      17.49147850
Mo      18.27715122      15.70316090      16.91782258
Mo      18.45122859      16.03540362      13.27290836
Mo      16.20700140      18.90426499      16.64299306
Mo      16.24255704      19.23225863      13.42595517
Mo      16.06756635      12.10047742      13.58233612
Mo      15.99978928      12.31285562      16.58916083
Mo      11.19996577      17.79945240      16.61448717
Mo      11.57722589      17.16609382      14.05735447
Mo      10.87799205      13.09551531      17.03424323
Mo      11.68944157      13.46916114      14.52655554
Mo      18.89483837      13.10632412      13.10610841
Mo      18.86493846      12.86413248      16.99076645
Mo      18.06768531      18.85989957      13.78315539
Mo      19.33492002      18.18013677      16.76515636
Mo      13.28066059      11.31721826      13.60614308
Mo      11.82369130      11.71337208      16.51616591
Mo      10.34060105      15.52971972      13.60077032
Mo      10.21171817      16.19605118      16.33648043
Mo      19.60075774      14.24938084      14.82485989
Mo      20.09363580      17.05987870      15.62975268
Mo      18.33052377      11.77527977      15.34486755
Mo      14.32073108      10.58473111      15.00992033
42
Properties=species:S:1:pos:R:3 config_type=qcd gap_pre_relax_energy=-389.0046830411537 gap_pred_energy=-393.3716574796699 gap_fmax_final=0.000911974227181807 gap_converged=1 pbc="F F F"
Mo      13.72693977      13.85201361      12.18365631
Mo      14.21078372      13.15988338      14.67589306
Mo      16.29686668      14.12667473      12.18656406
Mo      16.95140732      14.22202923      15.19699701
Mo      15.19706655      15.75693967      13.80314763
Mo      14.56821935      16.06141699      10.86016902
Mo      12.31222698      15.74236094      12.45172376
Mo      16.77145050      16.76600309      12.06022838
Mo      14.17264059      17.57350930      12.30093641
Mo      12.65647189      15.61789495      14.89108311
Mo      16.80504867      16.97119937      15.71974009
Mo      14.19373131      17.81166051      15.22775722
Mo      14.24790760      13.94479129      18.88518238
Mo      16.72002020      14.69689270      18.16198079
Mo      14.85722846      15.25528998      16.60119477
Mo      14.66677665      15.82277536      19.61759696
Mo      12.73835459      16.00724044      17.79950493
Mo      16.56620155      17.09089289      18.16288302
Mo      14.04294604      17.82421642      17.90163614
Mo      19.38512167      15.88810117      17.18035267
Mo      18.28833363      15.57154310      13.63076964
Mo      16.47918670      19.41980791      16.52506966
Mo      16.47419610      19.00165001      13.30718625
Mo      15.63968738      11.77099084      13.03321343
Mo      15.68860018      12.44682582      16.78763939
Mo      11.67747167      18.24236524      15.85277050
Mo      12.00588123      18.49675543      14.09802845
Mo      12.65633513      13.38839901      16.68829595
Mo      11.54306073      13.42107437      14.06522074
Mo      18.39321378      12.71090834      13.10038013
Mo      18.64564442      12.96909800      17.08928177
Mo      18.16627633      18.53329878      13.67460640
Mo      18.18491679      18.91084589      16.90049229
Mo      12.98059816      11.21652550      12.87938975
Mo      13.69424755      11.46551829      17.31104791
Mo      10.05591479      15.86245344      14.25502940
Mo      10.34444552      15.20821003      15.99257965
Mo      19.50130669      13.84619130      15.38902814
Mo      19.98290161      16.55814418      15.64848842
Mo      17.63565321      11.77424875      14.81666751
Mo      15.09737512      10.64904414      14.95448493
Mo      12.50868136      11.07565377      14.86344013
42
Properties=species:S:1:pos:R:3 config_type=qcd gap_pre_relax_energy=-389.9049087048419 gap_pred_energy=-392.98532879766503 gap_fmax_final=0.0006887490126218638 gap_converged=1 pbc="F F F"
Mo      16.06457919      12.10898465      10.40148281
Mo      12.86640690      10.47463869       8.34917622
Mo      15.55678593      10.45972653      12.91198016
Mo      14.70848914      14.52612784      11.04858164
Mo      14.87395850      10.37669273      10.43722821
Mo      13.76971754      12.79975871       9.31540358
Mo      15.99424455      12.97249850      12.98054783
Mo      13.99088860       8.33959506      12.53741957
Mo      13.42490111      10.57882773      14.24407526
Mo      12.89573852       8.42666362      10.14482453
Mo      11.59684902      11.60204659      10.13223523
Mo      11.81239318      11.95469947       7.16549661
Mo      14.88264991      12.78469301      14.76236150
Mo      12.06862904      14.07916146      11.42009176
Mo      13.47167362      16.84862334      10.79440131
Mo      13.36219267      15.96647797       9.26594426
Mo      13.67261746      12.00544131      12.12795435
Mo      11.32993321      13.75489704       8.61958445
Mo      12.02427103       6.62681204      11.75579426
Mo      12.58982440       7.72251252      14.09607480
Mo      14.10189373      14.92707595      13.15501898
Mo      10.18900559      10.23457377       8.41322776
Mo      10.43185249      15.61563720      10.66072429
Mo      11.40732779      15.88109261      13.11279776
Mo       9.25732287      12.19202900       8.36122286
Mo      11.82070411       9.64086302      11.97602562
Mo      10.30769911       8.19096329      10.19613673
Mo      10.25122387       7.56650048      12.62145061
Mo       9.21289084      10.59127686      10.99391669
Mo      12.31533582      13.35444601      14.30067356
Mo      11.55227843      11.60019379      16.00986989
Mo       9.44579975      13.49714578      10.83786339
Mo      10.85486262      11.90072852      12.89668167
Mo       9.83938340      14.42387791      13.32456672
Mo       7.65524988       9.52082653       9.34481508
Mo       7.92138203       8.35863721      11.19699177
Mo       6.89235381      11.83743310      10.46685708
Mo      10.92022234       9.57878198      14.32296314
Mo       9.79566331      12.10041959      15.18333513
Mo       7.98142095      12.17016094      12.87445672
Mo       6.31823259      10.38568662      11.79518895
Mo       8.47902317       9.93064298      13.35242922
43
Properties=species:S:1:pos:R:3 config_type=qcd gap_pre_relax_energy=-398.9946348001183 gap_pred_energy=-402.12097106744466 gap_fmax_final=0.0009469776989361149 gap_converged=1 pbc="F F F"
Mo      15.49985988       9.74072137      13.15700674
Mo      14.14924078       8.24253617      13.07003645
Mo      14.48179659       9.03153018      10.51337736
Mo      15.69474191      10.88456970      10.64642662
Mo      14.86682031      10.17570252       7.53029869
Mo      12.91634088      10.40430793      14.53728030
Mo      11.30847909      11.82786910      16.00045813
Mo      12.06105377       7.44551617      11.12822282
Mo      14.20895136      11.89985467      12.68898119
Mo      12.70305895      10.12776849      12.00966979
Mo      11.27747365       8.24367305      13.58566053
Mo      10.20232798      10.15488022      15.71763342
Mo      12.08566747       9.44703495       9.14161242
Mo      15.32895076      11.86066416       7.59189354
Mo      13.58328074      11.77534014      10.05373034
Mo      13.47070385      14.28312068      11.47063102
Mo      11.92435442      13.05401401      13.57054988
Mo      10.30170348      10.95053787      13.39391544
Mo       9.08060166       8.40982000      13.23148578
Mo       9.12817850      12.74006560      14.77709394
Mo      10.15172565       9.43760197      11.01160712
Mo      10.01129752       6.61589771      11.62375778
Mo      11.63998014      15.02446136      11.72136582
Mo      11.92692940      13.75744851       9.38859607
Mo      12.16652911       9.87788380       6.52537890
Mo      12.57702027      11.72352259       7.47618126
Mo       7.72975191      10.71885567      13.73849714
Mo       8.42562952      11.69431273      11.09851774
Mo       9.25320288      13.73042895      12.70225234
Mo      10.79014703       7.09575785       8.93441319
Mo      11.19432997      12.17647631      11.14921351
Mo      10.20459592      11.40777015       8.77749344
Mo       6.98118082      12.63317717      13.07597747
Mo       9.85180124       9.19656336       7.69415093
Mo       8.80905603       7.71969474       9.63396254
Mo       7.54523959       9.45803459      11.24397024
Mo      10.27504546      13.39225940       6.93986797
Mo       7.83932054      10.22744345       8.77310094
Mo       9.49957442      14.15297472       9.91938281
Mo       9.55411821      11.72505487       6.38246215
Mo       6.02980764      12.19380796      10.48530601
Mo       6.77907374      14.01593110      10.77831469
Mo       8.02220847      12.85626562       8.64141708
43
Properties=species:S:1:pos:R:3 config_type=qcd gap_pre_relax_energy=-398.9605582359226 gap_pred_energy=-403.5248969928625 gap_fmax_final=0.0008058085214097481 gap_converged=1 pbc="F F F"
Mo      14.24635426      14.32670527      12.78715232
Mo      14.62445579      13.55814326      15.38964548
Mo      16.54454769      15.19333532      11.73165353
Mo      17.48470756      14.31435363      15.91336188
Mo      15.74269039      15.84179174      14.14749726
Mo      15.17338496      16.57564572      11.15901538
Mo      12.83339638      16.07893993      12.56749008
Mo      17.05346282      17.59991063      12.96007660
Mo      14.49677282      18.02118329      13.21516288
Mo      13.18000037      16.04209847      15.19169325
Mo      17.51884734      17.27515622      15.65257086
Mo      14.86962876      18.26574371      15.68066306
Mo      14.45079157      14.19254089      18.77960410
Mo      17.10985255      15.20243155      18.71189606
Mo      15.27144461      15.79838367      16.96904156
Mo      15.48943044      16.57692409      19.84212412
Mo      13.13009658      16.29672956      18.24139106
Mo      17.70679521      17.66418958      18.26567379
Mo      15.08328791      18.08316450      18.32936813
Mo      19.19642297      16.01002223      17.17451678
Mo      18.61955362      15.44172964      13.77298486
Mo      16.87198202      19.43338889      16.57933753
Mo      16.57688352      20.06673779      13.79682894
Mo      16.79015389      13.12696439      13.76571029
Mo      16.06726765      12.92089853      17.73440292
Mo      12.52947508      18.22768779      16.69410776
Mo      12.06778661      18.33993911      14.55646434
Mo      12.41293667      14.08323604      16.93431286
Mo      11.69269782      13.49592578      13.84661100
Mo      19.79829404      13.26832345      13.69075109
Mo      18.98522773      13.07597065      17.66161957
Mo      18.29019550      19.73827283      14.26859988
Mo      20.05940861      18.49261505      16.71082540
Mo      14.30853983      11.59780412      13.82144199
Mo      13.22086116      11.73473572      17.77769105
Mo      10.76375227      16.05725727      14.26319972
Mo      10.79761971      16.19908946      16.43397543
Mo      20.52580649      14.21475647      15.01790275
Mo      20.32957217      17.41054297      15.26811160
Mo      18.31830288      12.03684520      16.22682755
Mo      15.35179850      11.19761696      15.34121424
Mo      10.26003186      13.53591533      14.93563479
Mo      12.27736949      11.50824137      16.31373434
44
Properties=species:S:1:pos:R:3 config_type=qcd gap_pre_relax_energy=-408.3094328717947 gap_pred_energy=-412.44883600543244 gap_fmax_final=0.0008936459067031879 gap_converged=1 pbc="F F F"
Mo      15.42479312      17.01716424      16.66400156
Mo      15.05018664      17.54063597      19.09128584
Mo      12.65623238      14.15393039      10.69324677
Mo      14.26425990      14.45589004      15.94111427
Mo      15.09818169      14.59296576      18.34862471
Mo      13.10895779      20.05073762      15.43145862
Mo      13.42795443      19.28489822      17.00423346
Mo      13.88416288      16.59446126      11.86177354
Mo      15.66130818      16.06377986      13.89215556
Mo      14.34133708      11.98781042      13.71909619
Mo      16.72281774      10.91474053      14.14645131
Mo      18.83177412      15.33959811      14.41835631
Mo      12.56258125       9.94537379      14.28890837
Mo      17.08600406      14.85983710      16.31007818
Mo      17.81648779      15.97014430      18.64603494
Mo      17.13453785      13.30636404      18.26401578
Mo      15.14729520      14.22325745      11.62361467
Mo      14.20074325      12.16474628      17.85233965
Mo      18.66731944      12.70412069      13.50231560
Mo      15.03867667      10.00657185      12.28056541
Mo      14.00705790       9.90475800      15.39202072
Mo      11.82944977      18.09271259      13.13954210
Mo      12.60976726      12.41071543      15.63400466
Mo      18.50764193      12.74872540      15.64138891
Mo      17.34943104      17.82691322      13.71110115
Mo      16.36176499      13.59678550      13.88819191
Mo      11.13628326      17.44278748      15.69063876
Mo      11.42615678      14.95774540      15.63300554
Mo      13.18075772      16.86873628      14.80946256
Mo      15.66351572      12.30592904      16.33210267
Mo      15.91531853      17.04064623      11.34740216
Mo      12.10326014      14.19805609      17.83476005
Mo      16.30129722      18.76648671      18.21837480
Mo      14.75027562      18.57430982      13.53105054
Mo      12.91106154      16.20916426      17.56490276
Mo      11.58271331      12.87916341      13.53823149
Mo      13.33017736      14.30554430      13.51438744
Mo      15.67561624      19.26610559      15.44751435
Mo      19.14344385      15.16826036      17.55527096
Mo      11.24600015      16.06943458      12.92285803
Mo      17.74591455      15.22773294      12.54873152
Mo      17.81243786      17.51025197      15.87922903
Mo      16.28074018      11.33235958      11.73002556
Mo      13.39208648      12.50742876      10.90391243
44
Properties=species:S:1:pos:R:3 config_type=qcd gap_pre_relax_energy=-408.6117363751796 gap_pred_energy=-411.2411031591157 gap_fmax_final=0.0008490638978803398 gap_converged=1 pbc="F F F"
Mo      14.29283198      14.50437680      12.70023334
Mo      14.47541481      13.60083542      15.42031056
Mo      17.32317383      14.72067311      12.60481778
Mo      17.56797379      14.48686148      15.65700065
Mo      15.83876888      15.95113201      14.23115459
Mo      15.22468311      16.17659763      11.38164120
Mo      12.25617784      15.91532467      12.33067102
Mo      17.17118989      17.64051072      12.76085960
Mo      14.23438111      17.50355884      12.90403383
Mo      13.11332011      15.97902384      15.08194195
Mo      17.49497683      17.56135301      15.77847028
Mo      14.58374482      18.11935391      15.76131763
Mo      14.48598242      14.25179473      18.96306902
Mo      17.08958350      14.53771139      18.50768759
Mo      15.46146384      15.76164922      17.00825237
Mo      15.38302515      15.63029083      19.99401291
Mo      13.19912441      16.38862258      17.89699873
Mo      17.40410308      17.14092524      18.31746907
Mo      15.13767269      18.32669700      18.21508402
Mo      19.17275032      15.86066610      17.22518682
Mo      18.94950174      16.06431810      14.07200253
Mo      16.37696232      19.60569689      17.11687372
Mo      16.23341682      19.18752227      14.07595458
Mo      16.36705394      12.84073510      13.84778669
Mo      16.07861794      12.65267415      17.00828504
Mo      12.04638575      18.44581138      16.46502276
Mo      11.84154804      18.09640027      14.45655481
Mo      12.38689061      14.11589793      16.99710573
Mo      11.93311031      13.68858887      14.01984774
Mo      19.27732826      13.20679305      14.05389854
Mo      19.02534225      12.88066230      16.96529695
Mo      19.12280138      18.97312027      14.16536466
Mo      19.31467911      18.83919697      17.09663652
Mo      13.94114360      11.61985502      13.61485103
Mo      13.60646163      11.83601080      17.56719330
Mo      10.24368526      15.78224453      14.20611278
Mo      10.77428717      16.12087101      16.24338639
Mo      20.52836020      14.27900324      15.33999337
Mo      20.50404835      17.56648225      15.86484910
Mo      18.03807016      11.53158860      15.62857320
Mo      14.93335286      10.74868505      15.25296622
Mo      10.44851357      13.45810368      15.65192581
Mo      12.44754594      11.50523101      15.78895455
Mo      18.24117528      20.46717362      15.33097588
45
Properties=species:S:1:pos:R:3 config_type=qcd gap_pre_relax_energy=-418.31658325965066 gap_pred_energy=-422.32551223353084 gap_fmax_final=0.000929177963127023 gap_converged=1 pbc="F F F"
Mo      14.43068237      13.75527007      12.76593026
Mo      14.61437517      13.22239762      15.47557308
Mo      17.12241989      14.04502221      12.93767903
Mo      17.33601868      14.07273886      15.67374707
Mo      15.68329731      15.58761720      14.13468683
Mo      15.35119033      15.98827678      10.87196239
Mo      13.39756590      16.48714087      13.09882084
Mo      17.47635882      16.49399162      12.42744609
Mo      15.31966043      17.69398308      11.34051119
Mo      13.04226094      15.49270264      15.60099992
Mo      17.59492880      17.07576240      15.80496137
Mo      14.73714213      17.77925474      15.35555442
Mo      15.62901405      13.17502691      18.04083562
Mo      17.49207213      14.55741641      19.72910728
Mo      15.46550075      15.59878505      17.00559255
Mo      15.93147616      15.20211437      20.24532555
Mo      13.38392538      15.00485619      18.38485452
Mo      17.06341750      16.88538138      18.47073575
Mo      14.56151420      17.44354310      18.41973820
Mo      19.01570797      15.66280420      17.19539857
Mo      19.18096685      15.41340167      14.33032402
Mo      16.10732833      19.04406219      17.21993543
Mo      16.77253993      18.39100438      13.76026740
Mo      16.08324150      11.97557863      14.05582101
Mo      16.54346310      11.31001173      16.55041629
Mo      12.29878683      17.26090608      17.03716143
Mo      11.68099081      17.86994956      14.59378363
Mo      12.83576321      13.12084008      17.34359476
Mo      12.42383946      13.83523796      13.73802086
Mo      19.00859946      12.44720933      14.76672107
Mo      18.51206179      13.06830962      17.50988858
Mo      19.85331540      17.74600796      13.43957365
Mo      19.05392378      18.62151925      17.38133312
Mo      14.18469107      19.60279919      13.64634811
Mo      13.67174272      19.53490332      16.48764908
Mo      13.06459696      11.19475416      13.50018149
Mo      14.57979894      10.95211174      16.43989949
Mo      10.87476439      16.13673253      14.59055354
Mo      10.57939640      14.65438793      17.53960454
Mo      20.29368898      13.49985466      15.84582153
Mo      20.73117258      17.37841695      14.92546594
Mo      18.45286967      19.53262872      15.79439272
Mo      15.48191256      20.52147004      14.73602269
Mo      10.43794159      13.46484051      16.26033630
Mo      11.89452752      11.44942891      14.77787551
45
Properties=species:S:1:pos:R:3 config_type=qcd gap_pre_relax_energy=-418.0957376868498 gap_pred_energy=-422.72000616302614 gap_fmax_final=0.0007523901883859906 gap_converged=1 pbc="F F F"
Mo      14.63640551      15.94576211      13.14670032
Mo      19.81680441      15.45099327      15.39222507
Mo      12.52343632      15.91902212      11.76159665
Mo      16.76810114      16.12165061      14.93018039
Mo      15.14311784      11.19881961      16.86134798
Mo      14.85691705      10.82103141      11.14901652
Mo      14.39384097      12.99256851      12.50636349
Mo      15.00002974      11.05959420      13.98274086
Mo      11.08258693      15.25187897      16.13029581
Mo      19.42386255      13.95685579      14.57393682
Mo      13.39989123      11.70616032      10.00805344
Mo      15.66520273      18.27330638      15.24864994
Mo      17.10715960      14.97697805      18.75936609
Mo      13.20298682      12.38943578      19.14804229
Mo      12.46890470      14.26005352      14.15735088
Mo      13.17608754      18.72665692      16.55494858
Mo      13.97561935      14.32312775      10.18981008
Mo      16.11763723      12.32412607      17.82735975
Mo      13.45010196      18.27936241      13.34119620
Mo      17.04023709      12.31194964      15.05425015
Mo      11.89885212      13.28033623      11.68660637
Mo      11.18351707      14.14529721      18.79878065
Mo      14.07461754      14.06709812      19.57119958
Mo      16.52639629      17.81609523      12.71223187
Mo      15.48174226      15.52297409      17.44150054
Mo      11.10282716      12.86435061      17.25149187
Mo      13.74381857      16.40590709      15.64788731
Mo      14.54068607      17.14665114      10.55973771
Mo      12.70437917      16.29310642      17.92963977
Mo      10.29995021      12.97674230      14.14902145
Mo      14.66397789      18.27163942      17.71180288
Mo      16.79830693      13.98664378      12.87932914
Mo      11.90420462      17.17457267      14.01383117
Mo      18.34909056      18.32395933      15.31150118
Mo      18.13560581      16.40407117      12.76883635
Mo      17.48140468      11.95224560      12.79029490
Mo      12.44322510      11.23800038      12.47194887
Mo      12.91371306      11.98423195      14.98883211
Mo      17.79555242      17.57610380      16.89410766
Mo      16.10392544      15.85647692      10.92904733
Mo      13.37082645      13.83951288      17.00929948
Mo      15.82597285      13.16118640      10.33598906
Mo      10.06090170      14.70749015      13.37833809
Mo      15.15571262      13.98260451      14.99344818
Mo      17.76839526      14.30990171      16.62839771
46
Properties=species:S:1:pos:R:3 config_type=qcd gap_pre_relax_energy=-427.75801589491357 gap_pred_energy=-432.4293472533641 gap_fmax_final=0.000976092352355143 gap_converged=1 pbc="F F F"
Mo      14.67411811      13.96991830      13.31014698
Mo      15.21538962      13.51166102      16.30136988
Mo      17.68511471      14.10312676      13.03746791
Mo      17.88414238      14.29436273      16.21035882
Mo      16.33285405      15.63635827      14.52530029
Mo      15.66770833      15.41860940      11.61257732
Mo      12.56183364      15.59437806      12.38469020
Mo      17.81483373      16.72626862      12.72509378
Mo      14.93040010      17.06244147      12.83944935
Mo      13.68132790      15.66469022      15.11775405
Mo      17.93298465      17.30124469      16.10041718
Mo      15.10972664      18.13565620      15.46910084
Mo      15.02617321      13.52778973      18.93689150
Mo      17.49743138      14.68179588      18.84439237
Mo      15.75764210      16.03180200      17.24563485
Mo      15.34696525      15.92246609      20.22474907
Mo      13.49070531      15.02698049      18.10727503
Mo      17.23311134      17.27296130      19.01931084
Mo      14.48874499      17.39343582      18.98021036
Mo      19.48890376      15.91857776      17.69666349
Mo      19.48129078      15.58963193      14.63905890
Mo      16.39672431      18.93867156      17.67953853
Mo      17.13221329      18.56723245      13.81701765
Mo      16.78589458      12.47595102      14.33023195
Mo      17.26502799      12.47120677      17.92900192
Mo      12.72396205      17.49101467      16.82411430
Mo      12.50321971      17.82083830      14.13412734
Mo      12.90568552      12.69605273      16.84360332
Mo      12.22626432      13.61771394      14.36685317
Mo      19.57653783      12.40996927      14.33642910
Mo      19.83285195      13.86980284      17.27386241
Mo      20.20427420      17.96012428      13.81300814
Mo      19.30844827      18.89014379      17.71342009
Mo      14.59113211      19.95961725      13.74628274
Mo      13.54167386      19.94083198      17.73287960
Mo      14.04960337      11.74005330      15.00725904
Mo      14.66708890      11.04743925      17.85071064
Mo      10.90417311      15.79336893      13.63639801
Mo      11.56705924      14.99925929      16.14615961
Mo      21.03481736      17.58672084      15.31989005
Mo      18.64191491      19.68383165      16.12287927
Mo      15.62632999      20.51598115      15.25385998
Mo      18.87642551      11.29270065      15.51870947
Mo      16.08842712      10.76972063      16.39573236
Mo      12.56284994      20.13627811      16.28632849
Mo      10.79788591      17.65320594      15.70567714
46
Properties=species:S:1:pos:R:3 config_type=qcd gap_pre_relax_energy=-428.97904250333863 gap_pred_energy=-433.2767952567566 gap_fmax_final=0.0009214632450370229 gap_converged=1 pbc="F F F"
Mo      11.52908470       7.83434241       8.77950942
Mo      10.20436763       7.23016709      11.62790699
Mo      13.19613966       7.22621530      11.26219400
Mo       8.47246084       7.54683674       9.80303031
Mo      13.19582977       9.68653012       7.78459749
Mo      11.53056142       7.65789824      13.35281324
Mo      10.50612392       8.81030248       7.59194672
Mo       8.85905975       7.77441208      14.39748547
Mo      14.08057216       9.51273059       9.99446111
Mo       7.57776576       8.57950338      12.08745636
Mo      14.26870992       8.00321274      12.69930675
Mo      12.09947505       9.61263767      11.61710267
Mo       7.53304330      10.07229433       7.96315006
Mo       9.37927184       9.46687204      10.46295353
Mo      11.40625265      10.60685047       9.04325321
Mo       6.49159973      10.10012563       9.40664131
Mo       8.20995234       9.61620204      14.84410338
Mo      14.69423845      11.77157099       8.52558683
Mo      12.47990363      12.22347648       7.26176870
Mo      11.09490220       9.07746115      16.28901602
Mo      12.75074091       9.82622422      14.50803354
Mo      10.00686797       9.76046686      13.27493517
Mo      14.59451071      10.80471779      12.57056886
Mo      10.98142454      10.84693410      16.15105669
Mo       9.73187415      11.80693240       7.46875000
Mo      16.08998952      11.74640780      10.59139500
Mo      13.18637041      12.01024981      10.63246873
Mo      10.25170672      11.92748477      11.41385860
Mo      13.25029471      14.02652470       8.31189961
Mo      10.46872626      14.25272431       6.53104323
Mo       7.65862943      10.82433187      12.12383966
Mo      13.55765189      12.15418333      15.04784429
Mo      11.92676550      12.05985614      13.26799960
Mo      15.47217171      13.70767921      10.25523780
Mo      11.00892867      13.33838322       9.34188254
Mo      14.64180445      13.11909165      12.64262114
Mo       9.33804874      12.27425710      13.92213036
Mo       8.38669111      11.99893246       9.51633199
Mo       8.89750260      14.29818492       7.37183410
Mo      11.44015214      13.84674419      15.04795131
Mo      12.72960882      14.48265916      11.12547202
Mo      11.08863627      15.55246895       9.47525834
Mo       7.83666138      13.58473264      12.08988312
Mo      12.77372802      14.86597969      13.93955034
Mo      10.68898380      14.33093828      12.35690677
Mo       8.76617721      14.47723082      10.56092595
47
Properties=species:S:1:pos:R:3 config_type=qcd gap_pre_relax_energy=-437.43815304649024 gap_pred_energy=-442.3726596291227 gap_fmax_final=0.0009660174391642503 gap_converged=1 pbc="F F F"
Mo      14.69830754      12.38649307      12.68620111
Mo      15.15508934      13.71281887      15.25448169
Mo      16.83465054      14.34994694      12.90343316
Mo      17.94836791      14.33588737      15.51345335
Mo      15.83334008      16.22830450      14.39884566
Mo      15.43840879      15.27643458      11.52741847
Mo      13.78735070      14.95393772      13.33596815
Mo      17.38668504      17.00642110      12.48583334
Mo      14.65562377      17.72582490      12.53472723
Mo      13.61352275      15.86345404      16.35546267
Mo      17.92645943      17.32380334      15.81127090
Mo      15.10384911      18.30744389      16.10321069
Mo      14.34378270      14.16612741      18.27321236
Mo      17.24580573      14.09342139      19.08083304
Mo      16.21131115      15.69359668      17.21652774
Mo      15.17658307      15.62256857      20.08536930
Mo      12.20480349      15.85500774      18.92044510
Mo      17.44388828      16.91116791      19.13311301
Mo      14.75247428      17.24513642      18.71082153
Mo      18.90439559      15.42312266      17.48058077
Mo      18.95747932      16.04533040      13.70495681
Mo      17.04297474      18.71018862      17.91638429
Mo      16.44706290      18.86442442      14.14078690
Mo      16.83672047      11.86772204      14.20785178
Mo      16.61785715      12.74124474      17.36691114
Mo      12.40627757      18.04874306      17.40250040
Mo      13.16943748      17.56449332      14.24496024
Mo      12.05142516      13.88969926      16.97568998
Mo      12.78401889      12.87124186      14.62827575
Mo      19.54439477      13.16559024      13.74516127
Mo      19.36882591      12.85842302      17.96193126
Mo      19.13112743      19.13251327      13.90092584
Mo      20.02116171      17.88103683      17.72385750
Mo      14.16822263      20.13179636      13.65553749
Mo      14.50615898      20.19308719      17.87297208
Mo      14.32086529      10.85866332      14.10330179
Mo      14.02684606      12.00477510      16.50754953
Mo      11.63526849      15.34800497      15.09761130
Mo      10.63983547      15.99245535      17.50028286
Mo      20.45743935      14.08360885      15.21210299
Mo      20.56654248      17.20073798      16.11927810
Mo      18.66079272      19.86608762      15.50530284
Mo      15.67277707      20.76377806      16.40941038
Mo      18.80129482      11.93274707      16.17725702
Mo      16.29014988      10.60835208      15.94860555
Mo      13.10510006      19.89072824      15.43706374
Mo      11.04166057      17.94002429      15.65873857
47
Properties=species:S:1:pos:R:3 config_type=qcd gap_pre_relax_energy=-437.37770153643464 gap_pred_energy=-442.8746826919406 gap_fmax_final=0.0009609041861486053 gap_converged=1 pbc="F F F"
Mo      18.08150961      17.94351727      15.16992152
Mo      12.05376623      11.83681944      18.33423915
Mo      15.80459000      13.18534507      16.12459835
Mo      12.24620192      11.16525622      15.63665397
Mo      10.62445530      12.76978750      17.42435443
Mo      19.33426963      15.59203869      16.88807638
Mo      16.84873610      11.69895062      14.77285697
Mo      11.24483728      15.43638192      16.59958850
Mo      11.99802130      15.73617896      13.91208167
Mo      14.34256690      10.95626042      16.31391697
Mo      17.71425115      15.31639799      11.36156075
Mo      14.69963256      18.00659005      18.20870407
Mo      14.08871482      14.28064169       9.60191714
Mo      13.89474097      10.37546042      13.52812515
Mo      14.44374754      15.26128216      14.67152916
Mo      12.54864295      14.68706302      18.86407986
Mo      14.86929888      12.84475812      18.64583852
Mo      15.37613536      17.82249291      15.63794102
Mo      14.15965410      19.80699138      16.03583696
Mo      11.38961441      13.52028588      14.57212686
Mo      16.31248065      16.51292298      13.21098440
Mo      18.79706075      15.87479633      14.04908598
Mo      16.06959706      19.96045942      16.61993770
Mo      12.96005307      13.57636437      16.47183041
Mo      14.14925459      12.77488682      13.98892737
Mo      16.13138999      19.50086540      13.61209591
Mo      15.89091834      13.67016506       9.48609217
Mo      13.75013131      17.92441228      13.60983809
Mo      18.87810694      13.83552864      16.22121588
Mo      15.82065190      11.35239128      11.79882571
Mo      15.11924365      15.68501046      19.68772824
Mo      12.81061098      17.01505682      16.15937288
Mo      15.56513875      18.64843106      11.78040930
Mo      16.88159045      13.67987267      13.74965296
Mo      12.19134562      16.73189287      18.74257578
Mo      13.68640456      16.39890558      11.77553238
Mo      16.04226526      16.29209526      10.31787406
Mo      12.03742147      11.25170502      12.91153643
Mo      17.16540370      15.59938349      15.85640631
Mo      15.07944968      14.33221001      11.90979735
Mo      16.94858062      14.59905587      18.47492747
Mo      12.63228846      13.90405864      12.22099317
Mo      17.02554049      17.38519900      17.88678172
Mo      16.77063154      12.03111557      18.00558979
Mo      14.24377590      11.33271990      10.98550860
Mo      17.98875403      17.74429823      12.13286643
Mo      14.70292975      15.55810375      17.44407263
48
Properties=species:S:1:pos:R:3 config_type=qcd gap_pre_relax_energy=-447.0406060159328 gap_pred_energy=-450.41921864134974 gap_fmax_final=0.0009722787922136946 gap_converged=1 pbc="F F F"
Mo      13.99419418       7.71491815      10.99369666
Mo      15.53232803       8.93225571      10.64534164
Mo      13.19195918       8.87146262       8.97795318
Mo      10.90846955       7.84914838       9.76918400
Mo      11.92070946       8.46734799      14.53191767
Mo      14.00961200       9.47258944      13.01485992
Mo      11.59671627       9.24432029      11.74741366
Mo      10.89313808       8.72162880       7.21036865
Mo       9.57362333       8.17164690      12.64889567
Mo       8.87041358       8.73085342      15.75132354
Mo      13.69843441      10.61359781      10.71184623
Mo      12.81812810      10.01331371      15.48815318
Mo       8.84579568       9.15392083      10.55347683
Mo      10.01565592       9.39462353      16.98261726
Mo      15.14681204      10.67991789       7.95431846
Mo      15.50486989      11.34208328      12.79216972
Mo       8.99515136       9.15366350       7.83393845
Mo      12.65465361      10.95469555       7.12969326
Mo      10.24595998      10.33650854      14.19145630
Mo      11.16002961      10.61437232       9.23652107
Mo      12.49643138      11.48931741      13.25251751
Mo      11.63444433      12.70055903      11.02336438
Mo       9.98623766      11.31310030       7.06650452
Mo       7.46678931       9.68720516      13.03485738
Mo       8.90061022      11.76976802       9.15520037
Mo      13.41915012      12.68985046       9.00832869
Mo       8.80249339      11.47535264      15.90327034
Mo      16.19060692      11.93661912       9.94610807
Mo      11.11868936      12.19508177      15.82935469
Mo      10.74191888      13.62471638       8.87055820
Mo       9.73415645      11.17702453      11.76156980
Mo      14.47545065      12.96805662      11.71294525
Mo      13.43015111      13.19777730      14.61551954
Mo      12.01590347      13.01581725       6.69814217
Mo      12.99642150      15.09405557      10.17365327
Mo       8.06868135      12.22479457      13.70284177
Mo      10.50793214      13.31767543      13.57930429
Mo      15.22706684      12.65076786       7.29626511
Mo      15.89937224      13.94168313       9.58092109
Mo       7.08997973      10.96326473      11.47665072
Mo      13.24288470      15.10822702       8.16008725
Mo       9.06660660      14.25490054      15.68941022
Mo       8.70524404      13.57308175      11.18100020
Mo      12.67674298      14.58941661      13.01158997
Mo      11.53844738      15.04500128      15.57325527
Mo       8.45075148      14.90435457      13.68492029
Mo      10.35029649      15.02243946      11.33383527
Mo      10.67700914      16.12434696      14.00000312
48
Properties=species:S:1:pos:R:3 config_type=qcd gap_pre_relax_energy=-446.6693675525106 gap_pred_energy=-450.91842993349803 gap_fmax_final=0.0008813316839849253 gap_converged=1 pbc="F F F"
Mo      13.03465681      13.46470421      10.75183045
Mo      12.20840812      13.07087625      14.08301931
Mo      15.37306247      14.62215739      10.60380436
Mo      15.22807476      14.54532258      14.02807633
Mo      13.14983870      15.30406523      12.51230957
Mo      13.95136537      15.69416783       9.67706451
Mo      11.01494765      15.48677032      11.01920988
Mo      15.01530974      17.02721518      11.58698291
Mo      12.55430432      18.20876302      11.31882076
Mo      11.00528609      15.39158913      13.81929459
Mo      14.84599869      17.19712559      14.27241894
Mo      12.32859055      17.59741273      13.99657534
Mo      12.00286358      13.60241670      16.88921064
Mo      15.52534436      14.75221066      16.98335345
Mo      13.11581534      15.46048407      15.48227412
Mo      13.02947282      15.57808955      18.71236760
Mo      10.98398147      16.34297331      16.45946767
Mo      15.03880636      17.17760707      17.05071776
Mo      12.38798092      17.79148672      16.62182349
Mo      17.15689471      16.34051434      15.32213370
Mo      17.16666039      15.80856078      12.72983410
Mo      14.76743168      19.40732634      15.20075149
Mo      13.63833931      19.30901299      12.17055644
Mo      14.42925015      12.55533538      12.62320484
Mo      14.31820901      12.71625113      15.70122042
Mo      10.30158789      13.38733313      15.59425956
Mo      10.64515401      13.75563473      11.72507661
Mo      17.01509259      13.32164782      12.55253838
Mo      17.37891486      13.50309829      15.15951968
Mo      16.64456120      18.68360870      13.23283690
Mo      16.69707326      18.94151676      15.87603120
Mo      12.23993233      11.00579078      12.18456232
Mo      11.85305934      10.94654039      16.48091622
Mo      19.40819882      14.67146670      14.03933658
Mo      18.50691577      17.70739752      14.01003252
Mo      16.15066918      11.16804674      14.41425871
Mo      13.21045280      10.43202438      13.57296273
Mo      19.15085806      11.95366532      14.22368934
Mo      19.48591219      15.30828003      16.06678095
Mo      19.89581527      12.60312518      15.97573808
Mo      17.42441402      16.75470563      18.18745263
Mo      17.75358625      13.90864832      17.74487188
Mo      16.19352956      15.86911192      19.26431682
Mo      13.62689635      13.95635254      19.15913769
Mo      15.59016380      12.28776458      17.85230572
Mo      12.63819164      11.25017341      18.03603958
Mo      17.58264759      11.51664387      16.66170752
Mo      15.07427474      10.35377959      16.10810057
49
Properties=species:S:1:pos:R:3 config_type=qcd gap_pre_relax_energy=-456.98089011206173 gap_pred_energy=-461.35928604146716 gap_fmax_final=0.0009744815150282356 gap_converged=1 pbc="F F F"
Mo       8.71473436      11.77303458       7.28850580
Mo      11.38130909      11.38350319       8.36320731
Mo      10.22026945      13.95051449       7.94733094
Mo       9.14923480       9.51173543       9.02727758
Mo      12.77191193      13.24994958       8.76256463
Mo      13.61751190      11.06680238       9.99366972
Mo       7.29514971      11.74592327       8.66317815
Mo      12.08195630       8.63785036       9.12081416
Mo       8.62681985      14.63843991       9.06218451
Mo      15.30654591      12.82165825       9.82030757
Mo       9.50156264      12.39488069       9.82789257
Mo      11.37862604      15.18586612       9.87312576
Mo       8.59544937       8.27484863      10.64286914
Mo      14.15963359      15.06050892      10.31998002
Mo      11.97020295      12.93203746      11.09459575
Mo       7.96587052      10.80093050      11.37278678
Mo      15.71703014      10.67369833      11.76260236
Mo      16.59571896      15.66334013      10.92807853
Mo      11.12593612       7.68235527      10.78990187
Mo      13.61388426       8.71075577      11.47629517
Mo       7.49038067      13.15311098      11.46703543
Mo      17.44657835      12.63760199      11.42097175
Mo      10.95707973      10.17828736      10.78492380
Mo      10.00879032      14.60329475      11.67974576
Mo      16.82239818      13.47297359      13.22844353
Mo      12.11543980       8.49791972      13.34459222
Mo      14.48501081      13.21195331      12.08018703
Mo       8.42324736      13.70733837      13.68673296
Mo      15.58223266      16.32765993      12.19029436
Mo      10.86909373      15.10119412      14.22983154
Mo      10.02758058      11.95347227      12.71449619
Mo      12.70583505      15.33692193      12.44139338
Mo       9.82998671       9.22447986      12.85760550
Mo      12.85080956      10.80731740      12.67392464
Mo      13.35206771      16.44937893      14.38543657
Mo      12.33410046      12.96078640      14.15371103
Mo      17.14886878      10.83025735      13.51699655
Mo      14.84610809       9.05734125      13.95817149
Mo      14.98649484      11.67667420      14.34572002
Mo       8.07394288      11.46596046      14.00433078
Mo      14.51177331      14.56697353      14.60189531
Mo      10.06555143      13.07867388      15.65447268
Mo      10.70059143      10.62110314      14.95047420
Mo      12.17146148      14.75948821      16.06375441
Mo      13.01319867      10.24531191      15.47765257
Mo      16.45872370      12.60095775      16.13631274
Mo      15.86797947      10.75409170      16.39086529
Mo      11.59268020      12.06232282      17.07425058
Mo      13.63986642      12.66574994      16.51583963
49
Properties=species:S:1:pos:R:3 config_type=qcd gap_pre_relax_energy=-457.22459878986194 gap_pred_energy=-460.5672682111018 gap_fmax_final=0.0008955863151831418 gap_converged=1 pbc="F F F"
Mo      15.29242537       9.51708929       9.54311184
Mo      16.12943229      12.05537103       7.73368378
Mo      13.45380686      10.32042984       7.49844213
Mo      16.21299298      11.80373038      10.42711236
Mo      12.58468253       9.16089479       9.73463096
Mo      14.59174438       9.94608058      11.58159077
Mo      11.12839196       8.77196439       7.80173049
Mo      13.06534503      12.96977315       7.72343738
Mo      11.57522336       6.91531735      10.09574588
Mo      13.66980584      11.86719082       9.74980442
Mo      16.13240937      13.63730383       8.49439513
Mo      11.72637495      11.02594009       6.47830810
Mo      12.22342240       8.60941078      12.55093295
Mo       9.41735211      10.62116451       7.82097011
Mo      15.96631092      11.95236206      13.31971008
Mo      11.70959948      10.83780955      11.56762091
Mo      11.01677086      11.81060699       9.00120003
Mo       9.74869942       6.88487933       9.14342492
Mo       9.83629918       9.28613138      10.01396522
Mo      13.50178853      14.58598974       9.90010778
Mo      11.07052268      14.33076672       8.85698256
Mo      13.62232669      10.67771744      14.00837735
Mo      15.61813803      13.75740581      11.40495593
Mo       9.74356733       7.17314510      12.08110690
Mo      10.70770702       7.22241244      14.08177990
Mo       9.57451056       9.63826482      12.78811323
Mo      13.52335873      12.69976884      12.48152767
Mo       8.70555240      12.92104881       9.05221315
Mo      13.51405335      15.61289368      12.20313871
Mo       7.60510005      10.55237085       9.81707978
Mo      14.98168743      13.48921080      14.20634819
Mo       7.77608477       8.21577725      10.72984900
Mo      11.23917433       9.84710288      14.79377597
Mo       9.09665950      15.13611760      10.36095646
Mo      11.67726954      16.19975814      11.55285470
Mo       9.13192010      12.05159003      11.24007382
Mo      10.74158272      12.17454790      13.57901598
Mo       7.78033351       8.13276557      13.73341534
Mo       8.91229314       8.49789362      15.46564176
Mo      11.43784199      13.68894903      11.14604346
Mo      12.45100879      12.47404659      15.37421254
Mo      11.93742961      14.51120685      13.94144191
Mo       6.78965816      13.27052299      11.35511527
Mo       7.19305952      10.44113571      12.19920517
Mo      10.16781810      11.87602870      16.47717824
Mo       8.49665200      10.84247805      14.78686357
Mo       9.43809012      14.57495167      12.52155088
Mo       9.60708649      13.48030390      15.36375111
Mo       7.40316381      12.85690664      13.14403453
50
Properties=species:S:1:pos:R:3 config_type=qcd gap_pre_relax_energy=-467.679082481307 gap_pred_energy=-471.21849995149114 gap_fmax_final=0.000998734305058243 gap_converged=1 pbc="F F F"
Mo      14.31509830      15.51310829       7.55174151
Mo      11.67829456      14.89494783       7.82581558
Mo      13.53343210      13.20639104       8.47463956
Mo      15.76854619      11.60188073       8.83477910
Mo      11.17937182      12.50829268       9.25889277
Mo      14.74058727      16.72066985       9.12168627
Mo      15.85903300      14.01653762       9.40471893
Mo      13.50843436      11.21587055      10.27733685
Mo      10.19612778      14.60911703       9.95562207
Mo      12.04482770      16.53721111       9.24762613
Mo      13.42096538      14.79414710      10.32748646
Mo      16.82419451      11.62380879      10.72164785
Mo      15.04171274       9.54858599      10.43532809
Mo       9.06629799      12.12735330      10.90820273
Mo      11.17887940      10.23573692      11.21571314
Mo      15.84457274      15.67291137      11.53260141
Mo      14.95291946      12.93377950      11.83226285
Mo      11.70026181      13.13411974      11.59264665
Mo      13.40850585      17.28963179      11.91990305
Mo      17.60351865      14.14455257      11.70543900
Mo      12.91070385       9.03953424      12.04026580
Mo      11.21659404      15.73918428      11.95011872
Mo      15.35646151      10.47418379      12.73797400
Mo      13.62421715      14.70067367      13.22644756
Mo       9.15435728      13.76645939      12.29798308
Mo      10.05696683      11.46849349      13.47423775
Mo      17.00609333      11.92557847      13.64506220
Mo      16.51213271      14.48964286      13.70373671
Mo      11.10709000       9.36913638      13.91998089
Mo       9.55616822      15.72425227      14.41555319
Mo      14.70169388      17.02364679      13.59396006
Mo      12.88040567      11.55315293      13.12896476
Mo      14.47802953      12.63508140      14.70761885
Mo      11.37684650      13.88820026      14.30531248
Mo       9.03860978      13.21686561      15.20094456
Mo      13.67027009       9.60993314      14.81541668
Mo       9.84608478      10.36168728      16.28872455
Mo      15.56794780      10.58046252      15.65248209
Mo      11.39769148       8.98336961      16.59337327
Mo      12.31142914      16.37855854      14.55756305
Mo      16.66100513      13.41211380      16.45163090
Mo      11.95983091      11.52529525      15.79628238
Mo      14.72912330      15.07093411      15.70673579
Mo      10.25896546      15.70480158      16.33626815
Mo      13.45041839      10.36872624      17.41040474
Mo      14.97944737      12.68183040      17.23376847
Mo      10.31211942      13.15703536      17.01426732
Mo      12.73510629      14.25044252      16.46418190
Mo      11.43514961      11.04308479      19.01485354
Mo      12.63587922      12.32140558      18.96421687
50
Properties=species:S:1:pos:R:3 config_type=qcd gap_pre_relax_energy=-466.63009321213053 gap_pred_energy=-470.24827394733313 gap_fmax_final=0.0009977461989865537 gap_converged=1 pbc="F F F"
Mo       9.07128238      12.42303865       7.09798077
Mo      12.01239943       7.03205053      14.04950472
Mo       9.20515709      13.56083109       9.66589900
Mo      16.10696173      14.24745340       9.55542642
Mo      11.00862026      16.10456521       9.73772561
Mo      14.90776979      10.48916690      15.47304598
Mo      10.81403495      11.56661924       9.29062532
Mo      14.94565712       9.33402159      10.72648527
Mo       8.50162025      13.39143173      13.88555812
Mo      12.27495701       8.07982996      11.06833895
Mo      14.60470794      15.31020365      13.14614450
Mo      14.40121493      11.94186295      16.72222820
Mo      12.58170345      13.60485377      15.61487329
Mo      11.28101003       9.60589589      13.42870829
Mo       8.29089710      10.79047422       9.27121365
Mo      13.56034072      12.61539786       8.86865966
Mo      14.58260186      13.08152833      11.61584834
Mo       9.42929886      10.42370650       6.93177120
Mo      12.80278143       7.98089948      15.38728902
Mo       8.33980658      12.19261617      11.31270184
Mo      13.67598652       8.96734551      13.23654316
Mo      16.55824939      15.08060581      11.05927303
Mo       7.69780987       8.33746309       9.78907156
Mo       8.80555300      10.51497036      13.61056339
Mo      11.88104202      13.83637720      10.39793451
Mo      15.00292281      13.29527269      14.50766327
Mo      13.73365809      15.41045920      10.65101083
Mo      14.10404921      15.69220322      15.68684205
Mo       7.43962741       9.11488761      11.42054304
Mo      13.33636337      14.82262965       7.97743972
Mo      10.73664626      12.22880165      12.36270352
Mo      12.74708312      11.00816378      11.28338373
Mo      15.53381115      11.13689647       9.88342798
Mo      12.52266079      16.33331812      14.68841882
Mo      12.96910017       9.91005831       9.05707456
Mo       9.85700161      14.63844396      11.99960369
Mo      12.13689706      10.72665477      16.04794285
Mo      11.47293232      13.86589093       7.69936174
Mo      10.43831286      11.95429417      15.14961023
Mo      11.81843951      11.21717140       7.10186809
Mo      10.65465751       8.87969165       8.89484532
Mo      10.32442389       7.42836607      11.33482582
Mo      10.08119145      14.54715943      14.63541374
Mo      11.50438282      16.59028710      11.56070135
Mo       9.66675932       8.92789007      15.54898667
Mo       8.92229778       8.09237201      14.09646638
Mo       9.98375554       9.79667955      11.11662559
Mo      12.32061377      14.29831516      13.11223291
Mo      15.42916793      11.12777773      12.57017335
Mo      13.15203557      11.67336130      13.89967599
51
Properties=species:S:1:pos:R:3 config_type=qcd gap_pre_relax_energy=-476.47404393833483 gap_pred_energy=-480.3404099597034 gap_fmax_final=0.000941049381831517 gap_converged=1 pbc="F F F"
Mo       8.55205310      11.35074380      15.96556479
Mo       8.03849544      12.81338026      14.62770206
Mo      11.07107837      10.29978271      15.51558032
Mo       8.04512626      14.44653941      12.30844613
Mo       8.53803284      10.03388876      13.73245544
Mo      10.45074628      13.24816557      15.83362156
Mo       7.28596524      14.06673154      10.32822315
Mo      14.03612604       9.96746732      15.21525166
Mo       7.80649583      11.76294532      12.00977206
Mo      12.25998256      15.33220782      15.74580568
Mo      10.30843307      14.96540972      13.66778090
Mo      10.99604376       8.92462603      13.33034120
Mo      12.77701579       8.21682275      15.13768722
Mo      10.34735111      12.00083147      13.61712218
Mo      12.61356277      12.34837301      15.68556379
Mo      11.43415253      17.58799487      12.45408039
Mo      10.02346556      13.28490887      11.17595433
Mo      15.30396105       7.78995127      13.91987636
Mo       7.49796934       9.47034164      10.98372280
Mo      12.81817537      10.78276527      13.18884767
Mo       9.74928230      15.81010073      10.84677951
Mo      12.95330634      16.97982819      13.09353213
Mo      12.41652545      13.74477116      13.49668590
Mo       9.25545259      14.19907254       8.88005821
Mo       8.66489998       8.03738842      11.94076962
Mo      14.04848995      14.77168554      15.17107955
Mo      10.11902223      10.56591516      11.40061130
Mo      12.42011813      12.40045764      11.13018241
Mo      12.14568129      15.27297981      11.27938464
Mo      15.42975514       9.65124533      12.92918210
Mo      14.75783318      12.32776071      13.65636279
Mo       8.49220289      11.71677727       9.25959525
Mo      12.75340811       9.73621086      10.58867800
Mo      11.87256939      13.90688610       8.95746836
Mo      13.34042976       7.98825535      12.56966171
Mo       9.64663127       9.01309588       9.47245568
Mo      11.11464772       7.78128223      10.76193082
Mo      14.57112475      14.60210188      12.12468448
Mo      11.11080205      11.40646126       8.88413761
Mo      10.04688239      12.47603230       6.82650157
Mo      15.39127516       9.44721868      10.11344691
Mo      14.83714081      11.90746970      11.28981062
Mo      12.08958934       8.80400181       8.20083496
Mo      14.40091310      14.02841438      10.02236323
Mo      15.86348766       7.34346224      10.75934266
Mo       9.79346200      10.35067748       6.90863235
Mo      12.63092803      12.77281628       6.67000103
Mo      12.31300545      10.72361068       6.33135691
Mo      13.88996109       7.39411383       9.91749859
Mo      13.78091856      11.42882384       8.65031751
Mo      14.26072000       9.08190375       7.78795232
51
Properties=species:S:1:pos:R:3 config_type=qcd gap_pre_relax_energy=-476.0301323284425 gap_pred_energy=-482.2063299731383 gap_fmax_final=0.000859524622655394 gap_converged=1 pbc="F F F"
Mo      15.37380211      16.24209213      14.51442710
Mo      15.60142851      18.73641193      14.60216242
Mo      12.75646806      16.06373970      14.25045742
Mo       9.51138151      15.09988141      14.08139444
Mo      13.14523088      19.34103257      14.68495307
Mo      12.87114352      13.16942116      14.26071230
Mo       9.78241566      13.34078829      13.92779264
Mo      12.04242259      10.91162926      14.29191468
Mo      15.53195564      13.60324335      14.41935449
Mo      15.27311886      10.41117458      14.42063997
Mo      13.95565120      14.59406033      16.54398407
Mo      11.30291565      14.48083644      15.95229049
Mo      13.94378247      17.37719088      16.54896963
Mo      14.06689106      11.89518474      16.25927967
Mo      11.06393206      17.18135622      16.04159046
Mo      11.49553880      11.52980035      15.98759490
Mo      14.28535614      14.72909839      12.22920719
Mo      16.95222082      15.07384669      12.32627330
Mo      11.59411286      14.71716849      12.29298640
Mo      14.34841037      17.41464988      12.63375459
Mo      13.91554935      12.02354677      12.36741816
Mo      17.51125426      17.83955789      12.43459034
Mo      11.61991703      17.21392300      12.81763013
Mo      11.36341196      12.09145577      11.38616189
Mo      16.44237453      12.45727557      12.11999788
Mo      11.50302913      16.45090841      17.67681156
Mo      12.59619307      13.44318693      18.34611352
Mo      15.25030247      16.69240224      10.37954929
Mo      13.45210303      16.08861431      10.34933195
Mo      12.33980654      13.01352111      10.25243997
Mo      15.48976357      13.49733176      10.50390794
Mo      14.44754115      15.61248828      18.68612948
Mo      16.34861853      16.08102779      17.12520330
Mo      16.33404392      13.20865890      16.91481976
Mo      17.91419489      14.90848049      14.84756470
Mo      17.88911302      17.41928197      15.09208526
Mo      17.55528071      12.29901897      14.69582741
Mo      14.29979390      12.76433093      18.85270103
Mo      16.08102587      10.23191700      16.01753897
Mo      14.91021623      18.40218027      18.55879027
Mo      16.45618544      18.64864111      17.28490439
Mo      18.78666363      13.88040145      12.95582085
Mo      19.09306519      17.11782505      12.82000296
Mo      17.23204171      16.43350597      19.40110205
Mo      16.89413193      14.56556936      19.56219702
Mo      18.44294542      14.60921642      17.49877148
Mo      19.43323159      17.29375413      17.20166055
Mo      18.80736219      11.86850870      17.00875143
Mo      19.94575697      12.88766740      15.95368964
Mo      20.20263048      16.24546064      15.95140380
Mo      13.93423238      20.18769355      16.05730266
52
Properties=species:S:1:pos:R:3 config_type=qcd gap_pre_relax_energy=-487.0934667120641 gap_pred_energy=-490.3130795510866 gap_fmax_final=0.0009664800369717372 gap_converged=1 pbc="F F F"
Mo      12.03414436      11.42505677      17.16677746
Mo      15.37095364      18.06326708      16.62247303
Mo      20.05443902      16.00579564      13.90981403
Mo      17.63425001      14.81135795      14.29597981
Mo      10.94636788      13.60507771      12.84097357
Mo      15.17918999      10.65100620      13.52424904
Mo      13.61485468      17.58169162      14.39995811
Mo      18.58558360      18.02943948      13.43857797
Mo      16.11296145      19.36779069      14.05046703
Mo      14.16072324      13.65341569      17.29719998
Mo      15.22115294      15.49093322      15.45927905
Mo      13.50904717      11.72389447      19.16108025
Mo      15.07004244      13.03863281      14.37659211
Mo      16.85063673      10.78998346      15.58930741
Mo      11.58978794      13.64472211      17.82580406
Mo      14.05406428      19.63195736      15.68668655
Mo      12.40448742      13.20994128      15.09707860
Mo      11.09826497      15.95718146      14.16491203
Mo      16.70584547      18.23608607      11.07591867
Mo      19.35561995      15.05339228      16.23001692
Mo      12.68604864      11.06939045      14.16575851
Mo      12.18619341      15.93491064      19.02224039
Mo      11.79801480      15.10128823      11.52018186
Mo      18.38583822      13.40994416      11.62511304
Mo      14.41384917      11.28814026      16.35518410
Mo      16.11039488      11.80337617      18.56661979
Mo      14.29113867      16.10871082      18.33398217
Mo      15.76778493      13.84793072      19.33078962
Mo      18.20189539      13.71326121      18.24030555
Mo       9.86485511      14.35717158      15.87466766
Mo      14.17238924      16.86266723      11.48312734
Mo      15.86319915      14.28963871      12.10039612
Mo      19.34797158      12.88896443      15.78766069
Mo      11.49899606      18.69710724      15.68930451
Mo      13.36783581      12.69062419      12.32387322
Mo      17.73785411      17.24958694      15.34257758
Mo      18.31117943      15.86385767      11.99485868
Mo      14.12373767      14.27494955      10.51646383
Mo      16.81875125      15.56632236      17.35094458
Mo      13.51340647      15.11806414      13.40849569
Mo      11.96469287      17.64300001      12.59787193
Mo      16.43440502      16.53676131      10.17775498
Mo      12.48287413      15.68200893      16.21412614
Mo      16.02254364      16.82244472      13.06516081
Mo      20.09442464      13.89246248      13.44477259
Mo      16.79032537      13.08553040      16.38780091
Mo      17.60028229      12.31338594      13.64620583
Mo      14.52377896      19.65836487      12.99425255
Mo      15.73433370      11.70730018      11.66883907
Mo      13.21766510      13.76124952      19.84528753
Mo      12.48564176      18.19617605      17.26288438
Mo      10.08653704      16.04604127      16.90060839
52
Properties=species:S:1:pos:R:3 config_type=qcd gap_pre_relax_energy=-485.99918083570026 gap_pred_energy=-491.117363847864 gap_fmax_final=0.0008190067974504225 gap_converged=1 pbc="F F F"
Mo      14.08527479      15.39368350      15.18062823
Mo      15.69972784      14.37505717      13.22643832
Mo      11.99640565      17.22032175      14.19937424
Mo      11.88416575      15.94114990      17.07341369
Mo      11.62979549      16.44002744       9.54618380
Mo      11.50503592      17.47236102      12.54187984
Mo      16.16795984      11.62750491      12.29784529
Mo      16.50389238      13.37902292      10.79059301
Mo      13.35501764      15.43671858      12.73104819
Mo      14.21613238      14.99564880      10.58709451
Mo      15.13005266      12.89112640      14.65668488
Mo      14.76241907      12.40117213       9.76277148
Mo      16.67979689      10.17231387      10.04497433
Mo      11.60495428      13.36095663      13.60276347
Mo      16.04531256       8.63208198      12.00190435
Mo      13.83615893      12.86215919      12.17364914
Mo      12.48529015      13.88775960       9.01830776
Mo      10.25125328      14.62218407       7.94250514
Mo      10.54276095      15.10921782      16.31408402
Mo      12.91017149      13.73766764      15.99504830
Mo       9.85771522      15.42409664      13.49094705
Mo       9.78324298      16.14483933      10.19603426
Mo      14.72873604      10.20375858      14.05311261
Mo      14.93992387       9.95397109       8.82108481
Mo      11.31476383      14.43980167      11.33821817
Mo      13.98129775      10.15818182      11.26514563
Mo       8.37963639      14.25213731      12.03306694
Mo      12.91531546       8.35910261      15.87693465
Mo      12.33520411      10.74709315      13.54216212
Mo       9.50368759      13.39489987       9.56579844
Mo      13.35731712      11.02080562      15.83921523
Mo      14.82866865       7.88120096      10.35038256
Mo      12.71145903      11.42856300       8.06614032
Mo      11.89877740      11.91702324      10.45946289
Mo      10.99207743      11.95192932      15.67507812
Mo      11.09834947       9.62052681      11.47364203
Mo       9.16806665      13.25146838      14.39262250
Mo       9.57739113      12.02152231      12.03470704
Mo      10.25274038      11.80444417       7.20974007
Mo      13.35885252       8.14296644      12.82734471
Mo      10.79103681       8.18653289      13.58946698
Mo       7.29059946      11.79283415      10.94355949
Mo      12.27200736       9.26847529       9.10354716
Mo       9.69257571      10.37303966      14.07018327
Mo       7.24717316      11.63114868      12.94741434
Mo      11.47355753       9.16008784      16.46272434
Mo       9.50781355      10.53647999       9.51312233
Mo      12.15264097       7.40043894      11.04302195
Mo      10.77127875      10.14124651       6.75316768
Mo       9.82625303       8.33754374       9.27705450
Mo       8.56194133       9.16802066      11.78797746
Mo       9.42538929       7.21475194      11.59779633
53
Properties=species:S:1:pos:R:3 config_type=qcd gap_pre_relax_energy=-496.96155319566833 gap_pred_energy=-499.8784845909473 gap_fmax_final=0.0009419168381179841 gap_converged=1 pbc="F F F"
Mo      14.75813944      12.89513614      14.19482665
Mo      14.42339923      11.66074831      18.33332074
Mo      15.67743732      16.56646849      19.90260199
Mo      10.96364066      17.38943822      15.47945469
Mo      12.89751590      11.02394646      15.89598755
Mo      17.00393571      15.91505837      17.61603067
Mo      18.46921219      11.69310997      16.42019116
Mo      11.61375651      11.60469316      18.16165444
Mo      14.45308345      15.85026329      17.34903578
Mo      16.26168810      13.56135169      16.82410991
Mo      16.86407874      10.79406343      13.75484505
Mo      16.26810835      14.72088869      12.37515548
Mo      12.78517635      19.33813674      13.86719033
Mo      13.59295471      17.73946541      15.47035112
Mo      12.99691574      18.40455295      17.81902232
Mo      18.57346144      12.87890882      11.90903256
Mo      15.00827049      13.92596008      19.19077015
Mo      15.71673160      11.21931724      16.03753614
Mo      14.15372828      10.47573686      13.57136432
Mo      18.83894096      14.99005680      12.36523444
Mo      17.60414500      13.92188252      19.44800550
Mo      12.63611419      16.19975120      10.67580075
Mo      13.26578758      11.56313691      12.01427176
Mo      16.28179898      17.65124204      15.55418757
Mo      15.18131838      18.27232501      17.95590051
Mo      18.19274626      15.56023588      15.03280457
Mo      12.92814141      15.12180825      14.77267210
Mo      15.07228727      16.23635435      10.45678993
Mo      13.62745906      18.64288797      11.39494361
Mo      17.14172069      11.96983366      18.71727800
Mo      19.83016303      13.87497569      14.60672919
Mo      17.00250538      17.12230168      12.91838860
Mo      12.12615089      12.60557341      14.12781973
Mo      15.85683023      12.26271455      11.87451357
Mo      11.86729644      16.85499647      13.12433419
Mo      15.76501086      18.75712063      11.21350637
Mo      13.48617776      13.32810994      16.67927672
Mo      12.38897321      14.00555073      18.87523281
Mo      10.77213826      14.51984178      12.73391551
Mo      18.81998077      13.74151461      17.08273748
Mo      17.74134641      16.30747365      10.35390347
Mo      13.50146758      14.36836640      12.17894885
Mo      15.56892002      15.31492970      14.98039412
Mo      17.46559942      13.06118865      14.32984411
Mo      11.85304655      15.86129569      17.11720126
Mo      13.59185262      16.49593657      19.64444191
Mo      14.57226910      13.74875754      10.07007479
Mo      10.41452099      14.86141102      14.78088994
Mo      14.48818747      16.87278250      12.99124599
Mo      10.90379495      12.96248129      16.82864527
Mo      14.76072031      20.15429503      15.69324213
Mo      15.36446328      19.51727947      13.87028323
Mo      17.25591995      14.26337356      10.01309047
53
Properties=species:S:1:pos:R:3 config_type=qcd gap_pre_relax_energy=-496.2686578328643 gap_pred_energy=-501.30959358507494 gap_fmax_final=0.0008544088625744549 gap_converged=1 pbc="F F F"
Mo      15.45440161      15.72224338      14.48524534
Mo      15.14008994      18.19547403      14.64328695
Mo      12.71254718      16.08944846      14.16877968
Mo      10.23049174      16.74244813      13.76361560
Mo      12.59541228      18.64659277      14.27660648
Mo      12.78603241      13.32283637      14.04809179
Mo      10.13726226      14.70350626      13.94609058
Mo      11.80950085      10.59681466      13.54192370
Mo      15.68587526      12.95668410      14.38040706
Mo      16.07262516      10.11995331      14.12870849
Mo      14.05671988      14.31078160      16.28064681
Mo      11.38907568      15.13254782      16.09328684
Mo      13.79457187      17.01502854      16.57873752
Mo      13.65671571      11.32857471      15.55594053
Mo      11.34611335      17.85659208      16.08221064
Mo      11.10749123      12.35162720      15.61333290
Mo      14.31034542      14.43770042      12.29934679
Mo      17.00886559      14.45913492      12.31935276
Mo      11.87499295      15.15597304      11.87741033
Mo      14.11300636      17.19515241      12.17557034
Mo      13.99012789      11.52457598      12.60257731
Mo      16.77166124      16.98155134      12.85577032
Mo      11.94675926      17.58618146      11.72110744
Mo      11.20814206      12.14481551      12.52209695
Mo      16.67378354      11.76770211      12.46764286
Mo      12.40506580      16.08420559      18.31696910
Mo      12.31615347      13.32459074      18.00921104
Mo      15.71339487      16.45397124      10.19507375
Mo      14.03553974      16.23221956       9.67265091
Mo      13.30034057      13.16016588      10.31695002
Mo      15.19787085      13.21789398      10.34223953
Mo      14.87314201      15.02720940      18.68059249
Mo      16.51426325      16.20519366      16.97112389
Mo      16.75968125      13.54533951      16.81659258
Mo      18.14489598      14.83301555      14.90748076
Mo      17.87822370      17.53436133      15.19826232
Mo      18.20317572      12.15443169      14.70579069
Mo      14.63672024      12.46506807      17.88239982
Mo      16.14697899      10.95303730      16.03012751
Mo      14.73415498      17.86483284      18.83104273
Mo      16.07495633      18.74743549      17.17147123
Mo      18.95261206      13.03417259      12.78210042
Mo      19.46542056      16.15713016      13.29622037
Mo      17.41512832      17.01973662      19.18534915
Mo      16.92104698      13.85179193      18.90844402
Mo      19.04497302      15.55119929      17.24526498
Mo      18.54537558      18.09508462      17.91054979
Mo      19.56545281      13.07238071      16.86508589
Mo      20.52893747      13.87835573      15.34972577
Mo      20.19524781      16.93611929      15.01461583
Mo      13.51783696      19.67716177      16.73390307
Mo      12.37762593      18.88223325      18.28567665
Mo      12.15053290      11.18508054      17.43465853
54
Properties=species:S:1:pos:R:3 config_type=qcd gap_pre_relax_energy=-505.7464258096088 gap_pred_energy=-510.34371833676005 gap_fmax_final=0.0009498685678840505 gap_converged=1 pbc="F F F"
Mo       8.52370757      10.35740179      16.08304508
Mo      10.11232855       9.72133997      13.51396050
Mo      11.10405000       8.50791558      15.74091349
Mo       7.55765298       9.95847240      13.03356629
Mo       9.58089030      11.39902175      11.27450619
Mo      10.87404517       9.78748321      17.36806418
Mo      12.09472890      10.20954001      11.40852768
Mo       9.14061757      12.00932730      16.87193231
Mo      12.32871751       9.57305419       8.05844919
Mo      11.13315088      11.41929008      15.56674074
Mo       7.41415366      12.33815799      11.83712720
Mo      12.92262476       9.67398677      14.04085669
Mo      13.35296071      15.10240949      14.79172153
Mo      13.38486645      10.13612053      16.23947008
Mo      14.51544384      11.33748877      12.63141038
Mo      10.66062737      14.45311228      15.32148961
Mo       8.45956147      11.59552488       8.83219536
Mo      13.82589203      12.03962478       7.93749647
Mo      11.68172264      14.06407178      16.76949074
Mo      17.43381598      11.44294957      12.31793658
Mo      11.43625170      11.54773345       9.07499146
Mo       7.42093804       9.94827940      10.90413428
Mo      15.69811126      10.80060337      14.97261611
Mo       8.86814098      13.80708613      10.16008768
Mo       9.52582858       8.43275449      11.57159830
Mo      11.62233574      15.68654937      12.86622278
Mo       8.91783560      12.28602596      14.00554558
Mo      15.27836118       8.94189771      14.63914053
Mo       9.69132643      16.36191077      10.42451169
Mo      11.73551750      12.16338482      13.01423131
Mo      11.38858400       7.67368425      12.78275991
Mo      11.28705168      13.61148666      10.97985520
Mo       9.90625894      10.87973151       6.31161405
Mo      10.00282462       9.45519807       9.19943220
Mo       9.43065161      14.18539583      12.71020689
Mo      10.01513038      15.80828896       8.78787951
Mo      13.39379201      17.04520279      12.77600604
Mo      13.61703621      12.47650295      10.40184268
Mo      16.58051398       9.84443612      11.82536528
Mo      15.81202457      13.58256841      14.13343022
Mo      13.65293862      14.09999530      12.55270723
Mo       9.87131087      13.12546473       7.71827464
Mo      12.73285972      15.62615249      10.25843096
Mo      13.43602706      12.56712218      14.99303219
Mo      11.94687858       8.07595235      10.24742937
Mo      15.76874576      15.64217454      13.87136233
Mo      14.03240473       8.44866872      11.84262971
Mo      11.34987974      11.81056896       5.93422179
Mo      14.17833745       9.87280900       9.95446136
Mo      12.43260917      13.89762900       8.07397837
Mo      14.66792446      14.39732910       9.22874653
Mo      16.03702224      11.77586577       9.97258812
Mo      14.96064672      16.10665118      11.46819756
Mo      15.99270667      13.67896763      11.49393296
54
Properties=species:S:1:pos:R:3 config_type=qcd gap_pre_relax_energy=-505.8717804598323 gap_pred_energy=-511.011565007321 gap_fmax_final=0.0009832896879303481 gap_converged=1 pbc="F F F"
Mo      16.06487596      10.40225363      12.90115032
Mo      14.62169369      12.47349782      14.48628177
Mo      14.75494090      13.25597866      12.34003336
Mo      15.47184254       9.75556635      14.57348906
Mo      14.53819336      12.89428865       7.84432589
Mo      14.90253470      11.35478106      10.22353289
Mo      13.26052360      15.13466990       7.12815572
Mo      13.73758180      14.92704632      14.56139173
Mo      15.21130864       8.61166353      10.60303797
Mo      14.11217692      14.06593577       9.70253252
Mo      14.81796379      10.18694028       8.24652689
Mo      13.55825560      10.69851582      12.77892693
Mo      12.65115614      13.91788276      15.80603968
Mo      12.66113792      10.85170722      15.45712582
Mo      13.78547868       8.41246302      12.98967250
Mo      12.55248501      16.72816062       9.89816036
Mo      14.32786197       7.65027852       8.93925401
Mo      12.41789826      12.25957272      10.86482395
Mo      12.37311380      13.71530451       6.49147072
Mo      12.49323687      11.56321916       8.46938280
Mo      12.95880584       8.29274645      15.92990184
Mo      12.62925900      15.05055144      11.76618626
Mo      10.65875006      15.69586618      13.86936381
Mo      11.32608135      14.12824031       9.33250147
Mo      12.75005677       9.41180070      10.36712429
Mo      10.15765814      15.82194159       7.90410017
Mo      12.59258162       9.27811775       7.67684461
Mo      12.79773587       6.91754976      11.03935066
Mo      12.11366746      12.86908708      13.61019969
Mo      10.19444707      13.83549254      11.94665133
Mo       9.73421701      12.15067053       9.48206250
Mo      10.98801127      16.73392948      10.90879637
Mo      11.27896322       6.90439045       9.55907963
Mo      11.30904358       9.46761239      13.88759083
Mo      10.30395048       9.56665809       9.06880109
Mo      10.28771467      11.25588758       6.77075543
Mo       9.65545954      14.47675721      14.72976528
Mo      10.69810267      10.88148580      11.69990845
Mo      10.41989903      11.66749061      15.90191515
Mo      11.38005414       6.80897380      13.53981696
Mo      11.21711756       8.59425471      16.35382092
Mo       9.31079629      14.26631936       7.40382836
Mo      10.49681899       8.08377689      11.36352044
Mo       8.85507122      14.49014303      10.04796064
Mo       9.39636809      11.82772516      13.73299142
Mo       8.36456591       9.81584920      10.14162883
Mo       8.54283186      11.09974010       7.37355378
Mo       7.38518734      13.81454630      12.38357837
Mo       9.55294540       7.17841720      13.90441427
Mo       7.52361839      12.41516029      15.34921771
Mo       8.76761156       9.87530783      15.19986113
Mo       8.53566434       9.62158824      12.62627466
Mo       7.50833963      12.35492800      11.29965121
Mo       6.67531859      11.16824174      14.20464162
55
Properties=species:S:1:pos:R:3 config_type=qcd gap_pre_relax_energy=-517.5597156124923 gap_pred_energy=-519.7190285319177 gap_fmax_final=0.0009367368264562564 gap_converged=1 pbc="F F F"
Mo       7.21330900      11.10360233       9.46041287
Mo      15.61809640      12.77116079      11.04939144
Mo      12.88824512       8.50052340      13.26900055
Mo       9.19491280       6.52434710      10.98185127
Mo      13.43922396      12.81148407      12.97139329
Mo      10.23362132       8.86623414      14.96428524
Mo      11.87925510      10.81992028       8.55811917
Mo      10.90698192      13.08026444      14.77067479
Mo      12.95395369       8.63923957      10.43116337
Mo       9.55023673      10.92167686      10.38701067
Mo       9.45081142      10.86605446       7.71930558
Mo      10.46982344       8.81659839      12.23014296
Mo       6.79341426      11.65565773      14.79854261
Mo       6.84938139      11.30936040      12.14974686
Mo       7.88451307       9.16222547      13.92893663
Mo      11.88949380      15.11707102       8.52134091
Mo       9.17124694      15.15028907       7.72619064
Mo      15.54325125      13.31057394       8.44440317
Mo       9.53541021      15.26091227      10.43521938
Mo      11.53980013       6.62622411      11.45668477
Mo      13.22725555      12.95248517      10.09880699
Mo      11.59487579       6.75621904      14.04046801
Mo       9.06875126       6.82694248      13.11907072
Mo      10.86995808      12.89310983      12.05128522
Mo      14.50534496      10.50431280      12.05756063
Mo      14.44521894      10.75604373       9.23935480
Mo       7.88760864      13.24593832      14.15768317
Mo      11.74071232      10.76197666      14.05365162
Mo      12.16983504      10.75360082      11.31444438
Mo      12.71485660       8.96535855      16.09388667
Mo       9.19621119      11.28421462      15.71705241
Mo       9.12832958      11.13450853      13.19147283
Mo      15.91464193      12.66862464      13.79634129
Mo      14.83193411      14.76450711      11.93853882
Mo      14.56519499      14.97631951       9.21460160
Mo      13.49809069      12.73783481      15.57504695
Mo      12.45632284      14.94987972      13.76716815
Mo      12.18653269      15.04967379      11.19151885
Mo      10.46380946      12.99805375       6.77922485
Mo      10.37409819       8.58251365       9.40001112
Mo       9.86380426      14.78068392      13.01260766
Mo      10.91822988       8.93054192       6.59827012
Mo       8.05345291       8.96905343      11.27846247
Mo      14.23091858      10.68146349      14.74620437
Mo      13.02699122       8.67006270       7.77479460
Mo      13.05470093      13.04315069       7.50564046
Mo      11.85277213      10.76200472      16.61402792
Mo      11.85855178      10.74676968       5.96384495
Mo      10.55210469      13.21619593       9.28383022
Mo      15.16596164      14.47342371      14.53053873
Mo      14.36996598      10.70202920       6.96782118
Mo       8.29150877      13.22146309      11.23203249
Mo       7.69878848       9.16995730       8.78614267
Mo      11.61303313       6.71692729       8.83594255
Mo       8.12094089      13.55702553       8.33512432
55
Properties=species:S:1:pos:R:3 config_type=qcd gap_pre_relax_energy=-516.9223656870274 gap_pred_energy=-521.3763910722776 gap_fmax_final=0.0008811538747776536 gap_converged=1 pbc="F F F"
Mo       8.72544225      11.94231106      11.01836067
Mo      17.80038639      14.35413560      12.78364785
Mo      14.93321683      10.72601981      15.20227294
Mo      11.44645433       8.24810778      13.12374044
Mo      15.83762371      13.67781322      14.42923606
Mo      11.86554710      11.34371998      17.11111744
Mo      13.51672294      12.83254660      10.59259013
Mo      12.78729069      15.57527679      17.03156815
Mo      14.72734840      10.77293460      12.53704310
Mo      10.96846746      12.44190726      11.99234145
Mo      11.16849812      12.12417051       9.50844576
Mo      12.19768467      10.88190789      14.29496552
Mo       8.66579056      14.27188057      15.20510976
Mo       8.24322064      12.92085133      13.96939607
Mo       9.98800406      11.69855835      15.53509389
Mo      12.96721267      16.70716355      10.79631514
Mo       9.96176389      16.23267416       9.81035540
Mo      17.06134401      15.88437983      10.61285984
Mo      10.84459583      17.14561976      12.64379539
Mo      13.41497318       8.67462877      13.86741347
Mo      14.81297557      15.08231128      12.16571102
Mo      12.97634651       9.14678066      16.47500607
Mo      11.01865308       9.01887159      15.60092821
Mo      13.41910471      15.15161467      14.74652400
Mo      16.91949236      11.75823773      13.70670693
Mo      16.11938354      12.97047123      11.37123959
Mo      10.99877888      16.27128904      14.60579425
Mo      13.61088979      12.72476773      16.00282916
Mo      13.60842093      12.78041186      13.20391008
Mo      14.55276442      11.41949815      18.19693222
Mo      11.26241236      14.29850269      16.84677987
Mo      11.10225420      13.50140586      14.44357416
Mo      18.77686534      13.18584152      15.00923607
Mo      16.70186185      16.26837341      13.45505058
Mo      15.77205968      17.34531791      11.19167742
Mo      15.56910488      14.03685508      17.12489376
Mo      15.29637241      16.34492221      15.70716684
Mo      13.79397063      17.60352864      13.64860001
Mo      12.19088173      14.70553883       9.48187873
Mo      12.34875987      10.26290527      11.44505683
Mo      13.40893853      18.14803077      15.33511818
Mo      13.01806747      10.44874458       8.78196088
Mo       9.94801327      10.43417408      13.14216029
Mo      16.79582029      12.18172423      16.39602114
Mo      14.90314131      10.85593335       9.80594996
Mo      14.86210703      15.07280853       9.62466322
Mo      13.52066577      12.92722293      18.71299224
Mo      13.67942327      12.86040350       8.00515081
Mo      12.11702822      15.01718576      12.13480679
Mo      17.80347854      14.87101604      15.69981917
Mo      15.73568139      13.01079597       8.58632597
Mo       9.51243169      14.78123563      12.44586080
Mo       9.65126523      10.27869092      10.49216397
Mo      13.98837537       8.63966556      11.21669126
Mo       9.51224625      14.56793947       9.55477514
