3
Properties=species:S:1:pos:R:3 config_type=qcd gap_pre_relax_energy=-1.4843287722081133 gap_pred_energy=-1.570099939428329 gap_fmax_final=0.0003486566426849187 gap_converged=1 pbc="F F F"
Na       8.87243131       8.92990712       6.49342948
Na       6.94081241       6.83645623       8.44878362
Na       9.06784959       9.11472996       9.93888020
4
Properties=species:S:1:pos:R:3 config_type=qcd gap_pre_relax_energy=-2.292904981817433 gap_pred_energy=-2.34371492142299 gap_fmax_final=0.0008744268153111239 gap_converged=1 pbc="F F F"
Na       8.30904391      10.42339673      10.14695920
Na       9.60414983       7.48431685       7.75823809
Na       8.37502232      10.49803286       6.74039426
Na       9.52452490       7.40699453      11.16714941
5
Properties=species:S:1:pos:R:3 config_type=qcd gap_pre_relax_energy=-3.0880288268210125 gap_pred_energy=-3.0960061945986967 gap_fmax_final=0.000602969163660901 gap_converged=1 pbc="F F F"
Na       8.18627348       8.77500926       7.03381995
Na      11.41026284       7.49282874       6.91199457
Na       7.07225321      10.36857977       9.94316466
Na      10.50292918       9.06789472       9.86372996
Na       9.22633589      10.69374211      12.64534548
6
Properties=species:S:1:pos:R:3 config_type=qcd gap_pre_relax_energy=-4.016642487712686 gap_pred_energy=-4.0959110914378085 gap_fmax_final=0.000982958340361697 gap_converged=1 pbc="F F F"
Na       8.12480492      10.87814780       7.10881933
Na      10.57195212       8.44522261       6.79654728
Na       8.11108189       8.09979901       9.43220565
Na      11.65623092       7.60253110       9.97930815
Na       7.73647780      11.55368986      10.48371625
Na       9.87144782       9.49260508      12.27139881
7
Properties=species:S:1:pos:R:3 config_type=qcd gap_pre_relax_energy=-5.50473383176451 gap_pred_energy=-5.510662612184946 gap_fmax_final=0.000703147757453972 gap_converged=1 pbc="F F F"
Na      10.70091430       6.82048545       7.67881930
Na       7.60632517       8.05169539       6.38690184
Na       6.37632543      10.53172054       8.64418469
Na       9.87385311      10.27174150       8.00985397
Na       8.71239873      10.83617590      11.32911244
Na      11.38010169       8.53585034      10.73761351
Na       8.03699109       7.63924039       9.90042376
7
Properties=species:S:1:pos:R:3 config_type=qcd gap_pre_relax_energy=-5.421839604387566 gap_pred_energy=-5.510660225601898 gap_fmax_final=0.0009471994889207813 gap_converged=1 pbc="F F F"
Na       7.59279922       6.50864742       6.84736879
Na      10.67369666       6.38606463       8.65187824
Na       9.54979000       9.45753741       7.22844394
Na       7.80400061       7.89798614      10.12391367
Na      11.00063809       9.43307264      10.48690983
Na       8.11810735      11.43632324       9.82264655
Na       6.00452430       9.62392476       7.58239521
8
Properties=species:S:1:pos:R:3 config_type=qcd gap_pre_relax_energy=-6.441758994225368 gap_pred_energy=-6.502440785639252 gap_fmax_final=0.0009783697540157754 gap_converged=1 pbc="F F F"
Na      11.16739518       9.05305226       7.86956586
Na      10.43697205      10.08200252      11.15892169
Na       8.13893598       7.34965108       8.44463874
Na       7.32118552      10.57808899       9.59287572
Na       7.81219029       7.83043013      11.94019362
Na      10.10298276      12.39844627       8.35849804
Na      10.88115001       6.61585705      10.56845923
Na       8.26793620      10.22121969       6.19559509
9
Properties=species:S:1:pos:R:3 config_type=qcd gap_pre_relax_energy=-7.377265251614645 gap_pred_energy=-7.430215612953173 gap_fmax_final=0.0009673864683120327 gap_converged=1 pbc="F F F"
Na      10.72755552      11.74476351       6.16757791
Na       9.00836981       9.41763963       8.19998942
Na      12.30695791      10.77304672       9.18449132
Na       9.19445922      12.78189338       9.17804154
Na      10.70709806       8.25666989      11.07515158
Na       7.90419659      10.32903184      11.58756197
Na      10.92280200      12.04964866      12.17010742
Na      13.45020673       9.71804430      12.60813383
Na      10.25851259       9.40942047      14.30910342
9
Properties=species:S:1:pos:R:3 config_type=qcd gap_pre_relax_energy=-7.3611276779348245 gap_pred_energy=-7.516627741342738 gap_fmax_final=0.0009428574230731461 gap_converged=1 pbc="F F F"
Na       6.68090267      10.71064000       9.27652264
Na      12.72463385       9.82485464       8.45052629
Na       9.32529044       8.74167922       7.94006485
Na       9.91976014      12.07112306       8.72515635
Na      11.18040729       6.46208988       9.69239866
Na       7.91814955       7.88789868      11.07251057
Na      10.97841197       9.45323294      11.34157851
Na      12.28800835      12.60885601      11.13469801
Na       8.63636358      11.89155342      12.01847196
10
Properties=species:S:1:pos:R:3 config_type=qcd gap_pre_relax_energy=-8.37642250506049 gap_pred_energy=-8.407235889712492 gap_fmax_final=0.000962315791982529 gap_converged=1 pbc="F F F"
Na       9.80179720       8.24926457      12.63466577
Na      10.77107969      10.51096145      10.00614277
Na       7.31514924       9.51112574      10.38969053
Na      11.02611480      12.24645444       6.87823889
Na       8.14294478      12.64602063       8.83150806
Na      12.15523744       8.93527252       7.10092885
Na       8.63286908       9.58791035       7.02849660
Na       9.96450054       7.06843770       9.25987111
Na       7.30331017       6.08982290      11.45269134
Na       6.57627970       6.84401235       8.10704873
10
Properties=species:S:1:pos:R:3 config_type=qcd gap_pre_relax_energy=-8.293245509750466 gap_pred_energy=-8.518230686926255 gap_fmax_final=0.0009832349757784825 gap_converged=1 pbc="F F F"
Na       9.30951894       6.52962348       7.75273817
Na       9.63286309       9.91907722       7.75889813
Na       8.50458377      12.97516362       9.24273563
Na       6.85184682       8.97899025       9.44847715
Na      12.62731098       8.22797949       8.75893670
Na      11.75364466      11.55376699       9.74019320
Na       9.96571249       7.86512891      10.81555080
Na      10.76769357      13.54471894      12.32130649
Na      12.16319270       9.96475661      12.70127624
Na       8.79505452      10.81221601      11.83130903
10
Properties=species:S:1:pos:R:3 config_type=qcd gap_pre_relax_energy=-8.425621825947228 gap_pred_energy=-8.518228850478643 gap_fmax_final=0.0009597767912184762 gap_converged=1 pbc="F F F"
Na      14.86305917      13.28264245      10.66339136
Na       9.84787885      10.31863285       9.96800039
Na      11.50327879      13.47730713      10.29341659
Na      13.52331018      12.05285280      13.74399419
Na      12.07016750      15.09471492      13.43179997
Na      11.22920210       9.31177446      13.94541209
Na      11.13829868      12.49859748      16.13279922
Na       9.91574856      12.27426453      12.96357745
Na      12.86331305      11.50842013       7.87008033
Na      13.06809303      10.20314315      11.00987832
11
Properties=species:S:1:pos:R:3 config_type=qcd gap_pre_relax_energy=-9.472569092548609 gap_pred_energy=-9.505451955001595 gap_fmax_final=0.0009351406000804492 gap_converged=1 pbc="F F F"
Na       8.19113082      10.20338277       8.95599591
Na       9.53782088      13.45342246       9.67294315
Na      11.50940666      10.58698280      10.10094266
Na      13.07978111      14.03353088       9.75392695
Na       9.50997451       7.93397086      11.32252153
Na      14.80446251      14.63267393      12.84730993
Na      11.95340282       9.47136771      13.50664130
Na      14.71099634      11.37008871      11.53275046
Na       8.60943037      11.19602859      12.30789080
Na      11.66516374      13.00968117      12.79143472
Na      14.20463594      11.88507581      14.98384829
11
Properties=species:S:1:pos:R:3 config_type=qcd gap_pre_relax_energy=-9.37056460163433 gap_pred_energy=-9.488248501670807 gap_fmax_final=0.00043332364756269444 gap_converged=1 pbc="F F F"
Na      12.47830850      10.10051353       6.50002629
Na      13.09099253      12.68227103       9.14494676
Na      10.17922054      10.95259255       8.98101235
Na       9.96888885       7.72592590       7.94936652
Na      13.03418980       8.94414021       9.69112252
Na       7.09837087       9.92202569       9.90845251
Na       9.52464688      13.64596440      10.82415880
Na       9.98541418       8.27208203      11.46476590
Na       6.77197621       7.94945811      12.84517534
Na      11.92156757      11.29552800      12.19069884
Na       8.47791666      11.04099116      13.03176676
12
Properties=species:S:1:pos:R:3 config_type=qcd gap_pre_relax_energy=-10.498099216446885 gap_pred_energy=-10.568160783177518 gap_fmax_final=0.000995683442713487 gap_converged=1 pbc="F F F"
Na       9.69234332      11.27511178       6.63397709
Na      12.47661942      13.31811036       7.83648209
Na       9.18932060      13.25563449       9.43886333
Na       7.94558183       9.85076544       9.47196092
Na      11.53021412      10.43249149       9.48515087
Na      14.75399448      11.62116938      10.14432776
Na      12.83489826      10.21425539      12.87707824
Na      10.58658108       7.59426251      11.21174188
Na       7.39554635       8.03795582      12.56701760
Na      12.13041773      13.47159332      11.46596685
Na      10.32052658       8.27110796      14.62030107
Na       9.39998383      10.91356967      12.50315987
12
Properties=species:S:1:pos:R:3 config_type=qcd gap_pre_relax_energy=-10.285673861647222 gap_pred_energy=-10.326957452740153 gap_fmax_final=0.000960120881888833 gap_converged=1 pbc="F F F"
Na      10.38102242      10.33972809       8.00472316
Na      13.15193252       8.46740798       6.93350331
Na      13.85883282      11.74409061       8.00592698
Na      12.85534348       9.29284955      10.33720348
Na      11.37160113      13.00027851      10.22885616
Na       8.24762470      11.50450070      10.62760683
Na       9.57667131       8.28415649      11.34742285
Na       6.11053330       8.83627929      11.43995859
Na      14.46247571      12.15486443      11.57365018
Na       7.96641063      10.42248328      13.97414881
Na      11.37276411      10.91108536      13.04487441
Na       9.30781893      13.70530680      13.14515630
13
Properties=species:S:1:pos:R:3 config_type=qcd gap_pre_relax_energy=-11.59328821267239 gap_pred_energy=-11.611613892148121 gap_fmax_final=0.0009569304456935331 gap_converged=1 pbc="F F F"
Na      11.34130057       8.98267350      10.55497350
Na       8.55330625      12.69731337      13.94147819
Na      12.86395941      11.34395801       8.30038966
Na      13.80758809      15.21051574      16.05784262
Na      14.12077027      11.85279428      15.28608825
Na      10.95907479      12.90596299      16.61492340
Na      15.98976277      12.94180156       9.49197831
Na      12.94665202      14.51537400       9.97839724
Na      15.24937937      14.30051801      12.81480436
Na      13.76465666      11.32022563      11.62933053
Na      11.78486153      14.05393646      13.46833686
Na      11.15713217      10.40160871      13.85244115
Na      10.25909695      12.27085857      10.80655677
13
Properties=species:S:1:pos:R:3 config_type=qcd gap_pre_relax_energy=-11.384089324467709 gap_pred_energy=-11.509008131903748 gap_fmax_final=0.00092240060243438 gap_converged=1 pbc="F F F"
Na      10.18539825      10.15534700       7.50390462
Na       9.78786080       9.94137469      10.83142649
Na       9.70742390       6.89191129       9.17760950
Na      12.74539935       8.44112273       9.50320705
Na      12.62929552      12.05139552       9.18902784
Na      11.83498818      15.85939463      10.06704423
Na       9.63818939      13.31031314      10.60281892
Na      13.05571931      13.52711296      12.23335030
Na      13.22768149      10.14871630      12.66596423
Na      11.05598315       7.37591971      12.58936707
Na      10.40601436      15.16756595      13.58293086
Na      10.18572593      11.58098732      13.76044272
Na      12.80543344      12.81395186      15.55801926
14
Properties=species:S:1:pos:R:3 config_type=qcd gap_pre_relax_energy=-12.645825393926437 gap_pred_energy=-12.685926181834219 gap_fmax_final=0.0009310013992812537 gap_converged=1 pbc="F F F"
Na      14.20380152      11.33233290       7.41445609
Na      11.51884240      13.46668940       8.56828551
Na       8.28408452      11.88035239       8.68739443
Na      11.40734009       9.90689115       8.96867519
Na      14.49038384       8.61524319       9.83556273
Na       8.62712946      15.04198802      10.06562405
Na      11.40261175       6.71375689      10.57238018
Na       8.65709454       9.30612987      11.11688371
Na      13.91420684      11.99810645      10.80690379
Na       6.84342018      12.44353170      11.91043079
Na      10.28807704      12.47602464      11.77429158
Na      12.05218419       9.49020750      12.50817790
Na       9.71380210       7.10383677      13.66629228
Na       8.84566752      10.47355515      14.35328777
14
Properties=species:S:1:pos:R:3 config_type=qcd gap_pre_relax_energy=-12.591148968239708 gap_pred_energy=-12.66880515899944 gap_fmax_final=0.0008713356755631083 gap_converged=1 pbc="F F F"
Na      16.60321968       9.90475094      11.97510320
Na      16.22291447      12.08833286      14.69870427
Na      14.00973139       9.80475916       9.61685918
Na      14.74017342      12.79466240      11.15675983
Na      13.07202715      11.72836002      16.66567872
Na      13.40337953      10.42438134      13.35358516
Na      12.40656293      13.06127646       8.31022510
Na      11.16779328      11.29335499      10.89161296
Na      11.02776654      14.57818331      16.84440645
Na      13.48355891      14.35521767      14.32879080
Na      10.44821138      12.66416641      13.93009074
Na      12.08838072      14.93717762      11.24181659
Na       8.89739564      13.94945491      10.83840638
Na      10.09906963      16.08610659      13.81814530
15
Properties=species:S:1:pos:R:3 config_type=qcd gap_pre_relax_energy=-13.735452250078062 gap_pred_energy=-13.757578968567422 gap_fmax_final=0.0009994945069766064 gap_converged=1 pbc="F F F"
Na      12.50591577      14.46643781       9.88950129
Na      15.77443759      13.06368745       9.94365007
Na       9.87910495      12.09044900      10.42058223
Na      13.03029306      11.25936050       8.36916837
Na      15.62824612       9.59213098      10.28181912
Na      14.51856482      14.54410110      13.04138194
Na       7.70156426      13.29880379      13.05087614
Na      11.06562098      14.31098075      13.16212387
Na      13.09335410      11.38182651      11.83819160
Na       9.95250120      10.73331172      13.76167709
Na      15.90717833      13.61107068      16.14350597
Na      16.39500080      11.58445344      13.21796723
Na      12.78781477      15.36569906      16.13220449
Na       9.58348861      13.36446780      16.14980966
Na      12.87735449      12.03365926      15.29798078
15
Properties=species:S:1:pos:R:3 config_type=qcd gap_pre_relax_energy=-13.724138547319656 gap_pred_energy=-13.747100457959338 gap_fmax_final=0.0009748266357559669 gap_converged=1 pbc="F F F"
Na      11.64708312      10.13509948       7.84831086
Na      10.26475724      13.28763607       6.97142716
Na      13.32068566       7.34024156       9.33254853
Na       9.66105625      15.16707229       9.93437104
Na      14.98955968      10.48094286       8.68109843
Na       9.37220252      11.68257631       9.99790154
Na       9.90862255       8.15319400      10.27639983
Na      12.71810448      13.15438188       9.51181887
Na       6.78128049       9.75917103      11.56542034
Na       8.33781767       7.03472948      13.22343666
Na      12.77523493      10.07908861      11.38019397
Na       7.60755749      13.15873608      12.59713338
Na      11.87398194       6.97960102      12.86674754
Na      11.14320107      13.49693226      12.70587520
Na       9.78067195      10.27241411      13.28913371
15
Properties=species:S:1:pos:R:3 config_type=qcd gap_pre_relax_energy=-13.650908929175483 gap_pred_energy=-13.732513403678116 gap_fmax_final=0.0009794343469607027 gap_converged=1 pbc="F F F"
Na      12.79825707      13.60354752       6.98609953
Na      10.83535714      10.57908437       6.41702617
Na      13.75257269      10.58681938       8.40147516
Na       7.77372833      10.10672903       8.19925604
Na      10.68551434      12.30294856       9.43126420
Na      13.78969511      13.61915496      10.50530432
Na      10.61168444       8.82436957       9.61220614
Na       7.49927378       7.95542749      11.39416000
Na      13.27273678      10.42139909      11.96020196
Na       8.11173650      11.26398687      11.44034295
Na      10.76379604      12.59137275      13.10748453
Na      10.47531424       8.79759634      13.03725087
Na      14.12650332      13.11950449      14.04609303
Na       8.27534864      10.55780851      14.86413128
Na      12.14434348      10.58611295      15.51356571
16
Properties=species:S:1:pos:R:3 config_type=qcd gap_pre_relax_energy=-14.755564819592713 gap_pred_energy=-14.823453077733888 gap_fmax_final=0.0007617452548787547 gap_converged=1 pbc="F F F"
Na       7.95662313      10.33693602       7.96306765
Na      10.13398515       7.47397997       7.71191315
Na       6.84004356      13.66916136       8.97152943
Na      11.93939623      10.36979611       8.52869589
Na      13.32252893      13.16784968      10.33762953
Na      15.23153886      10.19498434      10.06719917
Na       9.77177138      12.38491075      10.32217513
Na      12.90109146       7.35998931      10.02141746
Na      12.13595432      10.17585377      12.17015947
Na       9.24950798       8.81029587      10.82890494
Na       6.39435755      11.04017817      11.21756665
Na       7.73473792      14.19764517      12.46605957
Na      11.41521919      13.54476101      13.33011875
Na      14.95601468      11.86485241      13.29512459
Na      14.91509672       8.24195725      12.93632663
Na       8.94342523      11.00814109      13.67340430
16
Properties=species:S:1:pos:R:3 config_type=qcd gap_pre_relax_energy=-14.607862276620061 gap_pred_energy=-14.782421589370848 gap_fmax_final=0.0009525735454964754 gap_converged=1 pbc="F F F"
Na      10.94552984      15.09490784       9.65217426
Na      13.56843570      10.04711241      11.76991336
Na       9.81214590       5.97223120      10.52584686
Na       8.20790813      12.93723432       9.22679977
Na      12.25040468       8.20063300       9.13529175
Na       8.50600074      14.76675057      12.33076762
Na      11.60220711      11.63668965       8.48008312
Na      14.97563368      10.52817377       8.60009084
Na       7.42803407      11.13335526      12.26424686
Na      13.96760403      13.43002736      10.48845824
Na      10.76796617      12.17405519      11.81466582
Na      13.02166341       6.49615475      12.09999610
Na       8.90620846       9.38782305       9.48177548
Na       7.06375479       7.64174503      11.95620924
Na      10.35526789       8.74709252      12.63715591
Na      12.04378366      15.22856233      12.95907301
17
Properties=species:S:1:pos:R:3 config_type=qcd gap_pre_relax_energy=-16.257958657272013 gap_pred_energy=-16.336773347194978 gap_fmax_final=0.0007835098087584425 gap_converged=1 pbc="F F F"
Na       8.62384920      12.87846754      13.59393899
Na      12.86394607      15.08322250      10.13365060
Na      12.86896783       8.72156814      13.47828296
Na       9.89573118       9.91018340      12.21448116
Na      11.09335486      14.65958257      15.50368324
Na      11.09171692      11.13173994      15.53720748
Na      12.87489659      17.02540748      13.39787743
Na      14.60042335      11.10134994      15.61083130
Na      17.06142561      12.87299003      13.68978040
Na      13.00875276      12.86883107      12.89624693
Na      15.70937622      12.84056151      10.21020715
Na      15.84551304      15.78831743      12.19156122
Na      14.60223726      14.68451035      15.57722671
Na      15.84115915       9.93068053      12.24709634
Na       9.89990858      15.81749185      12.15634786
Na      10.01805218      12.84398599      10.14500201
Na      12.86046325      10.60088380      10.17635228
17
Properties=species:S:1:pos:R:3 config_type=qcd gap_pre_relax_energy=-16.183107807844905 gap_pred_energy=-16.22648493707252 gap_fmax_final=0.0009866218314869897 gap_converged=1 pbc="F F F"
Na      12.52131239      12.38879112       9.03967349
Na      15.73080379      14.05961745      10.89408571
Na      15.28434118      10.38535700      10.20960796
Na      12.18548422      15.19236391      11.36384257
Na      14.92271266      17.33922584      12.02153173
Na      11.80511949       9.32201356      10.76594874
Na       9.76066878      12.30724526      11.67547345
Na      13.22268137      12.11544197      12.60412976
Na      14.24969529       8.74137770      13.32664373
Na       9.18153002      15.45997294      13.37669644
Na      16.70724659      11.44885108      13.31752917
Na      10.80511168      10.01059567      14.25127501
Na      15.02032595      14.71544036      14.36573077
Na       8.21834172      12.37168765      14.85914396
Na      12.27526584      17.03785395      14.39794489
Na      11.53440957      13.58018703      15.25943121
Na      14.25725101      11.20627906      15.95361298
17
Properties=species:S:1:pos:R:3 config_type=qcd gap_pre_relax_energy=-16.232032272712896 gap_pred_energy=-16.333159689690007 gap_fmax_final=0.0006788144645268233 gap_converged=1 pbc="F F F"
Na      12.54632985      12.54725898      12.54597289
Na      12.54620703      16.73603267      13.21565160
Na       9.58298283      15.51051112      11.87706036
Na       8.35731850      12.54774794      13.21562790
Na       9.58563228       9.58537715      11.87898823
Na      12.54698868       8.35613324      13.21538774
Na      15.51015086       9.58307674      11.87747074
Na      15.04330622      12.54681296       9.84440321
Na      12.54713690      10.05155905       9.84395358
Na      10.05051149      12.54776957       9.84404192
Na      16.73604235      12.54581040      13.21554092
Na      12.54707824      15.04280985       9.84394934
Na      15.50857591      15.50900269      11.87943439
Na      14.31010371      14.30996214      15.24926885
Na      14.31287386      10.77970924      15.24920095
Na      10.78346728      10.78252362      15.24910143
Na      10.78007656      14.31268515      15.24972847
18
Properties=species:S:1:pos:R:3 config_type=qcd gap_pre_relax_energy=-17.211724823842616 gap_pred_energy=-17.282093878454972 gap_fmax_final=0.0008981031222536584 gap_converged=1 pbc="F F F"
Na       8.84099927       9.41212980       7.75423552
Na      12.36919871       9.05242827       6.93913868
Na      14.17195036      11.99045172       8.06571765
Na      10.73780305      12.39259008       6.85147601
Na       8.34135760      12.72034984      10.10849932
Na      11.37422066      10.76225330       9.85123140
Na      11.59288190      14.38855197      10.18213631
Na      10.84135588       7.04778423       9.74128686
Na      14.45667065       8.90798051       9.96658930
Na       8.55233062       9.32835711      11.35542816
Na       9.40648521       6.25616738      12.89453863
Na      12.61422566      14.80556296      13.53922660
Na      12.06489028       8.56273221      12.75268906
Na       9.14975423      15.00667330      12.72790819
Na      14.07813622      12.12866541      11.70610715
Na       7.26647600      11.96451639      13.42311397
Na      10.73539596      11.87621472      13.07814064
Na       9.20191285       9.19263594      14.85858166
18
Properties=species:S:1:pos:R:3 config_type=qcd gap_pre_relax_energy=-17.351046811377255 gap_pred_energy=-17.403803212561446 gap_fmax_final=0.0009850126185354019 gap_converged=1 pbc="F F F"
Na      12.59002080      12.30637026       7.16185162
Na      10.16893407       9.62609984       7.24714635
Na      13.62557289       9.30394792       8.52223575
Na       7.04273832      10.75461684       8.86895869
Na       9.10007849      13.07577687       7.34582539
Na      13.76634113      12.21806133      10.63939199
Na       7.94431471       7.42428488       9.04598144
Na      11.42141978      14.78949448       9.41475030
Na      11.43366177       6.65522000       8.86206510
Na      10.56700216      10.60009997      10.71632598
Na       8.35167627      13.41097868      10.92525038
Na       7.52605434       9.34655639      12.14716258
Na       9.70166009       6.38095958      11.94884766
Na      12.92954737       8.15502739      11.86216580
Na      11.46038624      14.16424315      12.75092052
Na      12.73106066      11.10504459      13.87964328
Na       9.14477498      11.89531164      14.06850797
Na      10.32666573       8.61981597      14.42487898
18
Properties=species:S:1:pos:R:3 config_type=qcd gap_pre_relax_energy=-17.267078149792777 gap_pred_energy=-17.382343746491564 gap_fmax_final=0.0009364376447913708 gap_converged=1 pbc="F F F"
Na      12.27029854      14.40189197       8.68818584
Na      10.15818433      11.70529636       9.62459391
Na      13.76316475      11.23392379       9.29190705
Na      12.82380427      16.87927003      11.01741198
Na      15.38489551      14.18636134      10.66714041
Na       9.80782042      14.90244347      11.42606317
Na      15.45060935      10.25668242      12.29446645
Na      11.89442631       9.59375763      11.93685341
Na      12.67342639      13.06441718      12.72916936
Na       9.17274456      11.87659935      13.10023648
Na      15.10466333      16.46770542      13.56677097
Na      13.80943311       7.79091182      14.29362773
Na      13.97258259      11.10374853      15.50840556
Na      11.48023746      16.12185583      14.30552071
Na      10.85759396       9.58128787      15.25508702
Na      16.49636971      13.22691557      13.99566402
Na      10.83075707      13.08264622      15.95158736
Na      14.09579736      14.57109419      16.39411763
19
Properties=species:S:1:pos:R:3 config_type=qcd gap_pre_relax_energy=-18.39781996149268 gap_pred_energy=-18.445129337970577 gap_fmax_final=0.0006437541285261159 gap_converged=1 pbc="F F F"
Na      12.30616539      13.29350680       9.57096497
Na      15.40802020      11.59837227       9.04294711
Na       9.37978048      11.16544355       9.91606305
Na      12.67662764       9.86632367      10.77791263
Na      15.32374096      15.33917172      10.52601857
Na      12.16341900      16.81961043       9.95202432
Na       9.44887828      15.01800922      11.28720573
Na      16.04011263       9.23765861      11.80789684
Na      11.16790963      12.31116296      12.77151744
Na       7.69158972      11.99024822      13.12878233
Na      12.63670597      15.45864756      13.19778967
Na       9.76171404       8.98638933      12.77713334
Na      14.74220028      12.41812282      12.33212030
Na       9.59769627      14.50844016      14.97737960
Na      13.42838058       9.52203059      14.23265251
Na       9.99442058      10.96621230      15.84145236
Na      13.24441414      12.77628184      15.66595439
Na      16.43342411      11.24519588      15.11883260
Na      15.93885940      14.86323136      14.45941160
19
Properties=species:S:1:pos:R:3 config_type=qcd gap_pre_relax_energy=-18.26509460269245 gap_pred_energy=-18.311723599295767 gap_fmax_final=0.0009526339267465518 gap_converged=1 pbc="F F F"
Na      10.70720842      11.71677298       6.31061710
Na       7.93920824       9.89710475       7.73620663
Na       8.20161456      13.53421351       8.28174165
Na      11.35779117       8.45573378       7.87955072
Na      11.75321071      14.37141187       8.59848218
Na      13.90720036      10.89991733       8.64306776
Na      10.46104107      11.30264499       9.83396731
Na      14.50472297       7.50237961       9.27151710
Na       6.87172539      11.35957943      10.94228646
Na      15.37669011       9.94035179      11.75122174
Na      12.09175006       8.79367911      11.45475117
Na       8.62496987       8.27497753      11.02466526
Na      13.04476705      12.71754414      11.66204446
Na       6.78953937       9.23209291      13.84503755
Na       9.72609385      14.34064172      11.62398484
Na      10.06995740       7.84337696      14.26263510
Na       9.65354703      11.14030489      13.20445783
Na      12.96733384      10.46777094      14.53300858
Na      11.47984423      13.73771748      14.66897228
20
Properties=species:S:1:pos:R:3 config_type=qcd gap_pre_relax_energy=-19.432399169346617 gap_pred_energy=-19.483038990741534 gap_fmax_final=0.0009319533895667415 gap_converged=1 pbc="F F F"
Na      10.27285640       8.92713555       6.40632790
Na       9.74057370      12.64365379       6.26180018
Na       9.23813190      10.79236372       9.13114857
Na      11.91861517       8.18644310       9.49891919
Na      12.69034076      11.23025562       7.68241579
Na       7.50325812      13.78414340       9.05261948
Na      14.74461696      13.16967644      10.53951287
Na       8.18919360       7.45405656       9.34352174
Na      11.06028233      14.09169684       9.24312808
Na      15.06436181       9.54752227      10.60368385
Na      11.95948375      11.19341081      11.25446583
Na       6.34519153      10.68528128      11.10471280
Na       9.36207546       9.08302621      12.38110980
Na      12.41481833      14.18878835      13.14043658
Na      10.35260569       5.79973634      11.63102955
Na      14.46704890      11.25857249      13.74599010
Na      12.74071568       8.02877702      12.99851111
Na       9.14664224      13.04246131      12.14763852
Na       7.35623141      11.04289732      14.49466706
Na      10.87577295      11.29291828      14.78117769
20
Properties=species:S:1:pos:R:3 config_type=qcd gap_pre_relax_energy=-19.3744801823885 gap_pred_energy=-19.450784795484974 gap_fmax_final=0.000992674013740397 gap_converged=1 pbc="F F F"
Na      11.76969758       9.96254183      14.50539763
Na      12.85162904      13.98122757      12.54284378
Na      11.54114381       7.15578789       9.27173978
Na      12.17249463      13.63055640       6.28663812
Na       9.69761604       7.63032061      12.35157377
Na       8.63213514       9.20815549       9.15567242
Na       9.35812648      12.71910643       8.28842384
Na      11.77292699      10.24535247       7.30467274
Na      13.85241751      12.63580710       9.25787828
Na       6.66463888      11.76519992      10.51963281
Na       6.28765032       8.40420560      11.70417051
Na      11.54105725      15.26287580       9.41516105
Na      13.36755468       7.59915719      12.37218326
Na      13.97544036      12.52501064      15.60420587
Na      14.57106717       9.14742998       9.32275913
Na      14.75991931      10.93843125      12.52109078
Na       8.31465082      10.74914090      13.47700311
Na      11.10907576      11.07135002      11.08785092
Na       9.13337494      14.05857883      11.82519897
Na      10.49604090      13.17842169      15.05456085
20
Properties=species:S:1:pos:R:3 config_type=qcd gap_pre_relax_energy=-19.312647954910556 gap_pred_energy=-19.3613748619263 gap_fmax_final=0.0009828071937806348 gap_converged=1 pbc="F F F"
Na      11.83594931      13.92558397       8.84313666
Na      15.39162294      12.61370335       8.85936727
Na      12.83095498      11.13844829      10.86784848
Na      17.64488274      14.30178122      11.05214550
Na      10.52763134      13.87297294      12.18130568
Na       9.42790740      11.25776431      10.00762782
Na      11.55185061      17.01892462      11.00637578
Na      10.91706816       8.21512894      11.13279883
Na      14.18310151      14.64516862      11.45753498
Na      16.11921504      11.31248552      12.12349989
Na       9.35491306      16.74456126      13.80441823
Na      13.12412861       8.95631628      13.84166078
Na       9.98082619      10.64957912      13.50201392
Na      13.14270656      12.55812730      13.98075058
Na      12.81065148      16.25326443      14.27769731
Na      16.38010071      14.08393278      14.38479013
Na      10.46760538      14.05656438      15.87510089
Na      15.51931029      10.83629331      15.94600070
Na      11.99065933      10.82102122      16.83268790
Na      13.93600238      13.87546618      17.16032668
21
Properties=species:S:1:pos:R:3 config_type=qcd gap_pre_relax_energy=-20.738276148572314 gap_pred_energy=-20.781268663558258 gap_fmax_final=0.0009967680765409772 gap_converged=1 pbc="F F F"
Na       7.87314447      12.21634362       7.74097227
Na      13.81675588      13.69482849       8.36237183
Na      11.23353059      11.09722037       8.09945905
Na      11.72607281       7.51903034       8.66368658
Na      10.26854313      14.58623574       8.96083013
Na       8.39155396       9.06130247       9.36535114
Na      14.48459556      10.42099202       9.78993970
Na      12.19540287      12.82708307      11.40644514
Na       8.57631604      12.25485681      11.20366412
Na      13.03740704      16.12643592      11.01938774
Na      14.27420908      10.43266584      13.35364136
Na      15.68762933      13.43629843      11.43647186
Na      13.73736523       7.26773729      11.68722669
Na      11.19422495       9.71470277      11.39277455
Na       7.65027342      12.80617044      14.57261997
Na      10.06219284      15.03358268      13.12780597
Na       8.36664580       9.44840613      13.54752794
Na       9.96092691       6.54149919      11.73833683
Na      13.58102759      14.43131401      14.23866458
Na      11.70520387       8.17131389      14.54657567
Na      11.06366563      11.79866747      14.63293384
21
Properties=species:S:1:pos:R:3 config_type=qcd gap_pre_relax_energy=-20.501227328944584 gap_pred_energy=-20.54583151486503 gap_fmax_final=0.0008895393776453334 gap_converged=1 pbc="F F F"
Na      13.16589414      14.79213191      14.48383048
Na      12.20655694      12.60323205      11.88201017
Na      14.66202472      10.40199202      10.73603346
Na      11.49863529       9.49869965      13.27226418
Na       9.84827001      15.17473759      13.09956085
Na      13.31170819      12.96003416       8.44763099
Na       8.15318824       9.52677580      14.57939276
Na      14.64079624       7.90759095      13.32725711
Na      15.48901863      13.81358795      11.84487954
Na      11.00977739      10.25761237       9.64492862
Na       8.79839981      11.89909277      12.08685603
Na      13.55976359       9.55811895       7.39814659
Na       8.94704424       8.08593743      11.37396142
Na      12.68367874      15.98043109      11.00148994
Na       7.66895608      11.03338684       8.83114301
Na      12.53954605       7.23125528      10.54788268
Na      10.51865761      12.26997780      15.21904940
Na       5.92826419       9.89146796      11.77268587
Na      10.58871020      11.62334986       6.52841115
Na      14.49472727      11.29718553      14.32686994
Na       9.92164041      13.82866001       9.23097378
21
Properties=species:S:1:pos:R:3 config_type=qcd gap_pre_relax_energy=-20.608199680663315 gap_pred_energy=-20.658296141411167 gap_fmax_final=0.0009923075108999682 gap_converged=1 pbc="F F F"
Na      11.01723136      10.10463147       7.23512722
Na      14.17224277      11.85521230       8.01019497
Na      11.20740034      13.75724947       7.40700378
Na      13.24620758       8.47122509      10.14965105
Na       9.75964830      14.96469838      10.98182181
Na       8.31636471      12.06311496       8.83666771
Na       9.59780494       8.65263744      10.72705603
Na      11.44619486      11.60785535      10.29036103
Na      13.24304367      14.66727810      10.25386757
Na      14.75777029      11.55631686      11.50117496
Na      12.15587615      16.85447210      12.86483869
Na       8.71718787      11.87105132      12.44170298
Na      11.71372860       6.57760038      12.76035790
Na      15.28064685      14.71348891      13.21281158
Na      12.06244482      13.47257146      13.41449121
Na      15.06269786       8.42741573      13.22052703
Na      11.96875855       9.93703005      13.35454436
Na       9.09579822      14.91654140      14.47348712
Na       8.87932236       8.69027128      14.23263889
Na      14.47540092      11.60777289      15.19116379
Na      10.30566915      11.71300522      15.92195049
22
Properties=species:S:1:pos:R:3 config_type=qcd gap_pre_relax_energy=-21.583385312049682 gap_pred_energy=-21.644489392930165 gap_fmax_final=0.0009557249267093848 gap_converged=1 pbc="F F F"
Na       9.95044727      11.13661690       8.35022525
Na      15.00778314      11.23965630      11.18271861
Na      12.87714115      13.29178527       8.89622286
Na      12.90525018       9.07410509       9.05483507
Na      12.70470977      16.76986305      10.06914071
Na      12.61810714       5.86452569      10.43965139
Na       9.68901879      14.19305485      10.30382387
Na      15.69245296      14.85223321      10.61972945
Na       9.99574600       8.14394563      11.13356641
Na       7.91143400      11.16362310      11.32314735
Na      11.45459094      11.24384071      11.56200622
Na      14.46823319      16.94132033      13.38624656
Na       9.55635254      13.65872485      14.01179887
Na      10.78329923      16.99814485      13.16967785
Na      12.72191971      14.14657633      12.44938668
Na      13.29738385       8.47051651      12.69034620
Na      15.87500518      13.49191036      14.04217499
Na       9.68573501       9.97148163      14.32319339
Na      16.15065679       9.93117270      14.27512270
Na      12.38350342      14.90952157      15.87107631
Na      10.38919011      12.16862542      17.09969149
Na      12.98356049      11.44027651      14.84773860
22
Properties=species:S:1:pos:R:3 config_type=qcd gap_pre_relax_energy=-21.50471733369012 gap_pred_energy=-21.59223397163468 gap_fmax_final=0.0009042545657209392 gap_converged=1 pbc="F F F"
Na      16.16849048      19.10036179      12.18203174
Na      16.43980472      12.67514795      11.17348510
Na      12.83945480      12.58349986      11.90448109
Na      14.31476027      16.17287944      11.41847856
Na      15.06833740      10.32920826      13.61741630
Na      15.13186837      17.25841922      14.91022195
Na      17.65415585      15.83365445      12.63040779
Na      18.26237097      11.98735403      14.28545580
Na      12.48585768      18.77604106      13.17846618
Na      15.22131972      13.79869741      14.32548463
Na      12.11363836      15.37037038      14.10089630
Na       9.65804513      17.64694314      15.12282861
Na      12.33515613      12.10691026      15.54561995
Na      10.51913206      14.82015204      17.19705705
Na      17.81103971      15.06626954      16.15502320
Na      19.53224577      12.39409485      17.61003324
Na      18.41523511      18.40255644      15.03341561
Na      12.55716264      17.75468496      17.14648428
Na      16.13472807      17.51725046      18.28821743
Na      16.13069099      11.62937172      17.19765340
Na      14.14420153      14.59716930      17.46583496
Na      17.06230423      14.17896346      19.51100681
23
Properties=species:S:1:pos:R:3 config_type=qcd gap_pre_relax_energy=-22.930153796043925 gap_pred_energy=-22.985271350191972 gap_fmax_final=0.0009624124592299953 gap_converged=1 pbc="F F F"
Na      11.92798824      10.34644782       6.87481491
Na       8.88181517      11.97558528       8.03146838
Na       9.02622850       8.35350927       7.95423536
Na      12.49880340      13.21089988       9.01812547
Na      12.64524931       7.11892001       9.05921794
Na      14.52796663      10.35399391       9.57386937
Na       7.40037593      10.05194438      10.71601023
Na      11.12677135       9.92820861      10.24482573
Na       6.58456429      13.95542031      10.66039430
Na       9.58975808      15.68429837       9.55846502
Na      15.45885266      13.51800951      10.99017614
Na       9.67646409      12.71297704      11.45851815
Na       9.44195001       7.10204231      11.38686983
Na      12.29972831      15.24756983      11.92534559
Na      12.84444066       8.10639601      12.69610033
Na      15.73090941       7.25730669      10.81640534
Na      12.91318483      11.83467445      12.59251157
Na      15.93915463      10.09626739      12.98396524
Na       8.84223423      15.65269304      13.12013415
Na       9.90817555       9.76749865      13.78921052
Na       7.18837749      12.52011266      13.94694231
Na      10.62088894      13.03393221      14.99777625
Na      12.94120343      10.18637758      15.61970302
23
Properties=species:S:1:pos:R:3 config_type=qcd gap_pre_relax_energy=-22.81460536265297 gap_pred_energy=-22.868577544137324 gap_fmax_final=0.0009457261662450394 gap_converged=1 pbc="F F F"
Na      18.25311408      14.40260873      14.81066585
Na      15.73688742      12.53926899      13.08833359
Na      16.11052565      16.04424341      12.46725222
Na      16.31393298      11.55275576      16.36801368
Na      15.25205073       9.88423576      10.66143328
Na      16.85518924      17.72300543      15.41140985
Na      14.42473546       9.28173893      14.21129985
Na      12.79833527      12.10172183      15.63441247
Na      15.01303961      14.82514991      15.89737627
Na      14.30846273      13.26890881       9.84603894
Na      12.28583294      11.33515330      12.10899305
Na      12.81711768      14.47895060      13.01329898
Na      12.12488157       7.97612369      11.45686957
Na      13.40472744      17.66680253      14.25279353
Na      10.26605410       9.62408248      14.36724094
Na      10.84242617      15.31246095      15.70733498
Na       9.45733329      12.17812952      16.74515814
Na      13.24713900      16.71014808      10.28438372
Na       9.29003831      12.95831940      13.28857371
Na      12.26635166      10.47965353       8.66905421
Na      10.28332448      16.79489713      12.35646190
Na       9.26252506      10.25335735      10.76718173
Na      10.79721370      14.01952248       9.99765812
23
Properties=species:S:1:pos:R:3 config_type=qcd gap_pre_relax_energy=-22.70598162274066 gap_pred_energy=-22.77382102131194 gap_fmax_final=0.0008882094322470395 gap_converged=1 pbc="F F F"
Na      11.02664860      14.09633698       6.79299575
Na      11.59049626      10.13000981       7.54603989
Na       8.14871333      12.20825494       8.03590586
Na      14.19234161      12.49494917       8.32300142
Na      14.82440955       8.94451589       8.37982222
Na       8.86769121      15.49545260       9.48965910
Na      12.47694332      16.03836178       9.52727139
Na      11.14803184      12.86448665      10.01833724
Na      11.66218193       7.19713275       9.63164350
Na       9.43139521       9.78519458      10.40185666
Na      13.00650099      10.14135553      10.99363015
Na      10.74399724      15.40213850      12.68518117
Na       8.96897300       6.54249962      12.06412299
Na       7.73301884      12.67771867      11.59995649
Na      16.27103149      11.24429817      10.98943121
Na      11.54754653       8.36485642      13.50069402
Na      13.91800932      13.74568623      12.16856824
Na      10.69837182      11.89702464      13.28758503
Na      14.01251927      10.85692907      14.31717640
Na       8.09264268       9.65456848      13.61945677
Na      12.44876650      13.82557957      15.55011629
Na       9.18840289       7.10674882      15.69765581
Na      10.96729489      10.25182946      16.34582074
24
Properties=species:S:1:pos:R:3 config_type=qcd gap_pre_relax_energy=-24.183007609283823 gap_pred_energy=-24.281362995936913 gap_fmax_final=0.0008260100311728383 gap_converged=1 pbc="F F F"
Na      11.39949132      14.04766174       6.81541915
Na      11.45425448      10.35392461       6.30866652
Na       8.32146433      12.04947019       6.88326644
Na      14.20459775      11.28822334       8.56983902
Na       8.60462205      14.79125820       9.21871994
Na      12.34218150       8.35151906       9.87032898
Na       7.16936308      11.62750651      10.25508145
Na       9.96352849       6.11105020      11.35795485
Na       8.94939293       8.86687833       8.48562122
Na      10.72074347      11.95288660       9.42402950
Na      14.28544925      14.76890735       8.60443184
Na      15.45503010       9.40986570      11.47091827
Na       6.72608891       7.81218627      11.60737211
Na      11.82561674      14.98873165      11.06263063
Na       9.62237108       9.56618630      11.88704436
Na      12.58504657      11.32845828      11.97502308
Na      15.19818941      13.43883473      11.75031951
Na      12.76405272       8.00279101      13.46050092
Na       9.33705248      12.95134054      12.90514550
Na       8.94372630       7.43916550      14.59998986
Na       7.02480327      10.48525332      14.08308560
Na      14.59652403      10.88918559      14.72424470
Na      12.49166116      13.84156042      14.44452952
Na      10.98133513      10.60374111      15.20242355
24
Properties=species:S:1:pos:R:3 config_type=qcd gap_pre_relax_energy=-23.922192372047505 gap_pred_energy=-24.029979084521212 gap_fmax_final=0.0009505201721643345 gap_converged=1 pbc="F F F"
Na      12.81770215      13.41241164       6.94408316
Na       9.55080196      12.80427658       8.30291291
Na      15.19539520      13.84836262       9.57800810
Na      12.54435646      11.16732134       9.61374587
Na      11.91487564      15.34112598       9.76826608
Na      13.01222621       7.73490736      10.64016521
Na       9.72916290       9.16993359      10.48835248
Na      15.41223029      10.27150409      11.57647789
Na       7.98171189      15.15688976      10.72799136
Na       6.95061656      11.64033938      10.78785298
Na      14.41276428      16.50126255      12.16647931
Na      10.09808354      12.64158380      11.71164442
Na      13.34794455      13.22084201      12.41342293
Na       7.54859606      13.49233514      13.95158292
Na      11.97542668      10.10316177      13.24124817
Na      17.34444708      10.00205445      14.47122784
Na      14.49998789       7.81074872      14.02506676
Na      10.88955047      15.88830656      13.28423125
Na       8.44340477       9.90823407      13.67725392
Na      16.66771939      13.37093694      13.26892961
Na      10.66044045       6.95227101      13.21725323
Na      14.35761398      11.57003083      15.40927403
Na      13.73384161      15.11736165      15.44500229
Na      10.92627797      12.88897609      15.30470520
25
Properties=species:S:1:pos:R:3 config_type=qcd gap_pre_relax_energy=-25.303839811249016 gap_pred_energy=-25.404738173753376 gap_fmax_final=0.0009617955535070853 gap_converged=1 pbc="F F F"
Na      10.89293756      13.89083934       7.14169108
Na      14.24402295      14.93875179       7.82598780
Na      13.41918070      11.47358035       8.00050013
Na      11.48266351      17.05097552       8.98711378
Na       8.69247630      15.03627669       9.72233642
Na      12.02094919       8.03551061       9.72297704
Na      14.43305423      16.67512529      10.92804573
Na       9.94501925      11.08130606       9.29509494
Na      12.78453437      10.98760184      11.45207063
Na      15.70591540      12.78410437      10.47910962
Na      12.06853265      13.95561825      10.52788090
Na      15.48891998       9.16095878      10.18802530
Na       9.79900819       9.15206943      12.39312770
Na      13.06969786       7.98749241      13.30903786
Na       9.29139501      12.94076410      12.60382720
Na      10.77544308      16.35296798      12.61902110
Na      15.62264989      10.79565663      13.51670518
Na      14.07200873      14.13840438      13.49451956
Na      11.95645916      11.41396789      14.49666827
Na       8.55299473      11.29489521      15.74085519
Na      10.63228173       8.38603268      15.89335160
Na      10.74969172      14.37545371      15.73536219
Na      14.03670669       9.29465702      16.52042937
Na      14.34305867      12.82698799      16.84986277
Na      11.30341783      11.35302106      17.93941804
25
Properties=species:S:1:pos:R:3 config_type=qcd gap_pre_relax_energy=-25.23804728090934 gap_pred_energy=-25.469369481303026 gap_fmax_final=0.0008895213131061816 gap_converged=1 pbc="F F F"
Na      12.97668782      13.36894288       6.81351060
Na      14.32534961       9.92778090       6.92069743
Na      10.64749241      10.07019313       7.57508988
Na       7.31118388      10.68241284       8.55947394
Na       8.53659412       7.32847060       9.72956475
Na      16.06666279      13.11938908       8.74944119
Na      10.16911316      13.44669760       9.08008330
Na      12.71881050       7.96839009       9.56429507
Na      13.09414271      11.47507755       9.73952379
Na      13.26644539      14.99663443      10.09537657
Na      16.07070484       9.68859914      10.11861574
Na       9.56407725       9.96715542      11.48294233
Na      15.03124447      12.98999812      12.43333620
Na       5.94135925       9.48106144      11.46141422
Na       9.79752875      15.68147130      11.96867382
Na      13.63020585       9.66418100      12.74620696
Na      11.37801771      12.50603388      12.36982789
Na      11.04975665       6.68463694      12.43040156
Na       7.51674174      12.84343833      11.52336763
Na      12.71624726      15.31122183      13.97368651
Na      10.64284662       9.45845134      14.81712939
Na       7.86639120       7.41025421      13.48550941
Na       7.39213406      10.80490435      14.42158409
Na       9.63013717      13.51518039      15.04000343
Na      13.16249296      12.11179138      15.40261246
25
Properties=species:S:1:pos:R:3 config_type=qcd gap_pre_relax_energy=-25.02018543800453 gap_pred_energy=-25.102712940096204 gap_fmax_final=0.0009398341946619814 gap_converged=1 pbc="F F F"
Na       8.67304410      12.91074656       6.99032509
Na      12.25768447      13.59246565       6.54348545
Na      10.15331379      16.04498327       8.18000674
Na      11.63219056      10.11806395       7.68758848
Na       7.43808173      14.00192357      10.34465030
Na      13.57724773      15.25833253       9.52761118
Na      10.81990213      12.93917908       9.69430027
Na      14.58251140      11.68506869       9.38969848
Na       8.25684449      10.50789645       9.86396483
Na      13.97629524       8.07742683       9.56657397
Na      10.38730595       7.49294695       9.94723817
Na      12.00520826      10.34094696      11.33851488
Na      15.29680976       9.98034565      12.54047816
Na      12.61455431       7.53573165      13.33797841
Na      16.45548761      13.45197851      11.86266572
Na      10.67929860      15.97314913      11.73976035
Na      14.46101444       8.92009216      16.05275566
Na       9.27939717       9.08371912      12.97143922
Na       9.59937993      12.76760431      12.95148330
Na       6.42260479      11.45547291      12.79528912
Na      15.23654067      12.37047403      15.15711636
Na      11.90785350      10.92371138      14.78181215
Na      13.04340361      13.41805050      12.55791652
Na      10.64007529       8.06461100      16.23310352
Na       8.47849851      10.95962721      15.81879171
26
Properties=species:S:1:pos:R:3 config_type=qcd gap_pre_relax_energy=-26.40622896124721 gap_pred_energy=-26.517761322883775 gap_fmax_final=0.0009988984784910196 gap_converged=1 pbc="F F F"
Na      15.89368745      12.46392668       8.14605608
Na      14.78267898      15.57521594       9.76133062
Na      12.26521017      12.42465355       8.59879290
Na      14.24113547       9.47092355       9.44969841
Na      11.42856481      10.46722919      11.50098220
Na      17.42625891      10.23526052      10.93522454
Na       9.17498184      15.76428473      13.12675738
Na      11.88632755      14.17892655      11.60869004
Na      17.93233499      13.80550340      10.80747202
Na       8.88012893      12.79881187      10.62973013
Na      14.71496643      12.43367761      11.42212178
Na      12.91427420      17.61074977      12.41809384
Na      14.73273218       9.01497905      13.02715082
Na      15.66748989      15.23411804      13.39711310
Na       9.80908357      12.31019756      14.06694249
Na      13.33925243      11.96363051      14.28540104
Na      16.92806054      11.71927520      14.31382386
Na      11.52323787       9.37203650      15.48338829
Na      12.43556094      15.01764942      14.79891876
Na      10.84976024      18.04786325      15.45195490
Na      14.44031284      17.79157789      15.81088937
Na      14.80222434      10.20541975      16.91715828
Na       9.35301785      14.90973274      16.64425226
Na      15.29679390      13.82259664      16.83850222
Na      12.04648916      12.48639762      17.51903276
Na      12.39074901      16.03067695      18.19583644
26
Properties=species:S:1:pos:R:3 config_type=qcd gap_pre_relax_energy=-26.33814456870422 gap_pred_energy=-26.425577787018835 gap_fmax_final=0.0009720932893767808 gap_converged=1 pbc="F F F"
Na      10.06395636      12.15790279       6.68309454
Na       8.79162785       9.64873687       9.10111310
Na      12.31607664       9.81309183       8.50519203
Na       7.30591265      12.99871704       9.00361522
Na      13.14523483      13.88207385       7.66314835
Na      16.06482544      14.79826248      10.14839069
Na       9.86351572      15.53828336       8.17689696
Na      10.62357725      12.70558525      10.10063832
Na      14.32189533       8.69747277      11.29225628
Na      11.32264881       6.92341557      10.40192440
Na      13.83545532      12.22961442      10.71788441
Na      12.63850347      15.76972807      10.65965385
Na       8.52350006      15.36681207      11.58618237
Na      10.87089348       9.97408682      11.94691156
Na       7.91776587      11.97191391      12.53256608
Na      16.75789658      11.87120300      12.68355925
Na      11.17278384      13.67630450      13.21359961
Na      14.64361782      14.65249428      13.44811231
Na      13.29723627      11.21484829      13.81753257
Na      12.40402651       7.63579081      14.11728042
Na       8.49410966      14.15543322      15.33164957
Na      15.82560906       8.94827595      14.69393672
Na       9.92248946      10.85422623      15.31905888
Na      15.62793316      12.32664175      16.19081499
Na      12.13334434      13.35486729      16.60453989
Na      13.06767833       9.78633168      17.01256170
27
Properties=species:S:1:pos:R:3 config_type=qcd gap_pre_relax_energy=-27.666352254416587 gap_pred_energy=-27.749173467594197 gap_fmax_final=0.0009680454931837744 gap_converged=1 pbc="F F F"
Na      11.66730085      14.91009917       8.31269271
Na      14.66422549      12.25441746       7.43316786
Na       8.29847195      13.72255831       7.63832755
Na      11.07207750      11.24182649       7.59024088
Na       7.27552408      10.56924982       9.11997137
Na       9.67561294      12.62475846      10.62900408
Na      10.21543078       9.17239975      10.96683925
Na       8.92000992      16.10609610      10.32809249
Na      12.92263174      12.46141508      10.40907625
Na      16.23207166      11.40419212      10.58264116
Na      13.77116063       9.07498402       9.08157201
Na      15.30672916      14.87736647       9.96177785
Na       6.31674634      13.64916467      10.74907004
Na      15.88424699       7.65112071      11.90024196
Na      12.48867585       6.49942776      12.07904876
Na       8.49193647      14.44602192      13.57591164
Na      13.31217773       9.91640806      12.49572177
Na       7.72957276      10.86546372      13.20503500
Na      11.86708114      15.47108812      12.26584647
Na      14.84957922      13.40158062      13.28357025
Na      11.21396575      12.19115731      13.51038822
Na      16.37744009      10.32493264      14.30073454
Na      10.43265281       8.91176733      14.65511001
Na      14.02692657       7.72628428      15.11023041
Na      11.76207422      14.67927773      15.82483317
Na      13.34014383      11.20517029      16.04500360
Na       9.26186665      12.01810473      16.32218384
27
Properties=species:S:1:pos:R:3 config_type=qcd gap_pre_relax_energy=-27.446721986217305 gap_pred_energy=-27.54319971582597 gap_fmax_final=0.0009412275555628673 gap_converged=1 pbc="F F F"
Na      12.31232493      13.12194957       6.29284122
Na      15.09696138      14.64525750       8.11510827
Na      12.00056180      16.44886867       8.26716381
Na      14.68410146      11.01069781       8.10145038
Na       9.27568557      14.09549580       7.96940633
Na      10.52569230      10.55770199       8.21023390
Na      12.21756116      13.27621122       9.77652999
Na      14.08189352      16.20831216      11.25333118
Na      15.76412820      12.70725974      11.08279541
Na      12.88503978      10.27739895      11.02862810
Na      10.39333493      15.95021118      11.56386441
Na       9.12587296      12.27310348      11.22766045
Na      16.16822172       9.16266361      11.23047018
Na      11.09480875      10.86842265      13.79110125
Na       9.67862056       8.55712007      11.48502137
Na      13.27781629       7.82695119      13.50319886
Na       7.58621709      10.28162830      13.98966200
Na      12.67215423      13.53676875      12.95417639
Na       9.35055325      14.03699979      14.49103260
Na      12.07144726      16.44519226      14.77933991
Na      10.00625385       7.82791344      15.09786274
Na       9.48381995      10.98102917      16.96194944
Na      15.33822284      14.57406879      14.84536411
Na      14.83996336      11.00139454      14.03464764
Na      12.84162095       9.65100605      16.67255708
Na      12.27820166      13.22990045      16.49620485
Na      15.49828064      11.99583320      17.32775849
27
Properties=species:S:1:pos:R:3 config_type=qcd gap_pre_relax_energy=-27.568249735284965 gap_pred_energy=-27.65045913220294 gap_fmax_final=0.0009261765553985001 gap_converged=1 pbc="F F F"
Na      12.76916183       8.51708947       7.03617497
Na      11.27355914      12.06730604       7.84553884
Na       9.43842062       8.60398426       8.40200151
Na      13.38455202      15.01450913       7.97739280
Na      10.58282883      14.72115601      10.32037208
Na      14.93613816      11.18417223       8.22957069
Na      11.86858515       6.36353246       9.91311000
Na       8.64967604      11.53388245      10.58897986
Na      12.36169638       9.84579497      10.26009486
Na      15.17002329       7.70880819       9.67995240
Na      13.62261592      13.06078272      10.88639286
Na       9.64455613       8.31101504      12.06298499
Na      13.51396733      16.61469552      11.20807594
Na      15.64834051      10.51656240      11.97464963
Na      13.21589561       7.83473346      12.95782486
Na      10.54686605      17.59932269      13.08679905
Na      11.19456120      11.42804376      12.89828407
Na      15.65831582      14.27391395      13.79038239
Na      12.17310053      14.53293117      13.76583203
Na       8.66738577      14.33633489      13.65692215
Na      13.91351399      17.35054685      14.75044509
Na       7.99233230      10.76630707      14.13277101
Na      13.83519430      11.26295515      15.12148294
Na      10.88251332       9.01922608      15.53976426
Na      10.49411273      16.13199700      16.37273499
Na      10.38684705      12.46852157      16.19278886
Na      13.78859974      14.54523525      16.96203668
28
Properties=species:S:1:pos:R:3 config_type=qcd gap_pre_relax_energy=-28.430822778573436 gap_pred_energy=-28.554992852513816 gap_fmax_final=0.0009471596763375852 gap_converged=1 pbc="F F F"
Na       9.88776872      17.33824827      13.86723186
Na       9.03067514      15.09282502      11.18111874
Na      15.31964186      15.67314716      10.29515243
Na       9.29401820      14.49446601       7.63862302
Na       7.47579920      11.68668701      12.97107771
Na       9.49140485      14.01226520      15.10225235
Na      11.50584065      12.92366959      17.90737191
Na      14.11792749       8.95593174       7.64479329
Na      15.69792266      15.06257185      14.09692931
Na      15.10819251      13.43107869      17.28530896
Na      12.49564382      10.52456401      10.29849583
Na      10.81826294      12.37684660      12.31663965
Na      12.53114773      15.52616024      12.54608762
Na      13.66536692      10.14010759      17.18555077
Na       9.65084503       8.92928213      12.02552484
Na      12.21421991      14.09376203       9.46192754
Na      14.61603991      12.63147543      11.79819855
Na       8.91977362      11.46172166       9.51088229
Na      13.04559807       9.15342722      13.54239381
Na      15.79257774       9.30789553      10.91040811
Na      12.94969455      12.55372836      14.70094725
Na      12.40728366      15.90337345      16.05963495
Na       9.99844667      10.40985050      15.28002753
Na      16.18258943      11.06419499      14.67529811
Na      10.50041748       8.45017415       8.24111170
Na      12.96465002       7.01267810      10.43623500
Na      11.48585415      11.68417576       6.97660888
Na      15.11603602      12.38933063       8.32780690
28
Properties=species:S:1:pos:R:3 config_type=qcd gap_pre_relax_energy=-28.662836188583785 gap_pred_energy=-28.76094238142166 gap_fmax_final=0.0009973501073647698 gap_converged=1 pbc="F F F"
Na      12.91387146      14.19349148       7.02546601
Na       9.76488277      14.88175758       8.63486142
Na      15.59975688      15.15376486       9.23940175
Na      11.40874325      11.02696739       8.37283166
Na      15.05778086      11.66690634       8.54720089
Na      13.31499908      10.77013173      11.40112190
Na      12.53742921      13.78091405      10.45672286
Na      13.42625059       8.01925927       9.32437811
Na      10.26309893       8.71569251      11.01771336
Na      12.43770842      17.17203475       9.60413841
Na      16.25436275       9.04821956      11.45040051
Na      10.25107289      16.03943489      12.19706204
Na       9.41166966      12.42613755      11.53844055
Na      16.02515088      13.09063829      12.19311329
Na      14.45820558      16.25821133      12.44972059
Na      12.19652898      18.89746850      12.77654154
Na      13.22940662       7.61051185      12.93070607
Na      12.73759270      13.46553712      13.68447492
Na       7.74404621      10.16934014      13.98243437
Na      11.22911203      10.57396458      13.96897880
Na      14.96278306      10.48742442      14.55158946
Na       9.35657507      13.41902678      15.13044026
Na       9.99911363       7.44016364      14.85176969
Na      15.44223107      14.54492685      15.48204321
Na      12.18083200      16.39492185      15.37899449
Na      12.74503888       8.84798950      16.79743549
Na      12.52360777      12.53820073      16.97257578
Na       9.55406506      10.39287873      17.06535879
29
Properties=species:S:1:pos:R:3 config_type=qcd gap_pre_relax_energy=-29.771773014853228 gap_pred_energy=-29.916235521297676 gap_fmax_final=0.0008721411851762237 gap_converged=1 pbc="F F F"
Na      15.23995884      13.89160542       7.65031521
Na      13.52179981       7.99070677       9.21025162
Na      11.90494165      11.55910548       7.74048187
Na      11.68712681      15.17303252       8.23736625
Na      15.15049249      10.42278795       7.15084774
Na      14.52443531      16.57136549      10.08916829
Na       8.46423712      12.53624648       7.68162436
Na       6.97567439      11.46070740      10.86636263
Na      12.48492958      10.35090193      11.32152633
Na      13.65831232      13.26329050      10.55362934
Na      16.99192382      14.04822183      11.05869807
Na      16.07196153      10.48026171      10.43595631
Na       9.47349980       9.37510591       9.42292979
Na      10.07909807      13.05220056      10.64893138
Na      14.70816105       8.03630331      12.72024587
Na      11.21116170       7.28956910      12.22370924
Na       7.33075715       8.07889638      12.15462049
Na      11.43473919      16.13688079      11.80321530
Na      15.06011768      11.50849925      13.80717989
Na       9.62270231      10.45686152      13.13353703
Na      11.95462516      12.97648775      13.58753490
Na      14.57680121      15.27143056      13.53396583
Na       8.40534159      13.91057108      13.71117045
Na      12.35025540       9.32507203      15.08757785
Na       6.51471993      10.84945257      14.50433918
Na       8.89946123       8.14049159      15.50501351
Na      11.02625184      15.52362420      15.67725267
Na       9.91068256      12.00653681      16.42205362
Na      13.42923344      12.97718609      16.72389792
29
Properties=species:S:1:pos:R:3 config_type=qcd gap_pre_relax_energy=-29.600168231819172 gap_pred_energy=-29.71475567152542 gap_fmax_final=0.0009908399780611133 gap_converged=1 pbc="F F F"
Na       9.33468364      12.44474425       8.20156065
Na      12.47268456      14.03756735       8.34319446
Na       9.52601906       8.80060762       8.12036127
Na      12.23661059      10.88975405       6.57772756
Na       9.52533077      16.00469206       9.04440498
Na       8.16012811      10.54203226      10.94627286
Na      11.78025100      10.58431251       9.94311110
Na       6.91819420      13.93027023      10.72902608
Na      10.29537742      13.62752704      11.48565389
Na      15.91409757      15.12283272      10.42674812
Na      15.39531208      11.46125696       9.31050177
Na      12.59652558      16.48204006      11.28085545
Na      17.24864912       9.24533957      11.41369362
Na      13.44378301      13.04126082      11.65529269
Na      16.74952712      12.47197009      12.79982299
Na      13.89824832       9.47886532      12.28403222
Na       8.61839801      16.54037946      12.49920219
Na      10.66147173       7.84167308      11.89302099
Na      14.90897938      15.43489625      13.90350885
Na      10.71442411      10.95571045      13.40499281
Na       7.97676850      13.24309406      14.14528687
Na      11.34621526      14.90596273      14.65255501
Na      16.23073390       9.55683073      14.90137385
Na      13.55805630      12.09249351      14.74232753
Na      16.62025565      12.82606015      16.39970455
Na      12.34401443       8.53239289      15.28937081
Na      13.51913119      14.16429601      17.61217936
Na      10.71928576      11.90464308      16.90679180
Na      14.02815134      10.57780241      17.82873334
30
Properties=species:S:1:pos:R:3 config_type=qcd gap_pre_relax_energy=-30.738278268426445 gap_pred_energy=-30.845573656249552 gap_fmax_final=0.0008245417329482716 gap_converged=1 pbc="F F F"
Na      11.51517984      11.92584409      15.30353833
Na      11.18933884      15.11914533      13.77221644
Na      14.42199169      13.78916746      14.92063242
Na      12.10348204      14.75072982      17.46375672
Na      12.57436724      12.23016720      12.16394267
Na      14.39186037       9.68792401      13.92654696
Na      13.68130115      17.02534050       8.73054600
Na      14.33964949      11.12736215      17.31892279
Na      10.75405957       9.32877208      12.70722872
Na      19.17647166      12.91415474      11.97098696
Na      14.00455249      13.44445222       8.80809956
Na       7.95631542      15.92913710      13.15050985
Na      13.77600087      17.21859268      15.15733060
Na      16.77487608      15.55682818       9.86305962
Na      10.12980994      17.40487429      16.05746890
Na      17.19910163      11.74125818       8.92847251
Na      10.62417862      14.64604644      10.23370793
Na      10.68037633      11.08102351       9.46235991
Na      14.14701405       9.97638699      10.06005640
Na       8.71660526      14.05769336      16.16679466
Na      15.83375084      12.75245880      11.91891519
Na      17.11906988      15.68315502      13.53211987
Na      10.76085706      11.29542844      18.50087342
Na       8.59782090      10.11767755      15.62473358
Na      11.79536277       8.55346407      16.25430867
Na      15.64172566      18.45815475      11.69076960
Na      17.46082414       9.63258805      11.85206700
Na      13.74956340      15.62895446      11.82285760
Na      17.32183850      11.71170566      15.00501899
Na       8.80280728      12.45166584      12.87231111
30
Properties=species:S:1:pos:R:3 config_type=qcd gap_pre_relax_energy=-30.893830298595947 gap_pred_energy=-31.055498304569436 gap_fmax_final=0.0009719990435076613 gap_converged=1 pbc="F F F"
Na      12.24358544      11.58633776       8.51496068
Na      15.40816154      13.64319078       8.67114016
Na       8.86411034      13.24056127       9.06394508
Na      12.04084426      14.96589215       9.72629964
Na       9.34855379       9.71368304      10.01874627
Na      18.03931333      16.18052827      10.35849168
Na      14.16449100      12.03223258      11.44857449
Na      12.50689663       8.90904626      11.80691589
Na      17.60285862      12.84528695      11.61364959
Na      14.94114501      15.53687091      11.63367878
Na      10.76584087      12.32705372      11.74302781
Na       9.34977681      15.62589761      12.37027101
Na      12.39128805      17.90501526      12.69608283
Na       7.39706178      12.03204496      12.26176678
Na      16.17032062      18.56075074      12.66626672
Na      14.72604693      16.74331870      15.45477476
Na      15.66906449       9.67830324      13.78026952
Na       9.34756144      12.96995560      15.18757897
Na      15.40550090      13.37143554      14.40442514
Na      10.60328293      16.75159064      15.69888875
Na      12.33643837      14.60549757      13.67450383
Na      17.91925658      15.69054771      13.95798129
Na      12.59417671      11.37811538      14.65902941
Na      12.78519806       8.03353014      15.34525878
Na      18.19587342      11.82704977      15.44389520
Na      14.99895324      10.99581330      17.18470306
Na       9.66880345       9.57240946      14.05294492
Na      12.76987434      14.12601260      17.20837773
Na      16.44549240      14.31302598      17.55718703
Na      10.92652471      10.46529824      17.42266033
30
Properties=species:S:1:pos:R:3 config_type=qcd gap_pre_relax_energy=-31.00643429221225 gap_pred_energy=-31.139713495322813 gap_fmax_final=0.0009750009750010305 gap_converged=1 pbc="F F F"
Na       9.75690760      11.51634590       8.90676725
Na      11.40301351      14.81241131       8.66250124
Na      15.37448546      14.83956559       8.11263705
Na      13.48586224      11.86903843       8.99897512
Na       8.25685486      14.49582093      10.52929554
Na      11.30907123       9.31382538      11.57727424
Na      17.25208785      16.02772067      11.46511837
Na      18.99711625      13.41960710      13.28955321
Na      13.92928999      17.77435455       9.84358118
Na       8.31036516      11.05868365      12.76897401
Na      11.09796505      12.93995915      11.70663511
Na      16.80294603      12.50095372      10.57778473
Na      13.98737662      14.66159792      11.29020531
Na      10.93374152      16.67793969      11.73051939
Na      14.17626792      11.23633272      12.55401335
Na      17.12307448      10.52747029      14.40684278
Na      14.61117230      17.47900629      13.51735742
Na      15.62252973      13.81613456      14.07128452
Na       9.87179097       8.44385273      14.73821898
Na      13.51189869       8.57028705      14.95649177
Na       8.91172651      14.37637740      14.23786008
Na      11.53783307      11.54669740      14.68463547
Na      12.43452773      14.80054741      14.54844020
Na      17.70137718      16.48225823      15.03170940
Na      14.44261334      11.74089436      16.79512453
Na       8.45631304      11.49968776      16.37083750
Na      17.94303114      13.36844712      16.68657786
Na      14.87316249      15.49845434      17.13489985
Na      11.26193342       9.77891763      17.71992283
Na      11.21174833      13.51489440      17.67404539
31
Properties=species:S:1:pos:R:3 config_type=qcd gap_pre_relax_energy=-32.206464996074295 gap_pred_energy=-32.33901041796383 gap_fmax_final=0.0009736908739325359 gap_converged=1 pbc="F F F"
Na      14.46598687      13.92453753      16.46014327
Na      15.73103899      10.65365739      17.35098812
Na      11.73991422      11.85369797      17.46573480
Na      11.56890543      15.97713006      17.42020833
Na      15.36960711      17.19753082      17.44309275
Na      17.95948181      13.79916594      17.33339877
Na      13.85077000      11.30670501      14.44587845
Na      12.47262104       8.75902998      12.49356753
Na      11.57941201      14.03635009      14.36812817
Na       8.71533915      13.88573448      12.56835972
Na      13.66600382      16.73195998      14.29071805
Na      12.55974831      19.36543671      12.49393821
Na      16.74157103      15.31325865      14.39485553
Na      18.81894341      17.40948059      12.51023938
Na      17.45822015      11.74827426      14.22766585
Na      14.47515830      13.83134017      12.50858237
Na      14.59947969      14.05372408       9.13368742
Na      12.76169247       8.58488178      16.27001593
Na      15.63314952       8.33207558      14.10465939
Na       8.78314458      13.80999521      16.26503722
Na      10.10823060      10.92322886      14.34083028
Na      12.48525232      19.30484309      16.17869807
Na      10.09997834      17.22933845      14.20929248
Na      18.81772458      17.34420321      16.27219075
Na      16.17837918      19.07106663      14.35510732
Na      20.12507657      14.60307180      14.32101846
Na      11.61520917      12.06363506      11.25759927
Na      15.27596482      10.71875551      11.16712767
Na      11.98643177      16.03958635      11.07558125
Na      15.54007517      16.94606840      11.05368942
Na      17.75173514      14.11648190      11.15421129
31
Properties=species:S:1:pos:R:3 config_type=qcd gap_pre_relax_energy=-32.14285456939311 gap_pred_energy=-32.25564041497842 gap_fmax_final=0.0007963451803495341 gap_converged=1 pbc="F F F"
Na      12.14052294      10.92024872       6.17967905
Na      13.81303396      14.24081705       6.73296331
Na       9.35912179      10.41237060       9.02269393
Na      15.46546890      11.16518062       7.71767921
Na      12.65776994       8.70250104       9.57300118
Na      15.20029541      10.86125595      11.32114662
Na      12.51744549      12.22583156       9.28060808
Na      10.25326466      13.93266837       7.14093069
Na      12.17757141      15.93616638       9.55893079
Na       7.67357507      10.79995814      12.20584433
Na      13.01907686       8.02579465      13.17668333
Na      15.63577793      14.25038215       9.90415761
Na      11.08906966      10.94207095      12.09889580
Na       9.70832269       7.82594390      11.55202816
Na      12.94506921      13.81358226      12.17643416
Na      13.46426360      15.56763153      18.62880612
Na      13.31935897      18.00239267      15.76425217
Na      10.36001745      16.14826115      16.75308741
Na      16.27167862      16.01185322      16.28287134
Na      11.46521810      12.19421343      17.47035901
Na      15.21853094      12.19814616      17.33891407
Na      13.16742967      14.52600752      15.42412727
Na      11.15700358      16.72767182      13.10481314
Na      15.00755525      16.50770374      12.85514223
Na       9.84528151      13.49658329      14.33929551
Na      13.35696358       9.08664790      17.09210660
Na      16.41086667      13.22002389      14.01572586
Na      13.38285251      11.27108684      14.41565885
Na      10.22924739       9.57390092      15.19392305
Na       9.31666049      13.72795019      10.60801596
Na      16.32822228       9.64168994      15.02776171
32
Properties=species:S:1:pos:R:3 config_type=qcd gap_pre_relax_energy=-33.220112513867115 gap_pred_energy=-33.35492560443667 gap_fmax_final=0.0009101002129790609 gap_converged=1 pbc="F F F"
Na      10.08092447      13.00079371       6.59308329
Na      11.83042726       9.71596986       7.03297220
Na      14.07509365      12.61689154       7.47785168
Na       8.44180587      10.16344904       8.10087445
Na      11.87978504      15.33877603       8.78457729
Na       8.06930327      13.63828641       9.84275720
Na      15.46391909      15.73666401       8.96588953
Na      11.04367487      11.84304280       9.66404749
Na      14.21053241       9.53659122       9.73943862
Na      17.26016257      12.51082815       9.88812258
Na      10.81394374       8.27682240      10.30933657
Na      14.08709819      13.19762993      10.82615459
Na       8.37788083      10.68178087      12.06909813
Na      15.80181062      10.69539240      12.86368014
Na      10.85043290      14.25426840      12.03069819
Na      13.48065447      16.61488441      11.92965989
Na      16.65544245      14.99815708      12.75917518
Na      10.30656895       8.61841769      14.63592228
Na      12.20366791      10.63412571      12.48606787
Na      14.75342452      16.33151406      15.58488559
Na      18.89401818      12.30060266      13.10511343
Na      10.46119459      12.25467692      14.75420520
Na      13.74314308       7.59466101      12.87514740
Na      11.10645368      15.85185558      15.22329081
Na       7.66339618      13.98148003      13.63840756
Na      13.67846397      13.42190264      14.12832801
Na      13.56382254       9.99252319      15.70600330
Na       7.56260124      10.80284042      15.96848709
Na      16.57266146      12.96971151      15.80001019
Na      10.64789733      10.52573366      17.77981797
Na       8.94970138      13.84440426      17.37322822
Na      12.83911927      13.42434836      17.43269401
32
Properties=species:S:1:pos:R:3 config_type=qcd gap_pre_relax_energy=-32.96455298906508 gap_pred_energy=-33.0861281073328 gap_fmax_final=0.000986893881559176 gap_converged=1 pbc="F F F"
Na       7.89796600      12.37011994       8.37155196
Na      11.79774238      11.41983149       7.06141120
Na      10.62973597      15.00397235       7.20267487
Na      13.98137847      13.97050703       8.25797300
Na      10.03609247       9.62311797       9.69316979
Na       8.49493702      15.73219057      10.05429072
Na      12.82741770       8.08376118       8.02938141
Na       6.57294248       9.58026570      10.23597378
Na      15.36067957      10.77858066       7.30118369
Na      10.75631731      13.07210527       9.97248567
Na      15.72235991      16.12724606      11.40216054
Na      13.26779518      13.85714591      12.03767686
Na      13.46054158      10.71692360      10.12822322
Na       8.66164434       8.89308033      13.10278097
Na      12.12638677      16.50396340      10.22386885
Na      16.51442846      12.56457611      10.87220997
Na      17.66692003      10.60796944      14.36972941
Na      12.16304148       7.88276515      12.11423157
Na      14.48989055      10.62655555      13.23979171
Na      16.14351160      13.90569119      14.28488935
Na       7.69237572      12.34466899      12.13924408
Na      11.00419231      11.31095965      12.82733928
Na      13.48235030      16.43550900      14.37758005
Na      15.15032658       7.78073724      14.95316430
Na      10.02928715      14.99927836      13.35023865
Na      12.78582340      12.90858035      15.25375115
Na      14.95760622      10.82428893      16.84200886
Na      11.88816779       9.21803098      15.56911012
Na      14.35932104      14.79515890      17.57717475
Na       9.22849288      12.21942919      15.70897756
Na      10.84501644      15.39552796      16.81075333
Na      11.77950419      12.22165483      18.40919256
33
Properties=species:S:1:pos:R:3 config_type=qcd gap_pre_relax_energy=-34.56682477946327 gap_pred_energy=-34.66538852023499 gap_fmax_final=0.0009922524491354353 gap_converged=1 pbc="F F F"
Na      12.01761437      16.80370102      11.24945569
Na      10.04432371      15.40740283       8.37142697
Na      14.14835770      16.06484252       7.96608648
Na       6.92644391      13.82095908       9.75940575
Na       8.36248277      16.79589495      11.46442811
Na      10.31523333      15.85016203      14.45723237
Na      13.12346435      14.05226972      13.21462292
Na      12.71131661      13.58657246       9.69351190
Na       9.60413178      11.51749171       8.46796794
Na      15.80685670      12.69045168       8.24517685
Na       7.26078123      13.67461680      13.90394715
Na       7.96441261      10.62719582      11.54930343
Na      15.87129169      15.09217803      11.09356600
Na       9.80408105      13.71898905      11.47456541
Na      10.11010484       8.19131435       9.88719926
Na      12.69990630      13.13097373       6.32461769
Na      15.23585633      10.46032907      17.16858600
Na      13.82437183       7.47593329      15.43534647
Na      16.55402608       9.47115158      13.79396414
Na      10.20808013       8.52252369      13.66205309
Na      11.11187695      10.06105165      17.07459064
Na      13.01696605      13.37928163      16.72564414
Na      13.29927096      10.60156990      14.40312742
Na      14.95500318      11.63155693      11.46620302
Na      13.87783483       8.03711361      11.77730526
Na      18.23856823      12.28087568      11.53891089
Na       9.11315742      13.30905585      17.30821116
Na       7.72201203      10.38291040      15.65436631
Na      16.20642241      13.03227591      14.73319771
Na      10.36344674      12.23001440      14.41877581
Na      11.64863799      10.78724908      11.44119654
Na      16.81261737       9.24762371       9.95898861
Na      13.08229745      10.10571674       8.35826785
33
Properties=species:S:1:pos:R:3 config_type=qcd gap_pre_relax_energy=-34.456769231382175 gap_pred_energy=-34.58753217336703 gap_fmax_final=0.0009467012871616133 gap_converged=1 pbc="F F F"
Na      12.91749975      13.99199351       6.40263742
Na       9.79313023      15.52255029       7.77574759
Na       9.78600729      12.11653794       6.60785753
Na      13.14697591      10.17223595       7.90369559
Na      15.28268106      13.41992324       9.13781347
Na       8.01511566      13.02744010       9.88468195
Na      16.12578506       9.40959332      10.00154237
Na      13.52274926      11.17922221      11.24350998
Na      13.11887283      16.25406712       9.35155984
Na      11.53650848      13.03083747       9.38405576
Na      10.12009247      16.08855884      11.29888622
Na       9.98523903       9.70469049       9.78733691
Na      12.95738603       7.64903026      10.62596338
Na      13.33189156      14.51014818      12.28902103
Na      16.23301174      16.12148736      11.34676321
Na       7.43816173      13.73857552      13.61304521
Na      10.40302075      12.61407566      12.47493946
Na      16.54016152      12.09867368      12.58400542
Na       9.56723308       6.71584450      12.54304463
Na      13.15174345      17.84252466      12.68903369
Na       7.98260983      10.10221489      13.07419166
Na      11.44842613       9.43879530      13.25162326
Na      15.04276324       9.00438731      13.89701740
Na      15.75318750      14.87391293      14.90619880
Na      10.64430922      15.22876189      14.93133525
Na      13.29156725      12.15477708      14.52069800
Na      12.56231122       6.50106330      14.64063030
Na      13.41090361      17.05705579      16.09506692
Na       9.68291802      11.77183793      15.85715771
Na      16.13466588      11.53053674      16.25287777
Na       9.52825352       8.17444045      15.86397841
Na      12.78231880       9.61787617      16.75957578
Na      13.15251104      13.72634206      17.39452024
34
Properties=species:S:1:pos:R:3 config_type=qcd gap_pre_relax_energy=-35.76584041769003 gap_pred_energy=-35.86370096405679 gap_fmax_final=0.0009216369046895329 gap_converged=1 pbc="F F F"
Na      15.37382288      15.21441714      17.25254700
Na      15.31858957      15.51524750      20.58877253
Na      16.47961884      12.05357293      18.44409604
Na      12.63221004      13.49517543      18.58181218
Na      12.66372237      17.16314115      18.67849208
Na      16.18606782      18.51586984      18.67037421
Na      18.57002722      15.59523189      18.64514020
Na      14.38050939      12.61704848      15.26525490
Na      13.74926182       9.85714007      13.49894645
Na      12.45195302      15.46940999      15.29187796
Na       9.65335316      15.24157663      13.50666238
Na      14.47668369      18.14537354      15.51562003
Na      13.69322847      20.81419536      13.53678839
Na      17.67581882      17.16634881      15.34131333
Na      20.09786616      18.54454881      13.51735168
Na      17.78041978      13.71354679      15.42429564
Na      19.87205341      11.95555464      13.45212523
Na      15.45471720      15.31832527      13.45775299
Na      15.17233504      15.45688982      10.13610408
Na      13.80766466       9.88725333      17.16063970
Na      19.92180723      11.88838211      17.18055131
Na      17.00037053      10.33892327      15.26559973
Na       9.71460179      15.28669679      17.24303253
Na      10.96867136      12.26315003      15.40732246
Na      13.66008885      20.91572392      17.16126740
Na      11.10537750      18.68683554      15.35200120
Na      20.03683775      18.64471070      17.20849292
Na      17.01769984      20.51645661      15.27082869
Na      20.76732657      15.46011898      15.48672300
Na      12.65343705      13.52112269      12.03708299
Na      16.37788214      12.07793172      12.15521075
Na      12.58681249      17.13884042      12.11139070
Na      16.14236511      18.45565412      12.13611330
Na      18.80120715      15.30999444      12.26282476
34
Properties=species:S:1:pos:R:3 config_type=qcd gap_pre_relax_energy=-35.502455128354946 gap_pred_energy=-35.77301001921023 gap_fmax_final=0.0009077231805103082 gap_converged=1 pbc="F F F"
Na      12.61567776      13.95343226       7.66324363
Na      14.40044155      10.56865545       6.72002974
Na      12.55534651       7.71896425       8.22339475
Na      10.79700847      10.32358352       6.46452789
Na      15.52882734      13.22413992       9.67128459
Na       9.30630136       8.96281771       9.70844898
Na       9.28966955      12.77607876       8.66337974
Na      13.85552645      16.48344882      10.14261169
Na      12.35215469      10.85986243       9.49307276
Na      13.01269459       7.97708294      11.73147027
Na      10.23850294      10.43341953      12.68158130
Na      15.69725747       9.55009763       9.98013310
Na      10.29607270      16.30221177       9.36062086
Na       7.14515817      11.63807560      11.12643923
Na       8.59549089      14.68431814      12.37845665
Na      17.33989443      15.94065639      12.12497646
Na      11.64286599      13.67632085      11.05950253
Na      13.87572822      11.28151872      12.54394710
Na      11.50322607      16.58529016      13.38476321
Na      14.33973121      14.52805182      13.01309023
Na      17.22221819      12.33100515      13.02164256
Na      14.82386806      17.78628244      13.98073456
Na      10.09461563       6.93242545      13.37070475
Na      11.30932819      13.00629000      14.33194596
Na      15.95492840       8.82429646      13.62484588
Na       7.08440295       8.78255724      13.27808097
Na       7.73507276      12.11227288      14.75134715
Na      16.65562596      14.97165369      15.56618483
Na      12.60665202       9.04812878      15.04956957
Na       9.39323173      15.29536321      16.01037268
Na      14.58138543      12.05713037      16.00988181
Na      12.96107049      15.17348146      16.41654245
Na       9.26216444       9.23448047      16.09438271
Na      11.04337625      12.09212261      17.47430626
34
Properties=species:S:1:pos:R:3 config_type=qcd gap_pre_relax_energy=-35.54783859499467 gap_pred_energy=-35.67629664199229 gap_fmax_final=0.0009402908023902087 gap_converged=1 pbc="F F F"
Na      14.01484888      16.11387926       7.96253889
Na       8.28389306      11.04515303       8.44912822
Na      15.14532236      12.26505325       8.89212669
Na      11.47867901      13.57187173       8.76590112
Na      11.80165869       9.85534651       9.02570128
Na      17.12006513      15.14987413      10.13160436
Na      11.10324552      17.05874263      10.14513117
Na      14.58836723      18.26995478      10.87862837
Na       7.93486927      14.16479490      10.38844287
Na       8.75531342       8.09474492      10.42212288
Na      13.86807614      14.93867984      11.14039367
Na      15.53801472       9.47013704      11.26480718
Na       9.70743974      11.15960271      11.65842861
Na      12.94633683      11.75714891      11.71942546
Na       6.34605944      10.69238766      11.57064301
Na      18.34550239      11.61165169      10.50031187
Na      10.70122461      14.39458818      12.37714979
Na      11.84581304       8.31898463      12.46490876
Na      14.00694085      10.62508669      14.57992225
Na       8.40551660      16.71255744      13.18646979
Na      16.13735220      12.92970457      12.77265332
Na      17.53810460      10.11363785      14.31416068
Na      12.31549731      17.45707190      13.62142677
Na      15.94433596      16.37708901      13.77629434
Na       8.64181177       8.98748031      14.21289060
Na       7.65483274      13.20691186      13.92745853
Na      15.16399435       7.39641361      14.57333019
Na      11.81662544       8.54010170      16.24611820
Na      13.37354567      14.17343534      14.71865585
Na      10.76908163      11.70982169      14.87183925
Na      12.84118141      12.21162961      17.67541599
Na      10.15782921      15.05144517      16.00668133
Na      16.27289319      13.03531683      16.37974397
Na      15.51374482       9.61771785      17.45756199
35
Properties=species:S:1:pos:R:3 config_type=qcd gap_pre_relax_energy=-36.81362764699424 gap_pred_energy=-36.92832114711826 gap_fmax_final=0.0009917932627510591 gap_converged=1 pbc="F F F"
Na      12.92017113      11.56432309       6.20031603
Na      11.85533520      15.10394042       7.56322000
Na       9.84781955      12.05838534       8.17397316
Na      15.76183000      13.55822348       7.49570650
Na       8.35535714      15.32184813       8.99393206
Na      11.78385393       8.79530787       9.05232324
Na      15.40358949       9.91163035       8.45366213
Na       8.24534483       9.11724882      10.38797749
Na      13.29193948      12.54823118       9.46195776
Na      10.95698502      17.77587083       9.95903438
Na       7.66727048      12.94315085      11.77680506
Na      11.01881129      14.55932511      10.93635800
Na      14.66319162      15.76277411      10.39819294
Na      14.35849167       6.70734776      10.69316095
Na      10.74359185      11.17846474      11.40679638
Na      16.57149726      12.73075837      11.06373952
Na      14.06411114       9.99641444      11.60204002
Na      17.13321218       8.72572711      11.96809414
Na      10.45614046      13.23296108      14.12096641
Na      16.20808068      15.16452625      13.76210588
Na      10.84021063       7.63878954      12.46882418
Na      13.52117976      13.29341804      12.95523692
Na      12.22897756      10.28554807      14.41932501
Na      15.99995242      11.13877873      14.45221406
Na      14.42084535       7.65752609      14.30658498
Na      12.48141796      16.86331404      13.25513757
Na       8.41742558       9.94857973      13.95942055
Na       8.77072710      16.24214819      13.00129867
Na       7.40695679      13.78545314      15.37662391
Na      14.11687400      16.37095381      16.30922338
Na      13.48814592       9.58052865      17.51596316
Na      10.10170912      11.43859592      17.07438665
Na      10.57326973       7.86801630      16.14505555
Na      13.34146781      13.04826874      16.52268834
Na      10.55956204      15.65896789      16.34300116
35
Properties=species:S:1:pos:R:3 config_type=qcd gap_pre_relax_energy=-36.777678498221 gap_pred_energy=-36.886636794261 gap_fmax_final=0.0009659499174472737 gap_converged=1 pbc="F F F"
Na      14.65800830      11.26587432       6.56939291
Na       8.40925327      13.65805278       7.66325022
Na       7.24449877      10.45505638       8.93911168
Na      10.53154805      10.76530581       7.02484200
Na      16.49908347       9.55733328       9.42745647
Na      12.46217101      13.79519195       7.96640962
Na      15.84258329      13.17603485       9.43196323
Na       9.90129005      15.62141973      10.54776907
Na      13.05139469      10.28158898       9.42076443
Na       9.95774889      12.06671372      10.29442002
Na      13.59037464      16.57186212      10.92804432
Na      13.73544490       7.43356444      11.64199416
Na      17.00746375       8.33332567      13.22357792
Na      10.04996103       8.31969640       9.81010256
Na      18.29509814      11.56643653      12.07087802
Na      12.78983192      13.22524884      11.36893212
Na       6.96978968      13.46579456      11.38255459
Na      15.04155297      10.90187705      12.21942052
Na      15.65159369      14.58189371      13.22726416
Na      10.99904122      18.48199589      13.06886203
Na      11.60733932       9.95988100      12.55478397
Na      11.77641786      15.18907943      13.74014038
Na       7.98846905       9.63594776      12.48067338
Na       9.60944372      12.59571433      13.66994029
Na      14.18840232      17.67007195      14.41113545
Na       8.37999521      15.89354663      14.06560465
Na      10.47824294       6.94239760      13.45762541
Na      13.11844943      12.21351211      14.75346933
Na      16.41779192      11.32834317      15.41481815
Na      11.13799930      17.13305522      16.46867512
Na      13.93864265       8.63117432      15.22631752
Na      14.13656540      14.81958615      16.67957931
Na      10.45274797       9.80236690      15.93307619
Na      10.65246717      13.51125057      16.93077906
Na      13.35862916      11.07914102      17.91570692
36
Properties=species:S:1:pos:R:3 config_type=qcd gap_pre_relax_energy=-37.86630485421884 gap_pred_energy=-38.00379505533505 gap_fmax_final=0.00091444030204486 gap_converged=1 pbc="F F F"
Na      11.22805735      11.22602147       6.95389831
Na      13.95873343      10.77873886       9.31357977
Na      14.28211482      14.13565266       7.91884908
Na      12.37784630       7.85315194       8.14683301
Na       8.68515819       8.74343481       7.90241617
Na      10.62750903      15.14843575       7.28587711
Na      17.24891517      12.06219449       9.64666218
Na      11.47886829      13.12451352       9.81744953
Na       8.15989371      12.21089348       8.81330124
Na      16.73119172      15.82442642      10.20296449
Na      16.28354983       8.29131283       9.45226172
Na      12.61451734      16.71787374      10.01368908
Na       7.38239309       9.22350098      11.43105797
Na       9.89771429       6.53291177      10.47167411
Na      10.62124943       9.84529098      10.51191030
Na       9.17073061      15.78222590      10.64172094
Na      17.45713548      13.68829441      13.35695607
Na      14.65803737      13.50981477      11.39739898
Na      10.95819481      17.87368486      13.15013490
Na      14.57118934      16.57142115      13.18759488
Na      11.63154949      14.60292007      12.96858569
Na       8.97338257      12.32845465      12.25352530
Na      12.71570516      11.10622114      12.62216511
Na      13.48493289       7.75578639      11.69490233
Na      16.15571666      10.16946836      12.65896675
Na       8.47545389      14.90393379      14.63903230
Na      14.25284541      13.36520998      14.85552327
Na      10.25050289       8.61629065      13.91704596
Na      11.74047044      15.57987880      16.27973403
Na      10.87493038      11.99336831      15.11561378
Na       7.60264087      11.01832561      15.30799072
Na      13.74115864       9.65660653      15.63470909
Na      16.68765588      11.59189287      16.42566531
Na       9.24794433      13.34038546      17.81578871
Na      12.94228546      12.43751796      17.97614788
Na      10.34039016       9.90050938      17.72893865
36
Properties=species:S:1:pos:R:3 config_type=qcd gap_pre_relax_energy=-37.886564555437644 gap_pred_energy=-37.979660545612234 gap_fmax_final=0.0008956274734362081 gap_converged=1 pbc="F F F"
Na      12.75138441      12.43348008       5.99727005
Na      15.82276772      13.95645542       7.44883963
Na      15.28473704      10.41654152       8.22285929
Na      12.49114803      15.78622851       7.33569861
Na      11.26951368      10.05836457       8.47671739
Na       9.61571888      13.34407676       8.39629741
Na      13.12310855      13.02591640       9.31836012
Na      13.42227971       7.31040014      10.40421614
Na       8.05811965      10.69860913      10.45979800
Na      16.75672070      12.65824943      10.79923419
Na      14.86150916      16.19203860      10.19970543
Na      13.97202883      10.59946041      11.47555984
Na      10.76508134      12.59949984      11.57884805
Na       9.59823206       6.90133600      10.07996076
Na      11.12066463      16.12121684      10.79002278
Na       7.95194904      14.43111296      12.21482688
Na      11.38657337       6.07765602      13.18191613
Na      13.95569484      13.85936913      12.59404867
Na       8.56459272      11.27551139      14.20446622
Na      16.86350706       8.92397381      11.29413722
Na      11.06899673      14.64375289      14.19106132
Na      13.41864264      17.28915261      13.49147835
Na      16.58767922      15.40714076      13.93972675
Na       8.11329836       7.78485339      13.27916379
Na       9.39380813      17.55642740      13.69575480
Na      12.29731390      11.36130020      14.46600581
Na      10.94667626       9.29880159      12.04499881
Na      16.10654650      11.49402572      14.50958440
Na       8.12842139      14.99714336      15.92713938
Na      15.04135023      17.23560443      16.63200612
Na      10.74219138      12.67759061      17.20699356
Na      14.04980785      13.89242818      16.19997815
Na      11.52034043      16.45359694      16.97140081
Na      14.27081566       8.18728487      13.93265026
Na      10.78548858       8.60205515      15.74587348
Na      13.91406568      10.47011932      17.31417576
37
Properties=species:S:1:pos:R:3 config_type=qcd gap_pre_relax_energy=-39.204628972396804 gap_pred_energy=-39.306727996129524 gap_fmax_final=0.00097511359893735 gap_converged=1 pbc="F F F"
Na       9.46110910       8.68021295       8.75811321
Na      12.77768152      10.91840662       7.61349238
Na      11.95565100      14.31809021       6.46795972
Na      15.59076861      13.35705367       8.25258401
Na       9.06622732      12.71976430       8.19190972
Na      16.13215100       9.69474318       8.55393628
Na      13.51543232      16.92737188       8.58076594
Na      10.90252344      11.05174647      10.62974637
Na       7.40333995      10.75369832      11.04162085
Na      12.72357621       7.90415469      10.42231023
Na      12.54973891      13.97244197       9.80155515
Na      14.29081812      11.22877246      10.83392241
Na       6.52989037      14.68345265      10.15088547
Na       9.95799319      16.26556908       8.88513140
Na      17.63813109      12.04180102      11.05553964
Na      12.04502435      16.81647913      12.05394295
Na      15.55503697      15.15656312      11.65312209
Na       9.53031684      14.12329625      11.52155524
Na       8.21431377      16.99309515      12.57535097
Na      12.43853136      13.43812045      13.15167069
Na      15.86948336       8.56884437      12.54951961
Na       9.52776657       8.09681975      12.36456783
Na       6.86924620      13.68615680      13.75365836
Na      12.60923383       9.96656139      13.59673230
Na      18.01374007      14.10455516      14.58061035
Na      15.39313900      12.13865998      13.81601791
Na       9.59248729      11.55854489      13.81318149
Na      10.04609302      15.05596533      15.14537129
Na      14.46099322      15.26376792      15.27475186
Na      13.01416302       6.65937935      13.91610953
Na      18.12832859      10.41082227      14.82255649
Na       7.06136845       9.59328195      14.67461269
Na      12.55630768      12.26336919      16.54788503
Na      14.82426332       9.18104576      16.03066125
Na      10.49490362       9.02797632      16.09341184
Na       8.44395109      12.14838652      16.92604059
Na      16.09090059      12.50565386      17.17382124
37
Properties=species:S:1:pos:R:3 config_type=qcd gap_pre_relax_energy=-39.0871835948237 gap_pred_energy=-39.20813477613345 gap_fmax_final=0.0007546323141076674 gap_converged=1 pbc="F F F"
Na      14.25637904      10.87981915      18.36951449
Na      11.48359024       8.73736819      17.00109256
Na      17.26649127      15.23547023      14.40555992
Na      15.84458097      15.81181471      10.91541578
Na      13.44923259      15.25746454       8.02167853
Na      16.89955022      11.60235325      15.26760187
Na      12.30366218      14.64979761      11.14151485
Na       7.76854102      11.77033121       8.91010244
Na      13.29192241      16.88927202      13.88306727
Na      12.25690573      11.02937318      11.99596513
Na       8.05804366      13.86843659      14.87249146
Na      15.64642934       9.50355027      12.40124282
Na      12.13236004       7.83962540      13.42976230
Na       9.73572964      16.61960225      12.94142069
Na      13.46399214      10.86356372      15.06288600
Na      10.39682665       9.61673928       6.99972233
Na      11.52668797      13.75139103      14.43819273
Na      14.44347100      14.18898031      16.69832515
Na      14.66368304      12.24663744      10.08825997
Na      13.99464709      11.64493750       6.71285626
Na      11.26400731      12.36012377       8.81926376
Na       9.40737854      12.72093487      11.77577580
Na      14.96569265       8.07511773      16.10608036
Na      14.71154353      13.47168764      13.25881309
Na       6.47815260      14.30134179      11.50881029
Na      17.74198260      12.57544317      11.78076749
Na       6.88734468      10.61337964      12.69313103
Na       9.36701278      15.40250474       9.41433619
Na      16.80481803      13.81525841       7.95252321
Na      13.19948267       8.99125087       9.22287450
Na       9.69422351       9.06570243      10.61145260
Na       9.87111287      10.74027931      14.60900392
Na      16.81098594      10.19897021       8.56560987
Na       8.61373164       7.60857273      14.23965538
Na      10.69430540      16.23351753      16.49722381
Na      11.10682430      12.57061936      17.58100244
Na      12.17483963      17.92493284      10.48316860
37
Properties=species:S:1:pos:R:3 config_type=qcd gap_pre_relax_energy=-39.039694930241 gap_pred_energy=-39.14663393347601 gap_fmax_final=0.0009993258529300676 gap_converged=1 pbc="F F F"
Na      14.68747912      12.43487429       8.46471387
Na      11.29858408      10.52395588       7.65823079
Na      11.95407338      14.81712824       7.57429100
Na       7.94298822       9.23473274       8.22145761
Na      14.29832836       8.44205313       8.09278547
Na      12.57278217      18.10647796       8.90712920
Na      15.43574511      15.87837365       7.75501052
Na      17.19760478      13.78091516      10.81714057
Na       9.94015210      16.03771758      10.40411784
Na      11.55615646      12.83963965      10.31500923
Na      11.01538737       7.47398737       9.55334909
Na       8.41442744      12.96530003       8.86770352
Na      16.56836941      10.02274201      11.16648822
Na      13.84044248      15.55821365      10.75849489
Na       7.91319060       7.33388187      11.64610368
Na       6.09205305      10.44157302      11.18144186
Na       9.50887853      10.36828549      11.05446228
Na      13.07801982       9.76990742      10.97148184
Na      14.23110828       6.64953117      11.23081317
Na       8.12122913      13.20509293      12.68961783
Na      14.38988022      12.57189491      12.13938756
Na      12.22450457      17.87919794      12.94753971
Na      11.54803795      14.44590719      13.21209737
Na      11.16925578       7.54485728      13.19973414
Na      11.40212111      11.11653879      13.61077639
Na       9.26198785      16.55728547      14.56422569
Na       8.24259123       9.80631029      14.34104979
Na      15.38591937      15.54515129      14.04704184
Na      14.63170469       9.25615740      14.39915499
Na      17.08224061      12.10947633      14.22603235
Na      13.70993901      12.65035353      15.49437207
Na       9.90178865      13.25680875      16.17889030
Na      12.48797594      16.04468552      16.16402390
Na      11.72544064       9.90423100      16.78952084
Na      15.85444047      14.34577659      17.44793477
Na      15.29402114      10.67616260      17.74136951
Na      12.55296587      12.93663689      18.69882132
38
Properties=species:S:1:pos:R:3 config_type=qcd gap_pre_relax_energy=-40.19195969282168 gap_pred_energy=-40.30378587208273 gap_fmax_final=0.0009750782073705243 gap_converged=1 pbc="F F F"
Na      15.59091017      10.21591050       8.06136010
Na      10.70793005      14.78422048       7.74186146
Na      12.59243544       9.53206063       9.99477394
Na      11.38666190      11.08899647       6.98272524
Na      13.59803684      13.03464159       9.03135168
Na       7.90024313      12.25950902       7.70666317
Na      15.46481286       7.66752650      10.91222131
Na       8.19802185      15.26222246      10.56595381
Na       9.06200596       9.00756830       9.18806202
Na      14.13181303      16.66944503       9.34970242
Na      17.16802584      13.57418975       9.48000358
Na      18.40049139      10.12679203      10.65357845
Na      15.40869979      11.28486042      11.41958206
Na      11.80495763      14.99658228      11.18357679
Na      10.08696924      12.27557150      10.15755850
Na      10.73079863      18.05144758      10.28031953
Na      11.23825176       6.67964648      11.74189171
Na       6.98426630      11.16573373      11.49081197
Na      15.08441795      14.72239632      12.27376230
Na      12.31316111      14.67866881      14.66714514
Na      10.10146682       9.82002733      12.60021006
Na       7.69355273       7.65354437      12.89351624
Na      13.26259576      17.76031557      13.01388097
Na       9.23457606      13.38676921      13.40992953
Na       9.66548162      16.93311336      13.64370780
Na      18.02116189      12.96142026      13.22315329
Na      12.56886336      12.02335132      12.68824912
Na      16.93423952       9.34069682      14.10211847
Na      12.23357908      16.99798094      16.95395273
Na      13.43112362       8.90456699      13.56462943
Na       7.76242987      10.66184785      15.19669486
Na      14.99854665      12.21079099      15.01930424
Na      10.53858415       7.82327162      15.43427646
Na      15.54030838      15.70403248      15.69629607
Na      11.26158399      11.34722902      15.76576362
Na       9.55071766      14.34560566      16.83235581
Na      13.99952624       9.44238465      17.06472073
Na      13.22303050      13.47934046      17.88861418
38
Properties=species:S:1:pos:R:3 config_type=qcd gap_pre_relax_energy=-40.12040158869395 gap_pred_energy=-40.37306751952618 gap_fmax_final=0.0008759409978062408 gap_converged=1 pbc="F F F"
Na      14.35209125       9.65714692      18.62013641
Na      17.67688480      18.45323803      12.94506636
Na       9.12133633      15.15615125      12.97885916
Na      14.38743967      16.47980680      18.28458640
Na      16.26862979      13.23491909      18.23183451
Na      14.26193262      11.28653807      15.68525572
Na      12.56097273      15.37938462      12.35694378
Na      17.21178596      15.93871724      15.68487979
Na      14.32816277      12.33872706      12.33457793
Na      14.38892698      17.76828314      14.17748201
Na      12.46792316      13.22408951      18.26581912
Na      17.29921936      12.72999290      10.35710897
Na      11.32273714      12.66213493      10.41914571
Na      11.59816553      15.78811056      15.72725007
Na      17.32941151      12.67579095      14.14196544
Na      16.23429742       9.52727832      12.89777619
Na      12.19590560      19.09773347      16.64098371
Na      19.58423490      15.16609211      12.93274340
Na      14.19573227      14.33244045       9.04489160
Na      14.45186985      14.46998984      15.29637471
Na      11.05721699      16.28400242       9.52406695
Na      10.31651131      16.62343575      18.71292880
Na      14.37952482      17.79623125      10.41907573
Na      14.31401163      10.64209582       9.45534832
Na      17.72887736      16.36877094       9.56067502
Na      16.57519623      19.17303372      16.63472486
Na      18.47016544      16.65651217      18.68149485
Na      20.08768929      17.63852412      15.63723453
Na      11.21664544       9.96718358      16.55351789
Na      19.72575655      13.80385637      16.56307319
Na      12.41614330       9.48005433      12.90792563
Na      11.33628161      12.62848257      14.18520409
Na      14.33802441       7.87934312      15.55421669
Na      16.15261039      15.39721319      12.31343029
Na       8.97025955      13.79731402      16.60078478
Na      17.42081235      10.04623643      16.51953260
Na       8.71985330      17.57556804      15.68398527
Na      11.08289696      18.42171345      13.01523603
38
Properties=species:S:1:pos:R:3 config_type=qcd gap_pre_relax_energy=-39.99118723850375 gap_pred_energy=-40.163266526524716 gap_fmax_final=0.0009683343982410753 gap_converged=1 pbc="F F F"
Na      12.28625631      12.07976032       6.67254386
Na      11.37013857      15.77249863       6.90913136
Na       8.71348531      13.33140755       7.19699887
Na      14.53619480      14.93105377       8.46790008
Na      13.47152757       8.35762392       8.45440474
Na      10.10973773      10.11568034       9.12263027
Na      11.15731057      13.57429897       9.52552094
Na       8.65447544      16.07867964       9.59600370
Na      14.02321487      11.63842743       9.76438587
Na      12.17616365      17.20830353      10.19362913
Na      10.94612698       6.36237265      10.54698047
Na       7.85179986      12.75275150      11.08360220
Na      16.99421618      13.41821999      11.35360991
Na      16.32302325       9.27053107      11.07218664
Na      15.91119400      16.86777556      12.15736655
Na      12.57692227       9.08644751      11.66073645
Na      14.44153434       6.21840697      11.47151950
Na      13.53712929      14.47623556      11.89194721
Na      10.98477810      11.84685364      12.26165530
Na      15.45517590      14.29811820      14.92008441
Na       6.92004280      15.42576028      13.32355069
Na       9.06588749       8.90300087      12.85612921
Na      11.72237721       6.66039246      14.12222552
Na      10.24548364      15.32288717      12.61004176
Na      16.15942531      17.47406916      15.82911998
Na      17.63732563      11.46181151      14.39318395
Na      11.93387204       9.96721145      15.16125669
Na      12.92581110      17.09059430      14.37239156
Na      18.58884991      15.16673324      14.01686192
Na      11.94279842      13.51974861      14.95661565
Na      14.45412696      11.43352277      13.27477840
Na       8.50126932      12.00212951      14.86187885
Na      15.15219198       8.29538660      14.45236140
Na      13.11770138      15.17924206      17.63420289
Na       9.06818682       8.71828651      16.47645949
Na       9.43310222      15.47740846      16.10951849
Na      10.80598000      12.15447129      17.86454646
Na      14.42096848      11.67770271      16.97784534
39
Properties=species:S:1:pos:R:3 config_type=qcd gap_pre_relax_energy=-41.399339301927384 gap_pred_energy=-41.49119890311433 gap_fmax_final=0.0009729719581783067 gap_converged=1 pbc="F F F"
Na      15.18363334      10.45275829       7.99288691
Na      11.62606251      10.34436005       6.49839378
Na      12.85382862      14.14298243       7.32732035
Na       9.27713693      13.32931774       8.18572220
Na      12.65895337       7.91901832       9.10047894
Na      14.11410128      16.87717583       9.66154572
Na      15.00710896      13.46364025      10.18811134
Na      12.21723122      11.50728746       9.53176747
Na       9.21515473       9.51483619       9.19148962
Na      10.57569998      16.86085779       8.39251641
Na       8.03775842      15.27208653      11.18227039
Na       9.52510575      11.99440407      11.64914635
Na      11.24360063       9.01514296      12.16639575
Na      17.82445935      11.31797269      10.67384220
Na      11.49642118      14.71549605      10.74186982
Na      15.08461934      18.38162514      13.45956313
Na       6.34213716      12.00527865      10.77208607
Na      16.67971841       7.72523457      10.30787866
Na      14.61935389       9.95080215      11.50525683
Na      17.24705246      15.60617880      11.93986230
Na      12.84558189      12.26318233      13.00221623
Na       7.73374593       9.54201476      13.36274192
Na      13.95632143      15.35089037      13.03737357
Na      13.94549437       6.77038797      12.78987938
Na      10.30937282      14.83071446      13.99912318
Na       7.17715873      13.14692662      14.19613162
Na      16.17118723      12.58148609      13.61046683
Na      11.49951361      17.86355065      12.23072721
Na      17.02006530       9.04817109      13.84391937
Na      10.36138224      11.42141989      14.96321112
Na      13.61990645       9.62817641      14.96945342
Na      10.51684700       7.88084539      15.48673752
Na      12.43890719      17.06330236      15.81985131
Na      16.10284729      15.50975270      15.73966885
Na      13.05496863      13.53077323      16.13923602
Na       8.19311151      10.35184275      17.15190657
Na       9.66618269      13.86266760      17.36279245
Na      15.89097522      11.51518293      17.03774034
Na      11.87190537      10.64686889      17.99303133
39
Properties=species:S:1:pos:R:3 config_type=qcd gap_pre_relax_energy=-41.3896893449259 gap_pred_energy=-41.52767653891603 gap_fmax_final=0.0009742880396764895 gap_converged=1 pbc="F F F"
Na      12.31063787      15.19379246       6.43128337
Na      12.68264733      11.70533464       7.31337838
Na       9.72875282       9.07382456       7.31594202
Na       9.05189611      12.66908246       7.27250177
Na      15.05594259      14.27365850       8.71081852
Na      12.81924373       8.34070146       9.62926127
Na      11.05234925      14.43313535       9.50875443
Na      16.18568770      10.25699960       9.53247131
Na      10.23367120      10.91900799      10.06158516
Na       9.96647410      16.70451310      12.16565785
Na      13.08003584      17.35427807       9.40911167
Na      16.73565941      12.88701587      12.07650301
Na       6.95851377      10.31525235       9.36244462
Na       9.50406347       7.71163880      11.23010040
Na      16.14243040      16.97087292      11.49627383
Na       7.65421773      13.58421111      10.71194350
Na      13.45610547      15.04722710      11.89625265
Na      16.22786629       6.90969162      11.33018315
Na      13.35951024      11.89129993      10.69209451
Na      10.46441979      13.18076238      12.65414918
Na      18.14412107       9.65876795      12.69816404
Na       7.91218449      10.60883909      13.11075907
Na      14.71769860       9.55110750      12.70579144
Na      11.43360420      10.02172423      13.19257544
Na      12.60830091       6.74016107      13.02388509
Na      13.16772073      18.01784166      13.52465681
Na      13.71315250      12.45139655      14.13336091
Na       8.20768199      14.64820883      14.82350578
Na       9.60568378       7.81059922      14.89816002
Na      16.14408442       7.52344871      15.00488671
Na      11.77332876      14.94390094      15.11793285
Na      15.51209393      15.41756853      14.85545819
Na       9.99302143      17.85482353      15.55900460
Na      16.45735911      11.15070239      15.62121009
Na      10.16030767      11.75695103      16.22954616
Na      13.21466694       9.47875699      16.22181639
Na      13.49101928      12.98524996      17.51288907
Na      13.28022594      17.06231619      17.26923661
Na      10.15479905      15.25651529      18.05763011
40
Properties=species:S:1:pos:R:3 config_type=qcd gap_pre_relax_energy=-42.4287794091959 gap_pred_energy=-42.585027442062795 gap_fmax_final=0.0009833053052728336 gap_converged=1 pbc="F F F"
Na      13.42155466      10.23523258       7.02009409
Na      10.27455981       8.32326637       7.39864577
Na       9.79307232      12.48920610       7.50300554
Na      13.02142694      13.93606893       8.83943271
Na      16.22359584      12.58685106       7.56310121
Na      13.74851437       7.60444523       9.51693446
Na      13.58827353      17.57752948      10.73448869
Na       9.85301324      15.98207172       9.29768839
Na      11.34404301      10.34348931       9.83550461
Na      10.14572698       7.02796711      10.88891860
Na      16.29881881      15.65115398       9.12115383
Na      16.95301074       9.31344585       8.76089046
Na       6.68910922      13.72963161       9.28146997
Na       7.75452110      10.14768543       9.57934329
Na       9.37181167      12.99336966      10.99376597
Na      12.10807817      11.98116522      12.67554340
Na      16.41925964       8.57224322      12.28124864
Na      11.48932588      15.30577186      12.35177210
Na      14.56781373      11.12786300      10.40973516
Na      10.48149153      18.49645320      12.55986732
Na      12.82930037       8.60572053      12.70280994
Na       9.30303586       9.86611292      12.77909721
Na      17.11286638      16.58846982      12.46110730
Na       7.94074406      15.82026627      12.61940728
Na       6.46942168      12.02713753      12.73262594
Na      15.14677421      11.20069981      14.16176653
Na       9.36917003      13.20690519      14.54146014
Na      13.96195455      17.09179723      14.33292699
Na      17.58011965      12.69981449      11.06750878
Na      14.64656995      14.26314143      12.00450371
Na      10.54677196       7.30397725      15.14464610
Na      11.83679494      10.56153348      15.53975061
Na       8.34341611      10.20841743      16.28249388
Na      10.25951862      16.41831204      15.65796373
Na      14.35143247       8.16915118      15.88815672
Na      16.50959040      14.22666035      15.16255203
Na      12.90871384      13.96301589      15.42921305
Na      14.40761601      11.60991569      17.64014766
Na      10.62920034      12.78301655      17.96274085
Na      11.42299905       9.08405564      18.39954898
40
Properties=species:S:1:pos:R:3 config_type=qcd gap_pre_relax_energy=-42.4821790761096 gap_pred_energy=-42.61771113717129 gap_fmax_final=0.0009886218174227656 gap_converged=1 pbc="F F F"
Na      13.75321032      12.87501999       6.52730318
Na      10.58425366      13.77446134       8.16991972
Na      13.38527851      16.35608359       7.80605781
Na      12.04168389      10.39297117       8.75746216
Na       8.40363325      10.81435920      10.18560585
Na      10.21013736       7.48413040       9.82009698
Na      17.28129547      13.31012543      11.79813696
Na       8.24953942      14.85136489      11.65276000
Na      14.05483175      13.65533279       9.84468735
Na      16.10517005      10.88576415       9.15744073
Na      16.63614366      14.53690490       7.94443620
Na      11.59812298      16.05481684      10.85454190
Na      12.70962594      19.26350099      10.67664954
Na      11.01476526      12.77046424      11.38280338
Na      13.80014725       7.69192281      10.89267226
Na       7.94932877       7.98728524      12.66460761
Na      15.40682987      16.86780072      10.92177735
Na      10.86268419       9.58158023      12.43117732
Na      13.96738751      10.92406191      11.80990359
Na      17.06201817       9.67034079      12.61217174
Na       9.86387778      18.07858582      13.15178955
Na      13.88913187      14.44042747      13.05719170
Na      13.48863878      17.75952770      14.00939022
Na      11.18592085       6.30224310      13.23637668
Na      16.54491534      15.61988009      14.98013389
Na      18.82158716      12.26037943      15.11653856
Na      16.85627149       9.64365928      16.69413720
Na      10.79034722      14.88780666      14.14509431
Na       9.99490480       9.25445482      15.83222680
Na      15.52246927      12.04509282      14.68452024
Na       8.18299062      11.86844066      13.86971965
Na      12.11390706      11.66881757      14.67581640
Na      13.78230873       8.41430451      14.53476655
Na       7.80272120      15.77358332      15.27550530
Na      13.29007938      14.20982780      16.52817278
Na      14.76733663      16.99377065      17.78874888
Na      11.07794765      16.95125549      16.85687533
Na      16.40799344      13.17303350      17.83055412
Na       9.84893820      12.95265892      16.98237635
Na      13.47132307      10.73365664      17.61955171
41
Properties=species:S:1:pos:R:3 config_type=qcd gap_pre_relax_energy=-43.567279342749806 gap_pred_energy=-43.761245559345674 gap_fmax_final=0.0009609609854263915 gap_converged=1 pbc="F F F"
Na      11.67973231      13.20169241       6.65395124
Na      14.41772596      10.78268089       8.39548852
Na      14.84422047      14.82414949       7.68682743
Na      11.39300116      16.57927356       8.77082495
Na      10.89622748      10.30682693       9.18413928
Na      13.43617514       7.84898048      10.44070762
Na       8.99275995      13.55915080       9.04455272
Na      12.31954784      13.52511665       9.89529867
Na      14.27949843      16.44433540      10.80862881
Na      17.84726447      16.06655295      10.44409815
Na      15.77851003      13.12247423      10.60019895
Na      11.97247949      18.91128975      11.96061835
Na       9.95456528      15.89609247      12.30517279
Na      10.81900931       8.87293407      13.31403588
Na      13.10193752      10.88743257      11.79637432
Na       9.63715325      12.29997834      12.49988193
Na      16.56735570       9.64961582      11.22144189
Na      16.17238647      18.68311670      12.86049208
Na      13.04794624      14.17538247      12.95826025
Na      18.89614205      13.06939300      12.67326370
Na      12.65283022      11.36182215      15.12591147
Na      13.46147471      17.08737249      14.54562893
Na      16.62355441      16.93895417      16.62656774
Na      15.81559854      11.88315408      13.83186433
Na      17.99837122      13.39419364      16.37596360
Na      18.32060985       9.98453102      14.91872105
Na      11.18809766      14.46854119      15.62504003
Na      14.61357297       8.53608335      14.35000331
Na       7.83190944      14.76882072      15.43102253
Na      19.23984446      16.65745767      13.84763440
Na      11.90574936       8.63595709      16.86260695
Na       9.32758426      11.42517103      16.16398869
Na      10.10570516      17.75929929      15.62654222
Na      16.26268716      15.29292587      13.60115745
Na      14.36138947      14.11710413      16.36395706
Na      12.94697014      16.99810667      17.97256051
Na      15.66195843      10.75858613      17.34355149
Na      12.19266286      11.99884869      18.49832427
Na       9.77394084      15.17491118      18.50431429
Na      15.94041578      14.31914983      19.28984013
Na      12.71068538      14.72179153      20.56979292
41
Properties=species:S:1:pos:R:3 config_type=qcd gap_pre_relax_energy=-43.71472218115923 gap_pred_energy=-43.859698398880994 gap_fmax_final=0.000959371404124753 gap_converged=1 pbc="F F F"
Na      11.95542180       6.88242839       8.31579748
Na      12.69308756       9.74102742       5.99921747
Na       9.58401096      10.27034681       8.25730038
Na      11.67105103      13.31163421       7.79174805
Na      15.26047502      12.03962502       7.61773703
Na      15.40547332       8.13654400       7.84265194
Na      10.48959361      17.17459515       9.02054659
Na      14.33072817       7.04764450      11.29232657
Na      14.09315469      16.10130195       9.16695634
Na       8.38292316      13.61483974       9.68724516
Na      10.59492201       7.85414739      11.59018893
Na      12.94187811       9.94996986       9.31788659
Na      10.73192905      11.43634626      11.24708854
Na       7.49214260      10.58820019      11.70677402
Na      17.13123160      14.25511006      10.63933629
Na      11.41175871      14.84962825      11.16859852
Na      14.04823452      12.78783992      10.69478788
Na      16.46855358      17.69583803      11.61730079
Na      12.34346303      18.14477755      12.04778325
Na      16.48532203      10.03245122      10.65195333
Na      14.33724012      15.41883153      12.91015718
Na      13.42972141       9.86268716      12.84953571
Na       6.00388636      13.78901679      12.63040059
Na       9.27967775      13.58149465      13.44348841
Na       8.82805424      16.84250585      12.34773970
Na      15.10690747      17.86677898      15.02908903
Na      11.33519715      16.26359614      15.09707559
Na      15.97086094      12.18454583      13.49839570
Na      17.53333731      15.21494563      14.26961936
Na      12.54691540      12.95333384      14.08828147
Na      10.37678465      10.39341116      14.40915209
Na       8.43478423       7.64328300      14.52845605
Na       7.44918682      15.08391695      15.76718473
Na      16.09777056       8.72813590      14.57129093
Na      12.19855706       7.45784990      15.00810183
Na       7.22586032      11.40988120      15.29315103
Na      14.62863431      14.29297978      16.46923706
Na      13.71522103      10.65279369      16.58538607
Na      10.33122444      12.96811358      16.94445386
Na      17.23927686      11.73711770      16.60496810
Na       9.90706294       9.23200072      17.47312628
41
Properties=species:S:1:pos:R:3 config_type=qcd gap_pre_relax_energy=-43.58555841638824 gap_pred_energy=-43.780457719819296 gap_fmax_final=0.0009649019151256822 gap_converged=1 pbc="F F F"
Na      12.02395924      12.42589330       6.52038838
Na      11.86967546      15.84188621       7.56484685
Na      15.30941877      14.26935176       8.04851914
Na       9.00453745      13.92537769       9.09277936
Na      14.00311085      10.05695419       8.42147531
Na      10.18757284      10.38574998       9.05852270
Na      12.54855373      13.13327531       9.80772151
Na      15.82985086      11.36892685      11.08963185
Na      15.03466840      15.14193788      11.37651646
Na      11.63383714      16.31442126      11.21473775
Na      18.40502463      13.68345810      11.34571737
Na      13.33506544      12.70999946      12.95565121
Na      14.34076440      17.76289689       9.03269434
Na       6.90779566      11.84408332      11.32145458
Na      12.40508022       9.65035252      11.68167580
Na      15.48035935       7.85613476      11.83881555
Na       8.19311516      15.31435890      12.59295287
Na       9.00159606       9.02335746      12.69196408
Na      14.09354453      15.73134614      14.55030939
Na      17.62506344      17.03002081      10.20552343
Na      10.10555675      12.34235087      12.01927042
Na      14.71420348      18.58189084      12.68381229
Na      14.71687280      10.12730859      14.42687825
Na      17.48024355      16.43650355      13.86884130
Na      18.08886123      10.04734441      13.60373280
Na      16.52338384      13.13886938      14.43447404
Na       7.99375375      12.40250993      14.97499101
Na      12.50704309       7.35764769      14.44268235
Na      11.26757359      17.88262071      14.72441581
Na      16.05048908      14.87313477      17.57920139
Na      11.09215677      10.67185274      15.00517334
Na      10.89651143      14.43674388      14.54331851
Na       8.65401201      15.77759966      16.61978811
Na      13.43983162      12.86559436      16.39685659
Na      14.71956501      18.39448242      16.40072960
Na      16.59360648      11.09713765      17.37060158
Na      16.11660364       7.41893050      15.54273708
Na      10.32093948      12.66401312      17.91728948
Na      13.26044363       9.45483304      17.66877184
Na      12.20344432      15.97753079      17.71503775
Na      13.99933103      12.55833852      19.62651871
42
Properties=species:S:1:pos:R:3 config_type=qcd gap_pre_relax_energy=-44.9020476806683 gap_pred_energy=-45.07956938169674 gap_fmax_final=0.0009801297929609581 gap_converged=1 pbc="F F F"
Na      11.48504762      15.28147608       8.58946279
Na      14.52187530      13.02888310       6.78893045
Na      15.80925500      10.38449767       9.21415796
Na      12.08686051      11.16171972       8.80408023
Na      14.90413104      16.68708788       8.49977972
Na      17.68936327      13.61912374       8.51833561
Na      11.94205690      18.73479984       9.70148729
Na      16.27260016       8.65779665      13.03910418
Na      11.73765169      13.57814411      11.47377275
Na       8.61305672      13.02451725      10.23794919
Na       9.61220173      16.42920353      11.62584190
Na      13.87534738      10.85359599      12.04750382
Na       9.25427089       8.94717248       9.52781043
Na      14.78053791      13.63730768      10.08098486
Na       7.12612208      10.03323677      12.36176437
Na      12.66351565       8.01480597      10.77694884
Na      17.14920588      16.01696799      11.56233765
Na      10.39303542      10.67534016      12.19807086
Na      15.26935440      19.23227202      11.19720019
Na      13.46822130      16.49004529      11.69955335
Na      17.59980476      12.07183071      12.00731451
Na      14.86423674      13.97840249      13.40072637
Na       9.65453122       7.42692283      12.89318281
Na      12.18275246      18.87157965      13.87804663
Na       8.51858511      13.57573025      13.92398112
Na      11.69089661      15.48058635      14.38015383
Na      11.90029435      12.10269718      14.79811437
Na      15.46015273      17.28274657      14.82562468
Na      18.40277260      10.30896542      15.65631197
Na      12.72781875       8.51077255      14.59458583
Na      15.18583086      11.19800538      15.23832261
Na      17.58742415      13.98274749      15.58230737
Na       9.31714073      17.31946766      15.71517638
Na       9.19323173      10.19265928      15.50644436
Na      13.98323211      14.21086018      16.58596939
Na      15.59005557       8.29934602      16.82313031
Na      10.32730615      14.06817108      17.39502569
Na      12.63798332      17.30693801      17.28308643
Na      12.51648821      10.89857880      17.93856903
Na      16.00393839      12.00757695      18.46847158
Na      16.16083877      15.70981911      18.60753144
Na      13.12457183      13.99120014      19.83644485
42
Properties=species:S:1:pos:R:3 config_type=qcd gap_pre_relax_energy=-45.02008140130435 gap_pred_energy=-45.20803048592212 gap_fmax_final=0.000970097997477143 gap_converged=1 pbc="F F F"
Na      12.77408935      15.00664653       7.39159786
Na      15.71829006      13.75298312       9.05221659
Na       9.50016993      13.86907888       9.52672250
Na      12.13574024       8.11771982       8.36230007
Na      11.06516238      17.59022499       9.22394040
Na      12.27929007      11.75273512       8.90591400
Na       9.15446557      10.31592991      10.18671441
Na      14.82092243      17.21871543       9.71559080
Na      16.13439986      14.69474645      12.53511517
Na      18.11225715      12.11346483      11.36844946
Na      12.76867726      14.88640827      10.90197477
Na      10.48996478       6.56019917      11.34007056
Na      14.18053225       6.45210188      11.03237464
Na      15.54925046       9.68412093       9.71389401
Na      18.34729429      15.94940697      10.19307238
Na       9.64000425      16.16092202      12.34418552
Na      10.98202215      12.45341551      12.32300407
Na      12.42882564       9.34166185      11.48006251
Na      12.59783996      18.92594313      12.30606699
Na      14.43936333      12.01698052      12.05654504
Na      16.64515538      18.07007067      12.99338797
Na       7.72182398      12.84109546      12.64311640
Na      13.57645764      16.16668323      13.87832179
Na      19.41902521      15.04692521      13.49829824
Na      15.81218778       9.20353204      13.38230215
Na      12.68090261       7.24138387      14.37607116
Na       9.41354404       9.12003140      13.71974933
Na      17.67221776      12.22065530      15.17074561
Na      12.35566820      10.74080996      14.73134799
Na      14.42363053      13.13054083      15.29855194
Na       7.67378658      15.35409693      15.35929531
Na      11.09522378      14.21564878      15.09033211
Na      10.90414092      17.82302360      15.45308259
Na      14.32131932      19.06925241      15.64511405
Na      16.77400817      15.66796946      15.98947431
Na      14.79007269       9.85360128      16.98049130
Na       8.94552350      11.94405554      16.29862014
Na      11.14643469       8.85198983      17.32359749
Na      13.35194585      16.04631886      17.45947218
Na      15.99238899      13.07660505      18.37326855
Na      12.13012547      12.25080683      18.01786927
Na       9.89283461      15.05847721      18.21465747
43
Properties=species:S:1:pos:R:3 config_type=qcd gap_pre_relax_energy=-46.134560646546745 gap_pred_energy=-46.297425298203216 gap_fmax_final=0.0009082700416753416 gap_converged=1 pbc="F F F"
Na      13.99498713      12.81695062       6.56225371
Na      17.58215786      12.38459381       7.61980993
Na      16.31298299      15.85081754       7.41963413
Na      14.50493247      10.10201438       9.10627506
Na      12.50897758      15.92335365       8.66812905
Na      15.09015378      13.55892479       9.59366606
Na      18.48365807      14.86150187      10.28489325
Na      11.68913995      12.18533298       9.51737093
Na      17.59699375      11.28697751      11.14930451
Na      15.20284876      17.10726650      10.68759020
Na      11.90134516       9.19420660      11.69854639
Na      15.49017721       8.21409005      11.87776343
Na       9.47858329      15.53344664      10.56586541
Na      14.16989104      11.46096990      12.36094061
Na      12.76704853      14.75048466      11.98558610
Na      11.90784546      17.99496336      11.81085787
Na      10.00126922      12.65710002      12.86583596
Na      16.05479555      14.13809067      12.85017930
Na      18.98857211      13.89271309      14.31576530
Na      14.90143317      20.01448971      12.75758441
Na      18.00709146      17.33762657      13.08820332
Na      14.86584909      16.87687895      14.24623181
Na      10.01508992       9.54074484      14.92194020
Na       9.25941567      16.39922990      14.13621101
Na      16.16720725      19.54329799      16.10566971
Na      12.70840487      11.91508805      15.19486605
Na      12.33936532      18.97359307      15.51361003
Na      12.21460284      15.29920184      15.14026208
Na      17.72240859      16.25957550      16.95880159
Na      16.91241283      10.74427143      14.75237265
Na      15.41193007      13.89194734      16.05461330
Na      13.61583849       8.71687690      15.02465111
Na       9.43537620      13.47325582      16.40188194
Na      18.44011829      12.80537729      17.79631105
Na      14.31632575      17.02609734      17.81180610
Na      12.59571598      13.84928616      18.25429062
Na      10.37622158      16.74047892      17.70413690
Na      14.95240561      10.85033985      17.93208962
Na      11.27967689      10.55292359      18.15056921
Na      15.84861238      14.41902493      19.54401295
Na       9.75710603      13.48092295      20.03373494
Na      12.63948233      15.81725872      20.95156344
Na      12.97868987      12.04555410      21.07145919
43
Properties=species:S:1:pos:R:3 config_type=qcd gap_pre_relax_energy=-45.85418735846415 gap_pred_energy=-46.20731090651074 gap_fmax_final=0.0009560638537639899 gap_converged=1 pbc="F F F"
Na       8.69501554       8.48872867      10.21322929
Na      11.82321361      14.03040507       8.94032891
Na       8.30906083      12.11123063       9.53565480
Na      14.94309846      12.57630721       7.78424083
Na      14.19926937      10.30220706      10.42525338
Na      18.11367804      14.41336857       8.57324690
Na       8.75908557      16.09625123       9.64567204
Na      11.37182900      10.24606244       8.23389165
Na      14.81918731      16.62591134       8.58937777
Na      17.65115099      11.12219708      10.11577603
Na      11.58401736      18.30844134       9.60228031
Na      10.74324748      10.64221710      11.56536481
Na      12.76019633      16.19101289      11.69378924
Na      12.14004496       7.43296913      11.23254946
Na       9.87481534      13.97352158      12.08505522
Na      15.60848950      14.16897106      10.84227687
Na      17.67721613      17.00345602      11.10844304
Na      13.03773184      12.88690956      12.26177772
Na       6.60475895      14.68935027      12.31787354
Na      18.81656230      13.68522985      12.62635153
Na      16.03858027       8.02322636      12.64913562
Na      16.09484715      11.67784936      13.13793224
Na      18.88685872      10.13085949      14.02704856
Na      15.76277837      15.78247513      14.01530156
Na       9.42558458      17.22294770      13.22026443
Na      14.68055502      18.95872650      11.40138694
Na      12.99057207      18.33738100      14.56525113
Na      13.26161545       9.75353859      13.84891484
Na       7.58717560      11.10411217      13.24771072
Na      11.87338063      15.11502774      14.82333225
Na      13.25505492       6.57963506      14.74439366
Na       9.91714080       8.15893765      14.27375659
Na      17.46900728      12.86650521      16.24152249
Na      10.65144604      11.90475850      14.77946641
Na      14.06975760      12.69601392      15.60657021
Na      15.90821692       9.57112061      16.24358636
Na       8.35859374      14.47670799      15.51714700
Na      10.54291171      17.04468965      17.13202904
Na      14.09641164      15.58846203      17.48408328
Na      12.02471364       9.43889789      17.08882954
Na       8.46658080      10.44224242      16.81818241
Na      11.32557254      13.04916338      17.94248390
Na      14.79838080      12.09937876      18.81664267
44
Properties=species:S:1:pos:R:3 config_type=qcd gap_pre_relax_energy=-46.875901095206466 gap_pred_energy=-47.186346798851126 gap_fmax_final=0.000989475827875688 gap_converged=1 pbc="F F F"
Na      12.48188603      15.15932363       8.42589403
Na      10.82916045      12.09138882       7.34061328
Na       7.32995833      12.36420250       8.24431928
Na      16.17923777      15.03873958       8.36748044
Na       9.12161579      15.32424492       7.43997495
Na      13.92055131      17.70139886      10.67845310
Na      14.34575465      12.27346315       6.63179113
Na      16.71576468      11.30936275       9.13883188
Na      17.41987878      17.01157235      11.35509603
Na       9.38842188       9.91695132       9.82361342
Na      12.16714583      15.15878039      12.07770510
Na      10.16290335      17.32486363      10.42491209
Na      13.15696671       9.10875855       8.11025841
Na      18.79651635      13.84222745      10.80940340
Na       9.87218163      13.47448670      10.42057602
Na       6.63535698      15.35155745      10.02682252
Na      13.42839002      11.77494942      10.13552588
Na      15.36961342      14.11900016      11.38706926
Na      14.05310129       6.56322007      13.94713236
Na       7.00060433      12.19264169      11.93343251
Na      15.49890583       8.29813196      10.98973166
Na      11.92804611       7.92991620      11.45113668
Na      17.14818085      11.32991084      12.78985897
Na       8.18928641       8.94968302      13.19910821
Na       8.53010478      15.35483621      13.06997591
Na      14.07909710      10.03108773      13.56406822
Na      10.90396338      17.90856669      13.99657830
Na      10.84905497      11.39364814      12.93476289
Na      17.47612528      14.62629985      14.22941745
Na      14.49888629      16.81050012      14.31735144
Na      14.24049389      13.19800045      14.20377999
Na      11.17779220       8.50077374      14.97288095
Na      17.04823486       8.31108363      14.92230462
Na      11.23974930      14.47002335      15.14068274
Na       8.51951219      15.76690769      16.70812541
Na       8.52288453      12.13295400      15.42187689
Na      14.17685393       8.59682184      16.89506890
Na      16.36789660      11.55589305      16.28439324
Na      11.76877645      17.11593878      17.51827746
Na      12.32101976      11.40807918      16.40420008
Na      14.26491080      14.55403424      17.38585800
Na      17.15617055       9.10740547      18.57848370
Na      10.88597078      13.64336040      18.58133229
Na      14.36881957      11.44075595      19.25758692
44
Properties=species:S:1:pos:R:3 config_type=qcd gap_pre_relax_energy=-47.05438135434508 gap_pred_energy=-47.35330520239288 gap_fmax_final=0.0009650699674746213 gap_converged=1 pbc="F F F"
Na      11.48036263      19.89858956      10.66021802
Na      10.20453949      11.53713979      11.57107647
Na      10.29851993      12.30470001      15.01969623
Na      14.33345074       9.60194980       7.95553152
Na      16.78205009      16.00458151       8.32394947
Na      11.11969156      13.02392488      18.34775099
Na      14.50432279      14.97258985      10.46082695
Na      12.24225262      16.93649911      11.92988951
Na      17.00674846      12.46004592       9.67312304
Na      15.69229557       7.76187126      17.23278304
Na      15.40539111      18.31582620      10.88307668
Na      13.67026463       7.29877708      14.13732588
Na      15.04707690      16.46372275      14.36932897
Na      17.74481344       7.61802093      14.25909207
Na      18.45790591      10.21485732      16.77993137
Na       9.57830601      18.08116520      13.62546678
Na      12.20429315      14.02328118      13.01804597
Na      13.03175310      19.58514129      13.92421402
Na       8.94945818      14.73003729      12.54934992
Na      12.81136287      17.22575770       8.36187922
Na      11.76038524       8.32512206      10.99347368
Na       9.52460897       8.74767673      14.02738766
Na       9.24555238      17.10915535       9.82212388
Na      13.92803856      13.19280314       7.40209045
Na      10.92927519      10.91295171       8.19655328
Na      17.71635916      15.41266170      11.90997850
Na      11.24001589      14.27446835       9.53622527
Na       7.95813220       9.28075096      10.71478553
Na      15.47459583      12.97727614      12.98096547
Na      17.17974416      13.54078103      15.99690813
Na       8.37498889      14.81996080      16.16161813
Na       7.18021005      11.65295717      13.54276064
Na      15.68277141      10.27150309      14.85494724
Na       8.09272436      11.18404645      17.13045082
Na      11.96381119       9.62475534      16.95468128
Na      18.48503632      11.40128015      12.92068323
Na      11.79802613      16.20619081      16.00094150
Na       7.73540418      12.93021991       9.72151540
Na      13.59911675      11.58714377      10.59552481
Na      15.75688633       9.01568834      11.46805482
Na      15.06154493      11.22665963      18.30049637
Na      12.73444272      10.49606794      13.64588543
Na      14.58982291      14.94020024      18.36742610
Na      13.61940098      13.00695442      15.86772007
45
Properties=species:S:1:pos:R:3 config_type=qcd gap_pre_relax_energy=-48.197266970006325 gap_pred_energy=-48.46610919990897 gap_fmax_final=0.000913570028223248 gap_converged=1 pbc="F F F"
Na       9.24987452      16.20912887      17.33140155
Na      16.57104092      13.49803276      16.32815884
Na      10.80143938      12.99641047      12.80207307
Na       7.98989117      12.05100151      10.90993315
Na       8.81351968      18.22257302      14.07235081
Na      13.82741633      13.28763355      14.53787125
Na      14.83208018      16.77095805      14.19355912
Na      11.40348793      16.04128580      14.51844350
Na      10.05940063       6.39424247      11.33924243
Na      15.35438296      17.31850931      10.51613706
Na      10.73064379       9.70036369      11.87339932
Na      11.88974793      10.37241447      14.89716661
Na      15.23292649      10.41167667       8.07101979
Na      18.21117092      15.64728745       8.68954861
Na      13.60145672      11.75910477      17.75327168
Na      18.10788047      11.73292365       9.99839398
Na      12.00112773      15.76086736       8.55691190
Na       8.42994687      11.15106965      14.34146229
Na      12.92804550       8.10429576       9.77838450
Na       9.66377076       7.61455656      14.80036773
Na       9.73227619       9.92113859      17.71274669
Na       7.30852989      12.68871799      17.30624452
Na      18.04487660      11.41100459      13.59657419
Na      14.83673872      11.34813879      12.02921787
Na       7.92780912      14.76552880      14.30160717
Na      15.47925419       9.97859688      15.45212236
Na      13.15043838      14.93615590      11.64809688
Na      15.35762639      13.84267555       9.39848794
Na      12.95365495       8.16089326      17.20144308
Na      12.19810421      11.93664286       9.69602925
Na      11.95745274      18.27023952      11.89676542
Na      13.54807738       7.70154970      13.33882463
Na      11.79397581       9.97708483       6.79734260
Na      15.18069931      16.21569434       6.80297511
Na       9.11522435       9.11088364       8.99620755
Na      13.44802136      15.30810846      17.37981332
Na      16.69152846       8.63412922      11.53450537
Na       9.70531137      12.92515201       7.71356643
Na      13.31873796      13.12260522       6.61871794
Na      17.14361760      14.64898790      12.36353540
Na      16.98082305      13.11256119       6.42858689
Na       9.36145121      15.66470720      11.00347952
Na       7.28236659       8.56864945      12.20673615
Na      10.65105792      13.15448197      16.48337589
Na       6.59199361       9.01023460      16.24279884
45
Properties=species:S:1:pos:R:3 config_type=qcd gap_pre_relax_energy=-48.24991982061648 gap_pred_energy=-48.47605802584927 gap_fmax_final=0.0009654547121928735 gap_converged=1 pbc="F F F"
Na      12.75405234       8.85967258      16.44434936
Na       8.21224493       9.04546446      11.87522196
Na      14.88863032      13.78953412      14.46801987
Na      11.98006032      12.12896223      15.47238853
Na      10.29281350      15.13504149      11.21540920
Na      10.55142995      12.19335261       6.89984088
Na      11.54568908      10.86522078      10.03683700
Na      12.81713458      14.50936487       8.54420138
Na       8.64960739      16.69083301      14.24203069
Na      19.20227882      12.36111052      11.61101604
Na      12.59572267      13.00669663      12.00526392
Na      11.26789035       9.73459466      13.04962182
Na      16.32723668       8.45903468      15.82511757
Na      17.43700873       9.18702991      12.33045644
Na      12.36277603       8.87676846       7.12382709
Na       8.18593571      12.15945844       9.64539643
Na      14.22452202      16.30596020      11.36320042
Na      14.68093437      17.57175530      18.34095733
Na      13.04998186      14.57466761      17.60217842
Na      11.47855805      17.76363003      16.66385931
Na       8.40525939      18.03424271      10.79345559
Na      15.69675222      12.26783910      11.26786770
Na       9.14451575       9.90318360      15.88385928
Na       8.99885248       8.92749811       8.28387619
Na      11.31658464      18.55097538      12.91575461
Na      14.67983187      11.70453974       7.82734765
Na      14.44570384      10.40498703      13.66459498
Na       8.81299175      12.65520073      13.24810804
Na      11.60870081      17.90440565       9.32154358
Na      17.61228537      11.78232488      14.85134000
Na      11.18301456      11.34362062      18.65198409
Na      17.83794598      10.54799191       9.00659361
Na      10.04539339       6.74264569      14.16148935
Na      14.90356428      17.40164407      14.82673047
Na       6.73000631      14.98227070      11.33524295
Na      11.90157666      15.43407010      14.25196280
Na      15.13056989      11.43670932      17.46432782
Na      17.16268631      14.22698907       9.06700999
Na      13.69480080       7.02982746      13.24592618
Na      14.58819631       8.71938086      10.08112320
Na      17.47942872      15.25751056      12.72928857
Na      11.03333120       7.06945693      10.67493149
Na       8.86139863      15.36929257       8.15361232
Na      16.84307917      15.08328206      16.88550218
Na       9.44508823      14.06802486      16.71339996
46
Properties=species:S:1:pos:R:3 config_type=qcd gap_pre_relax_energy=-49.34775750506367 gap_pred_energy=-49.65727880426697 gap_fmax_final=0.000983507217876138 gap_converged=1 pbc="F F F"
Na      14.09652352      16.54696354       6.54192077
Na      12.83669142      13.30453243       7.52178897
Na      16.35010710      13.98502618       7.87768128
Na      17.10059985      17.57258819       8.78064601
Na      10.94072752      16.50916179       8.57103584
Na      15.52333155      10.33551676       7.90020966
Na       8.83346644      12.93493604       9.39318051
Na      11.55067259      10.36589611      10.00228272
Na      14.27143863      15.97500445       9.92251535
Na      18.36406482      11.74316860       9.75729836
Na      13.69886276       7.70840369       9.44132593
Na      17.76615469      15.00273835      11.17930280
Na       7.88169922       9.90760745      11.50925704
Na      11.85950338      14.01038134      10.77978824
Na      12.16640537      18.06523901      11.92687502
Na       8.77915286      15.98500392      11.59331033
Na      14.96170937      12.28372575      10.51108856
Na      16.53225605       9.10393118      11.30213239
Na      13.93559106      19.30036090       8.93259952
Na      13.72022377       8.54575929      12.84761768
Na       9.49118187      12.71133816      12.85764015
Na      10.64927110       6.95470596      11.80957910
Na      14.75430072      14.83139236      12.88063052
Na      15.93932424      18.09740986      12.34456761
Na       8.50008931       7.33262959      14.86716930
Na      13.05948853      11.86122723      13.12590968
Na      10.59229595       9.72027332      13.77115953
Na      16.82401495      11.86620076      13.71482251
Na       7.56017066      10.88228917      15.24704452
Na      11.61779029      15.25641410      13.85523893
Na       6.30544640      13.21843301      12.11309663
Na      12.15347238       7.01677379      15.65325735
Na      16.06689231       8.36027227      15.52508993
Na       8.26057328      15.04059848      15.29080955
Na      10.08101903      18.14002413      15.05493164
Na      13.31438197      10.30999780      15.95723303
Na      17.12523769      15.19986341      15.43771950
Na      14.05457844      17.36229635      15.48810073
Na      10.61211589      12.52521222      16.15257582
Na      13.93381036      13.69912902      15.98473233
Na      10.11653095       9.34114959      17.57533945
Na      16.37549990      11.72994515      17.39760337
Na      11.30436883      15.70256011      17.48789834
Na      14.05971619       8.55945070      18.64505291
Na      12.97461582      12.11845694      18.98812326
Na      15.26176755      15.13314816      18.63995396
46
Properties=species:S:1:pos:R:3 config_type=qcd gap_pre_relax_energy=-49.20953907550751 gap_pred_energy=-49.571475113853424 gap_fmax_final=0.000965305072079042 gap_converged=1 pbc="F F F"
Na      11.60998503      13.85315054       8.77103932
Na       9.96882777      10.69241667       8.40548487
Na       8.63257410      13.78747192       7.00844345
Na      15.31134947      13.99179027       7.97987343
Na      16.70023480      10.65998250       7.11135034
Na      13.56072716      10.95484220       8.79991460
Na      11.91756791       8.20469485      10.03358019
Na       8.41881592       9.23430004      11.40267000
Na       9.21458535      16.42198996       9.41324737
Na      15.62650719       8.15189347      10.03070320
Na      10.65648159      14.63440192      12.03482610
Na      13.25417428      16.72087116      10.26932918
Na       8.02993215      12.82968296      10.30553754
Na      18.93336314      13.22105978       8.43929940
Na      10.97644842      11.35544095      11.78197383
Na      16.79976329      15.49079646      11.08801881
Na      16.58361794      11.74596784      10.47489952
Na      19.24701283       9.76707206       9.70554038
Na       7.58659318      16.18244971      12.82197778
Na      14.00233800       9.97315661      12.43592542
Na      13.80147635      13.48263833      11.42710820
Na      14.64461585      18.02460262      13.50031690
Na      14.67500332       6.88886006      13.41041773
Na      17.54315995       9.23772016      12.87667070
Na      15.85562347      12.44221007      13.80146932
Na      10.77312124      18.03674244      12.68180756
Na      19.24104450      12.96911489      12.32507855
Na      15.16386839      16.83596016      16.96830572
Na      13.50442606      15.01308798      14.47423238
Na      11.14585209       7.87303447      13.26144176
Na       9.99447229      15.07050955      15.17816798
Na      17.37613923      15.30560157      14.60554510
Na      15.77436930       9.68338601      15.98144346
Na      11.96572520      17.84121724      16.03256612
Na       7.91361070      12.56018331      13.92637486
Na      12.20349376      11.64272051      15.10124292
Na      12.65000887       8.09034472      16.32637649
Na       8.45542366      18.48089627      15.46737357
Na       6.68911452      15.49484730      16.33729687
Na      15.48890814      13.19097475      17.17864383
Na      18.62458094      11.99575304      15.77612404
Na      12.29195133      14.70751687      17.92215434
Na       9.40044603      16.59944745      18.32336423
Na       9.44754319       9.81816147      15.73134773
Na       9.13643212      12.90446535      17.73112313
Na      12.23987155      10.96775313      18.37155340
47
Properties=species:S:1:pos:R:3 config_type=qcd gap_pre_relax_energy=-50.6881255325825 gap_pred_energy=-50.919276949219984 gap_fmax_final=0.0009739482565528323 gap_converged=1 pbc="F F F"
Na      12.45285812      11.13024859       7.93972117
Na      14.21243976      14.20892189       8.88675784
Na      15.93642359      10.77409487       9.61536211
Na      13.28877264       8.32002270      10.19125894
Na       9.92597479       7.22363940      11.64349486
Na      16.03233012      17.16417917      10.30492408
Na      17.84606780      13.65923970       8.96155381
Na      12.24243948      17.81462832      10.34987213
Na      10.74981071      14.38227539      10.01958504
Na       9.80173618      10.72663312      10.48876559
Na      13.09712456      11.76700398      11.18403210
Na      18.38713568      19.33953887      12.11842832
Na      14.80863776      19.61223469      12.62810158
Na      19.20308760      15.38516686      11.67083659
Na      18.85672164      11.66930576      11.94561090
Na      13.54045491      15.76468291      12.53743404
Na      16.02947776      13.46241171      12.09358749
Na      15.70804226       9.15062914      12.78196816
Na       7.54632504      13.00693075      12.11276640
Na       9.50451011      15.83570656      13.03453161
Na      10.35522964       6.99930946      15.28969680
Na      13.09245250       6.11387331      13.14321784
Na      16.87953533      16.72993080      13.76045173
Na       8.48325302       9.77690813      13.83768610
Na      11.59934195      18.63071027      14.04327402
Na      20.23354828      17.38768886      14.54936739
Na      10.70205262      12.57722357      13.42832225
Na      14.33128075      17.41360615      15.88570305
Na      15.72696329      14.26720998      15.87608953
Na      19.20130827      13.89510601      14.88097277
Na       8.61391608      13.56885901      15.86803562
Na      13.98847017       8.64594950      16.23990421
Na      11.98330451      14.92579170      15.58673328
Na      13.92318730      11.86882930      14.48408461
Na      17.00865885      10.96967040      15.80738064
Na      13.56355952      20.74556993      16.37014831
Na       9.23424563      17.03190721      16.38596120
Na      12.01329525       9.33876263      13.40878235
Na      16.97790389      19.78247275      15.56312047
Na      17.46093026      13.25571728      18.67260579
Na      14.42718266      15.39046789      19.04698282
Na      10.85240499      10.77271548      16.67495690
Na      17.92426856      16.57526347      17.18300077
Na      14.08812191      11.86358695      17.94495702
Na      12.01952593      17.93492995      18.31149591
Na      10.82511057      14.45231661      18.70695080
Na      15.56539656      18.93294781      18.78634385
47
Properties=species:S:1:pos:R:3 config_type=qcd gap_pre_relax_energy=-50.67259783757675 gap_pred_energy=-50.88032052324628 gap_fmax_final=0.000986837420627824 gap_converged=1 pbc="F F F"
Na      10.34602572      18.40751550      11.71051569
Na      12.97446658      16.66601339       9.22756237
Na      12.62369006      13.08109599       9.79045177
Na      16.42835685      17.92833441       9.68591023
Na      15.97969453      14.68620194       8.17505728
Na       9.33407101      14.80845627      10.91617684
Na      16.54202966      11.78407743      10.54216439
Na      13.09945648      20.30412591       9.47831573
Na      13.38145847       9.65052224      10.92206945
Na      16.00496178      21.15504103      11.53426616
Na      12.12565559      15.56823317      12.64323705
Na      17.94267476      17.76514492      13.02623759
Na      11.47515348      12.33354127      13.21024962
Na      10.38771835       8.75603116      12.78206224
Na      15.20093791      15.09572900      11.49599196
Na      13.23580111       6.43315181      12.50709854
Na       9.47867543      11.22310118      10.37860667
Na      16.53735513       8.72130020      12.63867206
Na      18.78726047      14.75993342      10.96717619
Na      13.95461725      18.44648516      12.14166924
Na      11.43381234       6.65812226      15.57717100
Na      12.68620890      21.46641657      13.02558371
Na       8.13948532      12.27876096      13.65205164
Na      14.93784595      16.57636578      14.65506282
Na       9.89981734       9.94278318      16.09914017
Na      14.75973940      12.22220351      13.67563704
Na      13.38585840       9.29946569      14.56405380
Na      17.25140682      14.23922991      14.05302249
Na      19.09987257      11.63374307      13.26996588
Na      15.35012270       6.62376699      15.45395193
Na      15.58244397      19.96538966      14.98385381
Na      20.53483631      14.85053642      14.31710167
Na       9.15041828      16.06564556      14.41504797
Na      12.24415494      15.00961108      15.95930738
Na      11.77143972      18.41292630      15.19577069
Na      16.57913833      10.14391164      16.10125471
Na      17.86524737      16.75561169      16.76165885
Na      15.41682755      13.99439127      16.87369304
Na      12.70624792      11.76585029      17.10263213
Na       9.36287711      13.42344273      16.98233731
Na      13.54185453       8.55711278      18.05632147
Na      14.41988309      17.52295959      17.98510139
Na      18.76802116      13.04495584      16.99317969
Na      10.30508184      16.88552194      18.11507662
Na      12.95230408      14.47531600      19.33893969
Na      15.50427354      11.58118602      19.34039441
Na      16.63406830      15.15408624      19.80254601
48
Properties=species:S:1:pos:R:3 config_type=qcd gap_pre_relax_energy=-51.65768341138749 gap_pred_energy=-51.97577845809993 gap_fmax_final=0.0009959001622782677 gap_converged=1 pbc="F F F"
Na      11.60847120      14.44286860       7.87632010
Na      15.08112057      13.25413452       8.04428082
Na       9.03843655      11.17292122       7.86643974
Na      12.51084635      10.87954713       8.90316799
Na      15.75930481       9.24736154       8.66778939
Na      10.34845813      17.79648086       7.97425011
Na       8.02950184      14.49384883       8.85342675
Na      16.54292416      15.30923498      10.84403226
Na      18.20637266      11.79071384       9.34548960
Na      13.67891230      17.19904867       9.32057430
Na      13.12444566      14.11007110      10.91199492
Na      13.52724279       8.26098771      11.63380999
Na      10.25335496      12.49249611      10.99728668
Na      15.05492941      11.50610805      11.21833055
Na       6.84778767      11.59832955      10.66215746
Na       9.95024021       9.05718716      10.87375589
Na      17.60010409       9.04290968      11.80565941
Na      18.12569218      12.55670936      12.73028792
Na      11.53836456      19.28431174      11.15519882
Na      17.43166622      16.35261376      14.21107823
Na      10.31514937      16.06490469      10.94211945
Na      14.93825828      13.82438919      13.74890105
Na      15.04104717      19.14624162      12.25713894
Na      13.03898155      16.69993677      13.36165928
Na       7.75270278      14.36544464      12.79293345
Na      12.09728829      10.83707120      13.41333537
Na      12.07069217      19.83566682      14.61362424
Na       8.41767758      10.95484298      13.87306884
Na      15.81848277      10.25974689      14.44187182
Na      10.36777190       7.79513966      14.24323181
Na      11.00745222      14.16374867      14.32023828
Na      15.19045086      18.57848488      15.93402632
Na      19.19028537      10.43203034      15.49794066
Na       8.49268135      14.44394199      16.46673077
Na      20.31578891      13.99183733      15.73853248
Na      17.07296941      13.11309470      16.12574271
Na      11.48711480      16.93699281      16.84286266
Na       9.38306173      17.28693243      14.07210675
Na      13.52407935      12.13968343      16.41998976
Na      10.31857379      10.71423371      16.98336540
Na      14.51278390      15.34042375      16.86362943
Na      13.23594822       8.69478922      16.10800492
Na      11.45287261      13.76346919      18.62393452
Na      19.11815961      12.49734384      18.77670077
Na      17.91942842      15.95677102      17.87276711
Na      16.16267573       9.83777451      17.90368131
Na      15.49550130      13.06394519      19.47156138
Na      12.99325993      10.40254985      19.38428530
48
Properties=species:S:1:pos:R:3 config_type=qcd gap_pre_relax_energy=-51.722773678123396 gap_pred_energy=-52.0202492752291 gap_fmax_final=0.000995752079034173 gap_converged=1 pbc="F F F"
Na      13.01874683      12.99337075       8.98616341
Na      10.23412576      14.75778068       8.06587280
Na      16.01068256      11.18695865       9.11738426
Na       7.26045225      13.53743152       9.47883487
Na      15.72489558      15.21247212      10.08861382
Na      12.74956568      17.18109462       9.27418841
Na       9.86485765      10.99657299       9.01190140
Na      21.49733591      13.52210190      12.41596581
Na       9.41932098      16.64213067      10.94924020
Na      10.23322227      13.19195234      11.51079668
Na      18.60229714      16.39443883      11.83043303
Na      18.02440888      12.80856538      11.50024031
Na      12.97447588       9.61169419      10.49037788
Na       7.39837703      11.04990244      11.95309751
Na      16.53627212       9.27276096      12.06201192
Na      11.72797685      18.68555561      13.13203395
Na      15.15087108      18.07625617      12.14003454
Na      14.39661534      12.26056532      12.08547592
Na      12.77947451      15.28517750      12.00102183
Na       7.14664795      14.53430767      12.87194520
Na      15.84463737      15.01542661      13.59996726
Na      10.67011164       9.92682587      13.18724709
Na       8.09336285      18.37335100      13.70006192
Na      18.97706507      14.10821279      14.74472304
Na      21.39048773      16.45415571      14.66898588
Na      16.59914881      11.55872160      14.54504765
Na      13.90105838       9.16257229      14.72591763
Na      10.18134301      15.43230014      14.27895445
Na      17.37409975       8.54346994      15.88601491
Na      12.57951493      12.56341825      14.84959855
Na       8.79755686      12.22485841      15.25343794
Na      10.43967386      18.08890787      16.36523883
Na      20.00828680      10.63895681      14.15192637
Na      21.96456273      13.09542236      16.02957347
Na      17.53438077      17.61506351      15.27673323
Na      13.35968672      15.92419221      15.92038279
Na       7.32147741      15.98289804      16.21630485
Na      16.17617666      14.04735638      16.78017102
Na      18.65121930      11.52595445      17.48459960
Na      13.93526611      19.18027346      16.07029071
Na      11.41697868      10.54911802      17.25389712
Na      15.04270482      10.63200435      17.80552117
Na      19.34637836      15.63861487      17.80831547
Na      10.25933639      14.60393979      17.74976847
Na      13.58838653      13.78206568      19.00952876
Na      15.96019612      16.94391396      18.41969714
Na      12.48995735      17.30003073      19.03711736
Na      17.13080078      13.67136264      19.99982163
49
Properties=species:S:1:pos:R:3 config_type=qcd gap_pre_relax_energy=-52.768003821735896 gap_pred_energy=-53.01931775731568 gap_fmax_final=0.0009086908246211089 gap_converged=1 pbc="F F F"
Na      13.52777976      15.32283433       6.80650160
Na      12.59447696      12.16671605       8.36242045
Na      16.14211417      13.18309774       8.25823622
Na      10.15012189      14.92601328       8.45123311
Na      11.70241496       8.82080537       9.48179258
Na      16.23881881      16.88195623       8.83413321
Na      15.12319732      10.06746809       9.95198819
Na      18.71445515      11.07854768       9.85361472
Na      12.22100781      17.83924006       9.34679015
Na       9.22753563      11.39667284       9.93441669
Na      13.88487402      14.86201632      10.44215271
Na      18.81238591      14.72662511      10.38110292
Na       7.11120302      14.62066239      10.56212239
Na      12.31140672      11.39156826      11.80621360
Na      18.53606567      18.24097987      11.37232580
Na       9.12082881      17.61513033      11.38951249
Na      16.31725292      12.92059834      11.96102263
Na      13.49965987       8.10918428      12.53638848
Na      14.95293363      19.21416016      11.26273631
Na      17.30531624       8.84221853      12.65708763
Na      10.47121453      14.36074975      11.85349312
Na       9.84073809       8.89977118      12.54471119
Na      11.47564975      20.29428276      12.02501285
Na      16.03465650      16.44190016      13.16439148
Na      15.13215947      10.74019633      14.52503461
Na       7.54652678      15.71909161      14.01737609
Na      19.40902579      15.51472114      13.86570488
Na      13.57002201      13.93574601      13.82361706
Na       8.01225617      12.02836060      13.36698800
Na      19.32253539      11.90347593      13.42158814
Na      12.56161327      17.18798241      12.97307299
Na       8.40326840       9.33486093      16.17240478
Na      15.50260679       7.11718070      15.42095575
Na      13.83385571      16.51089033      16.23797238
Na      11.85458666       7.99509255      15.78225642
Na      10.69255492      14.92448939      15.44930819
Na      16.64938349      14.06141986      15.67838419
Na      11.20900169      11.32150316      15.05346884
Na      10.01438180      18.36590129      14.93704534
Na       8.29524437      16.48035869      17.50990197
Na      19.82809719      12.96882390      16.86483262
Na      13.56905413      13.09291053      17.20949334
Na       8.26148709      12.86258839      17.02051761
Na      18.02406379       9.79584609      16.22418525
Na      14.26474937       9.58205281      17.95986244
Na      10.83973956      10.82018581      18.49789360
Na      10.98521427      14.52279001      18.95265867
Na      16.69852185      12.12854628      18.61671050
Na      13.51303082      12.17087504      20.48845478
49
Properties=species:S:1:pos:R:3 config_type=qcd gap_pre_relax_energy=-52.96588190082596 gap_pred_energy=-53.29528950548585 gap_fmax_final=0.0009932103930107175 gap_converged=1 pbc="F F F"
Na      14.33821314      15.45561133       7.47082242
Na      10.87590868      13.69973599       6.40865295
Na      13.59298956      11.44502056       7.20078852
Na      10.50426452      10.56092657       9.03262254
Na      13.19331079       8.14376373       8.44450434
Na      10.90338455      16.64478376       8.40727986
Na      16.10070725      13.07707578      10.05031633
Na       8.59698009      13.80352821       9.35590105
Na      16.43819464       9.69760027       8.57704120
Na      14.51836465      18.80267735       8.94820147
Na      12.22179342      13.43980441       9.55908251
Na       9.70930368      11.73395384      12.45909030
Na      13.79038441      10.63228123      10.79818204
Na      11.50440421       7.93406353      11.59647010
Na       8.16517188      17.63393888      10.58558506
Na      18.62219918      13.55497710      12.69768194
Na      14.99026601       7.34294599      11.54235746
Na      11.56207518      18.90237755      11.21223067
Na      10.42682977      15.38744844      11.79445267
Na      17.29471486      16.60879112      10.31922148
Na      17.47718899      10.03818431      12.15962045
Na      15.50645873      18.66149231      12.69505250
Na      13.90060359      16.06107460      10.87046450
Na      12.90108989      13.24023801      12.87858416
Na      15.65743387      15.18230297      13.62828536
Na      16.48600205       7.73068947      14.78589643
Na      18.50367754      17.10905325      13.75952307
Na       7.32257410      15.04268506      13.28005323
Na      13.53690448       9.43082616      14.07396558
Na      12.77896545      17.02331520      14.08720382
Na       9.39155806      17.91519299      14.03063518
Na       8.01578299      12.39163822      15.68029340
Na      13.05022213       6.13625075      14.40373821
Na      10.69621803      14.51832248      15.06850236
Na      18.56094643      10.78935937      15.94707039
Na       9.85197552       8.86137891      14.71031629
Na      11.88376509      11.44022480      16.09002832
Na      15.63463663      12.02406109      14.60017220
Na      15.61875290      17.47233940      16.23013076
Na      18.04391620      14.43954022      16.12421309
Na       8.06063596      15.95965139      16.76852024
Na      15.21213724       9.74289953      17.25065745
Na      12.23925550       8.12316194      17.30472124
Na      11.57576831      16.98872528      17.42855037
Na       9.49940820      10.07115805      18.25778898
Na      13.99470222      14.16836395      17.15750523
Na      16.67214712      12.44412490      18.74746055
Na      10.08993606      13.54571609      18.37934425
Na      12.78581554      11.24466300      19.43915677
49
Properties=species:S:1:pos:R:3 config_type=qcd gap_pre_relax_energy=-53.2150956640238 gap_pred_energy=-53.42619262072136 gap_fmax_final=0.0009516272334050871 gap_converged=1 pbc="F F F"
Na      14.46167708      14.12451991       6.59256324
Na      10.79823700      13.79457549       6.98709570
Na      12.16366161      16.99964638       7.39188528
Na      17.02506656      14.93659590       8.94441636
Na      15.34426658      17.82563426       8.89061064
Na      12.61467664      11.25982459       8.68597331
Na       9.82959259      15.57105172      10.05172009
Na      16.21943031      11.46582120       9.24350296
Na       9.06546641      12.07531799       9.67465265
Na      15.45699798      16.16620614      12.02850115
Na      12.42936902      17.85328436      10.86688132
Na      13.28618122      14.61414473       9.68632390
Na      18.33354371      17.60637878      11.22146520
Na      18.51928945      13.41441836      11.73285692
Na      10.40164605       8.83657843      10.70144622
Na      13.99174930       9.29136910      11.60807824
Na      15.37538395      19.69925454      11.81722633
Na      11.38443142      11.87706770      12.26680443
Na      17.82526037       9.89493039      12.64652796
Na       8.57638303      14.12707098      13.28580515
Na       9.72109131      17.50265120      13.68699351
Na      15.06958645      12.61399559      12.25571401
Na      20.31350122      11.91533545      14.41252243
Na       8.28461717      10.43080346      12.98945766
Na      12.10024737      15.03788343      12.94933119
Na       8.55005516      15.84275531      16.79236250
Na      13.17348264      12.11297105      15.11435221
Na      18.82062998      15.34486018      14.73329138
Na      16.89849950      12.26478024      15.09091110
Na      11.35020194       8.92778863      14.22923377
Na      10.75705046      18.92477757      16.69350031
Na       9.76815290      12.01558695      15.89504221
Na      15.09853827       9.17758894      15.21807058
Na      16.88397039      18.37837603      14.69669066
Na      13.25322473      18.16437953      14.27972245
Na      18.75898004       9.32403870      16.16678949
Na      15.18553850      15.22447737      15.20782109
Na      11.84022054      15.45088718      16.31254515
Na      18.96785050      12.55816157      17.83747493
Na      14.89259017      13.09825790      17.92932812
Na      10.83148291      16.88778118      19.48764960
Na      12.68605969      10.08029369      17.97777282
Na      17.22409793      15.89695115      18.06043994
Na      16.34495223      10.13192114      18.81115551
Na      14.12609535      17.88556516      17.74005786
Na      11.17196670      13.32250930      19.08214923
Na      17.03517366      13.14943701      20.81808898
Na      14.03409335      15.35419753      20.29634600
Na      13.89526223      11.68682022      21.05037192
50
Properties=species:S:1:pos:R:3 config_type=qcd gap_pre_relax_energy=-54.02284517470643 gap_pred_energy=-54.328862661939034 gap_fmax_final=0.0009474686508314355 gap_converged=1 pbc="F F F"
Na      17.51652096      12.08392699       6.64836222
Na       9.41445515      11.77343085       7.61028014
Na      13.46995295      11.92286889       7.57196260
Na      15.89518265       9.07925181       8.11602969
Na      19.47435233      10.32676889       9.07257619
Na      15.57735934      15.24781083       8.12583860
Na      19.05419947      14.27340282       9.26060348
Na      11.43975711       8.92265018       8.65597147
Na      11.73162053      15.06262069       8.39264154
Na      13.92498356      18.66703578       8.54729227
Na      16.69198350      11.88345695       9.95279489
Na      11.19872066      11.84661957      10.50941563
Na      17.21399248      17.81262988      10.32190079
Na      17.41484430       9.03959504      11.92774759
Na       8.37392133      10.23383411      10.70986188
Na      14.03951782      13.39344533      10.79331661
Na       8.46505159      14.28965041      10.10705220
Na      10.89435943      18.02682873      10.65999270
Na      14.04873401       9.78277464      11.01469926
Na      19.27164151      12.11836729      12.55380867
Na      14.18232648      16.64341138      11.24748625
Na      17.02062465      14.69523628      12.16775353
Na      11.02896087       8.32203234      12.33551123
Na      14.43828730      19.92199295      11.90408194
Na      11.21226442      14.87107374      12.05591211
Na       8.74774439      16.71218062      13.55743741
Na       9.79755080      11.94319839      16.69020042
Na      15.69848447      11.69979728      13.47713098
Na      16.33733989      17.49412892      14.16761869
Na       8.35723034       9.38006324      14.60320141
Na      11.56068379      11.43792624      13.73447394
Na      14.17949841      14.69943294      14.10063872
Na      12.22486527      17.86653950      14.05512936
Na       8.06694889      12.97551924      13.57079392
Na      14.69898500       8.62948011      14.44315994
Na      11.14293313      14.85570806      15.53066122
Na      11.60227030       8.78833488      16.48045744
Na       6.45923921      11.63186812      17.09904927
Na      16.99677588      13.48817438      16.19914814
Na       8.75835475       9.30391799      18.71355148
Na      13.37008437      12.44276243      16.50957568
Na      10.37876240      17.76175339      17.12942377
Na      18.20840819      10.07997858      15.35652124
Na      14.38178826      16.25690718      17.10457603
Na       7.92883804      15.04513324      16.77680713
Na      15.41448003      10.10819399      17.67312272
Na       8.66280102      12.75899838      19.84233034
Na      11.97995227      10.98963931      19.37029856
Na      15.09007235      13.49081697      19.32882059
Na      11.65332496      14.60986106      18.91400896
50
Properties=species:S:1:pos:R:3 config_type=qcd gap_pre_relax_energy=-54.29161553768789 gap_pred_energy=-54.579014057562006 gap_fmax_final=0.0009511531827760301 gap_converged=1 pbc="F F F"
Na      13.04779107      16.35087083       7.33569087
Na      15.97945088      13.55873142       8.33235571
Na      12.46938447      12.97826713       7.83809099
Na      18.31350339      11.43787093      10.71349196
Na      14.48543530      10.22436351       9.30264234
Na      10.73758586      10.10479454       9.11219851
Na      16.43925741      17.34039604       8.31632680
Na      11.01162965      16.51115055      10.36817659
Na      18.09744027      15.22624698      10.71069635
Na      13.57268517      19.13734593       9.62718240
Na       9.32913494      13.48755518       9.28223068
Na      14.40357593      15.68203057      10.54156722
Na      19.10140099      17.65125131      13.92488136
Na      15.32610758      12.33021190      11.99445851
Na      12.12517903      12.53735083      11.20064094
Na      16.17087895       8.61839318      12.11162254
Na      12.38923553       9.02613729      12.16109762
Na      10.12757872      17.27534975      14.45559799
Na      16.56436926      18.88863799      11.75342710
Na      18.15724433      10.53566714      14.36828486
Na       9.24985219      10.66836875      12.37550847
Na      16.09008082      15.95262846      13.53837455
Na      10.82521734      20.14748099      12.41759341
Na       9.18034846      14.24689924      12.82288698
Na      14.20958884      21.26784497      13.14254298
Na      13.38702458      17.98383221      12.94386335
Na      12.52943794      19.55141199      15.98549201
Na      12.65609446      14.83824094      13.62385592
Na      14.48240708      10.19092532      14.81527864
Na      18.98306627      14.02771323      14.03116235
Na      11.64471980      11.92854962      14.65829315
Na      13.54666557       6.65012131      14.60444435
Na      10.52835365       8.72331831      15.25362742
Na       8.06775154      11.43841061      15.64440679
Na      15.96650916      13.19459177      15.60956806
Na      16.05172567      19.07415674      15.42575099
Na      16.64056215       7.70791188      16.03029852
Na       9.99590957      14.32908634      16.95147227
Na      13.42185788      15.76927186      16.52871766
Na      17.54235707      16.08897498      16.77058390
Na      10.99452928      17.55774603      18.56887335
Na      19.02458763      12.94041645      17.48445532
Na      13.29982723      12.31039355      17.36372950
Na      13.42684812       8.64053564      17.74849811
Na      10.43142584      11.00042456      18.46000835
Na      16.30066260      10.67056772      18.07805841
Na      14.65751612      17.56194535      19.04195841
Na      16.03139922      14.09489881      19.23702667
Na      12.38266795      14.52276226      19.88672191
Na      13.63377163      11.04958144      20.53792114
50
Properties=species:S:1:pos:R:3 config_type=qcd gap_pre_relax_energy=-54.15426612602022 gap_pred_energy=-54.48292098145731 gap_fmax_final=0.000931078783622592 gap_converged=1 pbc="F F F"
Na      11.91033815      12.59664292       7.21657287
Na      14.19240833      15.61042829       7.46812393
Na      13.29827143      18.98893183       8.51304151
Na      15.29446811      11.45511542       8.16617212
Na       9.90626694      12.55897589      10.26278111
Na      12.37379263       9.97411513      10.10291700
Na      10.82289405      16.22075071       9.25083679
Na      13.13172354      13.61394641      10.22126238
Na      14.23104033      16.85582742      11.05872243
Na      16.36660276       8.55775630      10.16557898
Na      14.95001176      20.03194551      12.12691263
Na      16.50065098      14.39820745       9.89527241
Na      18.59338823      11.56114680      10.01230232
Na      16.84728236      17.82993548       8.98437497
Na      11.38182382      18.86313406      11.63739204
Na      17.73341725       9.51495348      13.60711712
Na      15.55421659      11.44979517      11.67651948
Na       8.72715284      12.96855946      13.41466463
Na       8.42482306      16.39110461      12.14164250
Na      12.16498812      11.85087737      13.20469864
Na      14.04351892       8.52252611      13.06364933
Na      11.52143350      15.36352144      12.72094443
Na      19.69900646      15.43947690      10.34199083
Na      17.52847904      17.40037331      12.50132870
Na      14.89366496      14.36061597      13.23769820
Na      14.98547325      11.43752465      15.04299619
Na       9.89654290       9.51790997      12.72627198
Na      18.29738095      13.51146764      13.23690737
Na      15.99392358       8.86332808      16.83322161
Na      10.43465018      18.10191365      14.87990801
Na      16.89234586      19.80324135      15.17737832
Na      14.39397124      17.27403166      14.64412310
Na      13.03533140      11.75206529      17.86396720
Na      12.07566970       8.88578349      16.14833842
Na       8.85893825      15.18999882      16.20242805
Na      13.24128517      20.27603195      15.46572349
Na      12.09051697      14.06231649      15.79281117
Na      18.13742524      16.08458731      15.87208297
Na      15.37718270      14.31656087      16.70774842
Na       9.58049355      11.46813275      16.48685267
Na      18.31824185      11.90111481      16.51580831
Na      11.97673609      17.02073381      17.84944834
Na      13.83885034       8.76549064      19.73455503
Na      15.57565902      17.74962926      17.94603873
Na      10.49206391       9.99096508      19.53594053
Na      10.42243562      13.59690210      19.40706903
Na      17.80147226      14.77466880      19.29545894
Na      14.12495357      14.75095318      19.80486244
Na      16.03613117      11.66800226      19.34102371
Na      12.94193872      11.76926030      21.40779621
51
Properties=species:S:1:pos:R:3 config_type=qcd gap_pre_relax_energy=-55.54894850670342 gap_pred_energy=-55.79999192774711 gap_fmax_final=0.0009726034597090716 gap_converged=1 pbc="F F F"
Na      10.49751735      18.69520419      14.95007358
Na      18.91902836      14.45720459      15.83091455
Na      16.54459280      17.22235683      16.70633390
Na      15.88221845      17.97229045      10.78891414
Na      12.81437778      17.05009005       8.21955208
Na      14.87524420      19.18343820      14.11431669
Na      14.57170246      11.86481280      19.38613309
Na      18.22393175      17.53748627      13.45610858
Na       6.02527844      12.63546956      14.81452897
Na      17.07656100      14.50259854      10.97674760
Na      12.73563514       9.90665359       8.84399465
Na       9.32837038      11.59964108       8.84051275
Na      17.29199257      14.30255091      19.27468366
Na       9.41623334      12.24498491      14.94623687
Na      12.64919088      13.35403025       7.80700091
Na      20.20786135      14.18479710      12.27919014
Na      10.32995590      16.35007172      18.42409957
Na      11.02867566      10.42203966      17.92451774
Na      19.32651987      13.72089008       8.46679352
Na      11.12491871      13.28957994      20.42679851
Na      11.77727650      13.60828245      17.01745467
Na      10.21837410      15.12555442       9.71965245
Na      13.78984057      15.36932560      19.37430323
Na      15.33639856      15.72368139      13.56886053
Na      14.87715441      11.62103365      11.26535247
Na       7.46276994       9.70220115      16.28238643
Na      16.17428692      15.63383993       7.87254237
Na       7.82153340      10.28459283      12.60436680
Na      10.00501042       8.33714849      10.55013559
Na      17.61690835      11.30651030      17.23918584
Na      15.22991958      13.83114419      16.56572396
Na      19.17591527      17.04968808       9.79796614
Na      12.22177927      17.82172931      11.73559663
Na      13.13184063      12.16740148      14.30739092
Na      13.27229271       8.57579422      12.17305498
Na      16.92233797      12.68439657      13.80033365
Na      11.04820369      15.15927119      13.60049141
Na       8.59506915      17.30840317      12.18775924
Na      19.99010955      11.13933964      14.36074411
Na      10.53252813       8.86334314      14.54416552
Na       8.20683909      15.69768750      15.40689991
Na      16.11325015      11.92441132       8.13035684
Na      13.61246018      14.62514608      10.84373001
Na       8.06263150      13.81733230      12.13593755
Na      18.54404534      11.18935613      11.05889383
Na      16.67380012       9.26919852      13.58016102
Na      14.28783792       9.84508664      16.19830319
Na      16.13575001       8.67851550       9.92020803
Na      11.06468131      11.53793197      11.62732285
Na      13.03550920      16.64936333      16.03915421
Na       8.36127442      13.12453356      18.18154889
51
Properties=species:S:1:pos:R:3 config_type=qcd gap_pre_relax_energy=-55.449884132104934 gap_pred_energy=-55.68922280783064 gap_fmax_final=0.0009187820490462144 gap_converged=1 pbc="F F F"
Na      13.01561526      13.21220517       7.39126144
Na      16.31978344      12.41875836       9.08084346
Na      15.53225957      15.79069926       8.23673018
Na      10.32020718      11.10759875       8.73401007
Na      19.28317006      14.24033368       9.02840943
Na       9.78388143      14.36839303       9.93645072
Na       9.20023345      17.68070950      11.13121679
Na      13.72471718      10.19355973       9.52594619
Na      13.60446007      13.99976193      10.51586422
Na      12.15234378      16.99276079       9.11720624
Na      17.19381912       9.33636093      10.70276147
Na      14.76682789      19.36683286       8.91585870
Na      19.11760759      11.97283395      12.64132284
Na      11.60061173      12.01854126      12.11398976
Na      11.66970708      15.81974696      12.59535388
Na      18.17221808      17.54208867      10.24106994
Na      20.54421548      15.39756930      12.15513674
Na      15.31097267      11.57964430      12.34037414
Na       8.15035587      11.57437138      11.75738202
Na       8.33010047      14.80138449      13.33994362
Na      14.86829963      17.12812147      11.57430381
Na      10.21924782       8.67728087      11.41204879
Na      17.04348894      14.57246683      11.84704066
Na      12.32579197      19.39065201      11.78563945
Na      13.58119823       8.40394086      12.71300154
Na      15.89851293      20.34193565      12.19258830
Na      10.25480333       6.69852237      14.47430483
Na      14.13895775      18.59894324      14.88711014
Na      10.31549603      10.26627964      14.58602639
Na      14.03132446      14.93226650      14.54775604
Na      10.53595640      13.41059686      15.85712826
Na       7.38041068       8.55180036      13.73084063
Na      19.16784499      10.86931479      16.47686581
Na      10.02333317      17.75223075      14.78505506
Na       7.09064369      11.86331106      15.28215133
Na      13.02008099       8.13116549      16.35908844
Na      16.59864741      12.97555855      15.28298285
Na      19.58989570      14.47968965      15.57149917
Na      17.70947186      17.26347549      13.98825736
Na      12.24521176      16.57458893      17.26305687
Na      16.82292026       9.20783405      14.38375447
Na      16.12744131      16.33022849      17.12481959
Na       8.18550492      15.45844921      17.18603819
Na       8.93586753       8.71692544      17.21690518
Na      13.55049692      11.33173307      15.19135005
Na       8.27383886      12.06287929      18.55500640
Na      17.64721681      13.31123035      18.60772297
Na      15.75713215      10.36162891      17.64676404
Na      10.84294398      14.22028233      19.54579665
Na      14.12501790      13.51766438      17.97059180
Na      11.67409751      10.95905208      18.22757635
51
Properties=species:S:1:pos:R:3 config_type=qcd gap_pre_relax_energy=-55.35645399458537 gap_pred_energy=-55.6425443643836 gap_fmax_final=0.00093512750659372 gap_converged=1 pbc="F F F"
Na      11.73124971      14.16593124       6.95320983
Na      15.35500973      14.35431305       7.67554124
Na      13.57029495      11.17142511       8.45914103
Na      10.06523098      15.90144169       9.53986401
Na      19.10715139      14.39968396      10.15798397
Na      17.18746226      11.54609229       8.94000742
Na      13.34766591      17.25575577       8.92106393
Na      16.12896874       8.43241505      10.54311556
Na       9.66672436      12.12626795       9.16802483
Na      17.03342803      17.21339110       9.11731754
Na       9.82082269      13.90180037      12.39349556
Na      12.70209778      13.75894892      10.33798676
Na      12.10683518       8.15087626       9.52981139
Na      11.52708204      19.50469820      11.11205448
Na      15.85536980      14.37971601      11.10955062
Na      14.56666057      10.99569653      11.92973694
Na       8.99734703      17.49221573      12.72169703
Na       8.47709889       8.77024059       9.98856284
Na      18.20138890      17.46998618      12.59634298
Na      12.35432125      16.37178536      12.35572958
Na       7.26545895      11.66493859      12.10113714
Na      11.04834556      10.06382832      12.08726995
Na       6.95188300      15.07005233      10.95919004
Na      13.58125326       7.32303186      12.87450084
Na      14.94200829      18.61462215      11.75479125
Na      18.13838622      11.14276390      12.27309660
Na      13.34740470      10.36018614      15.12811694
Na       7.94104338       8.74739132      14.11725764
Na      16.38632082       8.97686192      14.22881117
Na      10.14194377       6.53919281      12.21469631
Na      16.08898557      19.57256030      14.90123772
Na      15.37789137      16.10515481      14.33713072
Na      18.99748557      14.25582331      14.06818931
Na       9.99067080      11.52138441      15.02684163
Na       6.50942365      11.64669153      15.70602536
Na      11.09609999       7.89604818      15.70039549
Na      12.62896706      18.90201316      14.66322749
Na      12.77648838      13.41300562      13.97440464
Na       7.41691426      14.85450604      14.63806789
Na      15.99601334      12.64884503      14.70699671
Na      18.78200132      11.07088791      15.89323057
Na      18.21479265      17.20771308      16.22973660
Na      14.41752050       7.55398895      16.94453303
Na       8.57794793       9.60222798      17.59515559
Na      14.64775951      17.30455824      17.44238377
Na      17.38524754      14.05777409      17.48177122
Na       9.22993291      13.24089766      17.79107302
Na      11.93904397      10.54374030      18.21830450
Na      10.93587718      15.84785920      15.78679533
Na      13.48338137      13.77214777      17.46009040
Na      15.68623340      10.84155813      17.87024004
52
Properties=species:S:1:pos:R:3 config_type=qcd gap_pre_relax_energy=-56.4477293747793 gap_pred_energy=-56.863656942793774 gap_fmax_final=0.0009172611649478765 gap_converged=1 pbc="F F F"
Na      15.60527080      16.54270714       7.46192970
Na      12.71578925      14.23912679       7.26552435
Na      15.92322730      12.70718355       8.22701691
Na       9.66435247      12.20822958       7.50707548
Na      12.92234248      10.66091155       7.74341881
Na      16.11021036       8.82042541       8.58771211
Na      12.55048956      17.82922591       9.07280175
Na      17.89921083      15.15443710      10.11739818
Na       9.30929130      15.41888452       9.21353485
Na      18.38423345      11.05059757      10.48614679
Na      10.25723896       9.55790824       9.86256048
Na      14.27794041      15.08524728      10.46912019
Na      13.24765194       7.56267032      10.52409821
Na      15.83040267      18.46242423      10.46540550
Na      11.63930454      12.84133480      10.34338914
Na      14.41503113      10.73935676      11.14370790
Na       8.17896906      12.41389788      11.12506584
Na       9.48521354      18.66882327      10.88112254
Na      16.58399502       8.18361664      12.11471645
Na      20.23110171      13.49862647      12.44104274
Na      11.42610959      15.90585052      12.01401768
Na      16.73246051      13.17103656      12.67085183
Na      12.92928006      19.02094270      12.57824637
Na      11.05176034      10.05806653      13.30806795
Na       7.81189766      15.88852066      12.44870223
Na      15.11773979      13.72636556      16.47204309
Na       6.49468151      13.06941981      14.36367821
Na       9.98847036      13.44491416      14.16515586
Na      13.27864401      13.19342436      13.38793481
Na      18.93466107      10.67804260      14.28204900
Na      10.00855111      18.15479454      14.65648330
Na      15.66268554      16.48189124      13.54917234
Na      18.57723960      14.11589444      15.65581055
Na      13.64723550       7.66899934      14.26666763
Na      16.15560834      19.91639930      13.94804072
Na      15.33892475      10.68471783      14.69566310
Na      10.83222035       8.27901339      16.58825022
Na       8.28717603      15.36847087      16.53690697
Na      12.42541951      15.84410365      15.68136555
Na       8.83554703      11.57546695      16.75873568
Na      12.46753781      11.50254698      16.34299499
Na      13.44120428      19.06379662      16.29381387
Na      17.09549697       7.82915928      15.77428334
Na      17.20115521      14.36935390      19.27438890
Na      16.59410942      17.15305875      16.87892284
Na      14.18807985       8.82946942      17.76840721
Na      10.66514718      17.62754125      18.36456959
Na      10.94875775      13.96287772      18.58965706
Na      17.40527650      11.11594365      17.55141138
Na      11.17129330      10.30877949      19.44274166
Na      13.96541286      15.97443899      19.10903003
Na      14.13733713      12.41945163      19.57753583
52
Properties=species:S:1:pos:R:3 config_type=qcd gap_pre_relax_energy=-56.4269821719669 gap_pred_energy=-56.76895817206627 gap_fmax_final=0.0009050722503368643 gap_converged=1 pbc="F F F"
Na       8.80964608      14.14081343      10.35218423
Na      11.39301451      14.93923162      12.84688754
Na      16.21445144      18.93866496      11.35554773
Na      16.47018589       9.40792594      12.09877063
Na       8.06629883      11.64225277      17.15737385
Na      10.38779315      10.85975311       8.63856460
Na      13.89826257      12.10473718      13.81175999
Na      20.28464384      13.72557478      14.05107125
Na      13.66718025      11.89261294       7.35079935
Na      10.95213201      17.10714530      18.67814296
Na      18.27708209      11.43262630      17.09123302
Na      14.34480290      17.77686419      16.86332371
Na       8.19984041      13.04236250      13.74191419
Na      11.14978893      18.30749217      15.17083924
Na       8.86752084      15.54602082      16.12728112
Na      10.36335309      13.97701510       7.01670658
Na       9.05026112       9.54677422      14.44410985
Na      12.04708681       9.57702583      17.53465802
Na      15.55731494       9.57523154      19.33869435
Na      14.11471871      12.20173155      17.38328863
Na      10.99330868      12.16884095      15.53246778
Na       9.89134901       8.05826615      11.33504685
Na      12.37862286      13.66546645       9.91584396
Na      13.80811416      15.19366392      19.33980616
Na      18.07718811      15.37771185      11.50785588
Na      10.93890480      11.35091237      12.09978934
Na      12.61332021       8.61833104      13.92091455
Na      15.22211017      12.63717935      10.90483862
Na      13.28902493       9.47660475      10.18633495
Na      17.08163265      13.92938712       8.28226638
Na      17.08335097      12.81133134      14.06658743
Na      16.76932988      13.34468825      19.76381270
Na      16.00658507      14.69048284      16.54657861
Na      12.33337188      15.15256109      16.14475786
Na       7.58465260      10.69940142      11.21615278
Na      14.72194811      16.05276418      10.08059913
Na      16.97171632      16.89770670      18.98967581
Na      13.06061522      11.65653445      20.60616325
Na      14.49542839      16.31039130      13.40259439
Na      18.73847995      12.04632441      10.99711643
Na      13.89341958      18.94513379       8.47571518
Na      19.49703190      10.07104725      13.93917789
Na      16.87628027      10.33510896       8.54562405
Na      10.97336130      16.89597157       9.13657334
Na      12.51239145      18.84348589      11.82243673
Na      13.54133734      15.62354433       6.91353599
Na       8.71114866      17.01691029      12.65472211
Na      15.71324214       9.25612098      15.74237532
Na      17.73357111      17.08231546      14.71569794
Na      10.60850074      13.52451398      18.80723413
Na      14.80722894      20.07301115      14.36623131
Na      19.36131487      14.85569075      17.39158290
52
Properties=species:S:1:pos:R:3 config_type=qcd gap_pre_relax_energy=-56.614813839109345 gap_pred_energy=-56.837628471107465 gap_fmax_final=0.000895475474852656 gap_converged=1 pbc="F F F"
Na      12.20001146      11.39635613       8.05904205
Na      15.03854214      14.46915315       7.43908487
Na      17.23513402      16.55638942      10.29095679
Na      15.75549420      10.54519828       8.42962980
Na      11.42153216      14.82907602       9.00518427
Na      18.06387888      13.21481832       9.23609745
Na      13.80871478      17.18598103       9.69091996
Na      13.03260298       7.88188094       8.63479915
Na      10.06990814      17.79936154      10.75875688
Na       8.79537198      12.23849315       8.80016411
Na      14.57766354      13.78319056      10.57332320
Na      15.05520038      16.47480519      13.03669925
Na      15.72691490       7.24067927      10.88761007
Na      20.39934466      15.45049133      11.57268540
Na       8.66742119      14.67959478      11.39881664
Na      15.92839567      19.58188462      11.51342834
Na      17.47674726      13.90397014      12.59863159
Na      11.93835292      15.43814830      12.48068087
Na      20.38642647      11.99564530      12.49716585
Na      12.62824210      19.05676457      12.94342308
Na      12.45768235       7.15528787      12.68351866
Na      10.17746825       9.18209982      10.51185623
Na       7.41059260      11.46859714      12.28565913
Na      13.75420111      10.12715099      11.19992522
Na      11.15281843      12.25903282      11.38827405
Na      17.18141476      10.36643940      11.87465352
Na       9.79285090      12.79923863      14.38501826
Na       6.84358161      14.60010382      14.47536919
Na      15.16429972       8.82449493      14.66124607
Na      12.06324636      10.40433397      14.20575344
Na       6.96803113      11.30551240      15.93515727
Na       9.16680648       8.78801360      14.35395480
Na      15.29955406      19.52712034      15.47946494
Na      13.67471246      16.59521253      16.02652534
Na      17.67324973      11.29277775      15.51692314
Na      14.40178790      12.52950611      13.79097723
Na      10.08719580      16.64276036      15.10896955
Na      12.13599487       7.78234618      16.46127285
Na      18.22401491      17.48869714      13.72814404
Na      19.73060662      14.39385123      15.26870664
Na      16.10038182      14.41644816      15.74346563
Na      12.34468074      13.52840933      16.40023833
Na       8.73229261      14.04152833      17.48437876
Na      11.79309779      19.52351267      16.49136277
Na      10.22568634      10.67640797      17.24985089
Na      14.19648777      18.54914298      18.91569169
Na      17.98806837      13.44639689      18.44543757
Na      11.42413540      16.08639949      18.76323091
Na      14.61133078      11.12312626      17.63878495
Na      17.17393128      16.98649007      17.52724352
Na      14.66931560      14.49539893      19.00840889
Na      11.83376886      12.53146710      19.80262416
53
Properties=species:S:1:pos:R:3 config_type=qcd gap_pre_relax_energy=-57.79723294555039 gap_pred_energy=-58.202942696320505 gap_fmax_final=0.000999932490362411 gap_converged=1 pbc="F F F"
Na      16.83507985      14.25863300       7.89282332
Na      13.55750808      15.07002013       8.50712991
Na      14.19030308      11.74335882       7.47170137
Na       9.80691201      16.44777451       8.18582436
Na      10.21845887      12.87328765       7.87308969
Na      11.41038665       9.34688264       7.75931253
Na      16.78555791      17.56202683       9.31891925
Na      16.12999184      12.02692098      10.67951447
Na      12.60639685      18.26541613      10.11950019
Na      14.64518609       8.79040589       9.42600110
Na       7.77759572      14.29570363      10.31533020
Na      13.47804701      13.22608766      12.98134009
Na       8.83753407      10.72347757      10.48554759
Na      18.72401741      14.80728858      10.85333237
Na      11.14107513      14.58609072      10.81666816
Na      12.40437221      11.29475536      10.48583182
Na       9.22705149      17.52783249      11.60253893
Na      15.57873862      19.87092799      11.79329124
Na      11.06039453       7.86191651      11.14754810
Na      17.74267229       8.88646419      11.40145867
Na      14.88298388      16.10288319      11.79405091
Na      14.71171628       8.27786981      12.90451981
Na       6.29576740      12.00779921      13.04129334
Na      18.36647099      17.56556455      13.00375105
Na      19.22576297      11.78217712      12.83819374
Na       9.82331355      12.80815879      13.43698514
Na      11.95810453      10.11581526      13.72385090
Na       9.10493144      18.56166231      15.15146672
Na      15.64734526      11.27878565      14.93300073
Na       8.71082179       9.01942021      13.76351270
Na      11.47393390       6.76352956      14.54946394
Na      20.52260914      14.90661502      13.90435015
Na      11.52188616      16.18351818      14.02594913
Na      18.19894492       8.93735979      14.97755365
Na      14.24860779       8.46701339      16.56178112
Na      12.32862654      19.47776736      13.48087406
Na      15.43102301      18.28943786      15.07186258
Na      16.99515843      14.25902118      13.79856237
Na       8.08075374      12.10709707      16.27417871
Na      14.21798893      15.20010666      15.90455293
Na       7.57026466      15.26283860      14.21040118
Na      17.20602621      10.06975374      18.23821950
Na      12.15512170      12.51763735      16.41885177
Na      19.16342618      12.63060299      16.24641315
Na      10.59902793       9.32743754      16.97825811
Na      12.27340284      18.14944216      16.95287768
Na      13.74014377      10.99103457      19.06315247
Na      18.25120684      16.19003100      16.40980237
Na       9.82716669      15.24913403      17.13432983
Na      15.43387395      17.18449476      18.63888828
Na      16.21319521      13.57107661      18.15835610
Na      12.86784704      14.58674360      19.29092040
Na      10.18916751      12.08680045      19.39697292
53
Properties=species:S:1:pos:R:3 config_type=qcd gap_pre_relax_energy=-57.77288256347923 gap_pred_energy=-58.13876223933494 gap_fmax_final=0.0008558580283013353 gap_converged=1 pbc="F F F"
Na      14.09692225      10.74963906       7.10101781
Na      12.56927413      13.98804578       6.91266893
Na      14.43537068      16.57568091       8.34080895
Na      10.64634439      11.29893304       8.14676103
Na      16.51616119      13.45635516       7.36180425
Na      16.40415659       9.52080737       9.50786856
Na      11.09734809      17.45370051       9.01722737
Na      14.22755137      19.27200878      10.72208229
Na       8.94820989      14.57017542       7.80603285
Na      17.20055458      15.82975567      10.21533958
Na      14.61630769      12.86248646      10.00933208
Na       8.21332779      12.38764543      10.56195295
Na      19.98073444      15.27606071      12.31478201
Na       8.99593421       8.75940154      10.88063830
Na      18.31373327      12.37375301      10.67626531
Na      12.72870420       8.69195307       9.83384377
Na      15.20459788       7.02460908      12.05306422
Na      11.31026735      14.31412734      10.35021443
Na      13.98546068      16.28388617      12.02445343
Na      16.75971962      14.00995755      13.26755805
Na      11.19071981      11.13560380      11.82449007
Na      14.50788396      10.46687333      12.41958603
Na      10.71768366      18.05067863      12.63667157
Na      16.87951349      18.06298681      13.09676636
Na       8.21713975      16.00610482      11.04732326
Na      13.16331780      13.51962724      13.40420707
Na       9.58091955      13.75159526      13.50901849
Na       8.75103680      10.12616554      14.25277361
Na      12.15348612      11.17186759      15.29840818
Na      13.82886930      19.13244747      14.37753804
Na      17.60794860       9.54827843      13.45696742
Na      11.50238962       8.06460823      13.55987423
Na       8.11030754      16.38197973      15.27523174
Na      11.70048849      15.82978475      15.15723000
Na      16.53034832      18.87745073      16.70832421
Na      15.59215532      11.76773832      15.51837657
Na      19.49202802      12.40599716      14.74646055
Na      15.32210252      15.96724827      15.53501496
Na      10.32919231      18.94103286      16.29872000
Na      18.85624078      16.09373955      15.65499721
Na      14.68458299       8.37464826      15.24257345
Na      13.40161704      13.91451329      17.55874538
Na       9.16674477      12.74020907      16.80659965
Na      10.64054159       8.89969215      17.16247783
Na      13.24286523      17.75932217      17.69347821
Na      10.17512591      15.82900611      18.28020025
Na      17.54417886       9.74834755      17.33312620
Na      17.70178904      13.46323051      17.66224012
Na      14.00681198       9.84120473      18.23014551
Na      15.98848910      16.10726084      19.15123395
Na      12.89397811      15.24054325      20.76703704
Na      11.41975813      11.99927950      19.56853419
Na      15.31208846      12.54497524      20.12493570
53
Properties=species:S:1:pos:R:3 config_type=qcd gap_pre_relax_energy=-58.210810198289764 gap_pred_energy=-58.36040838735143 gap_fmax_final=0.0009086528796487931 gap_converged=1 pbc="F F F"
Na      22.12826846      12.57729453      18.90298485
Na      18.59340821      16.64805324      23.97380696
Na      14.40544205      20.74610939      21.49596994
Na      17.15677226      20.43370738      11.86613256
Na      17.10736896      23.13649924      20.86644928
Na      12.61105213      12.82725076      17.97321867
Na      20.30807592      21.69060011      19.78107831
Na      20.53312088      19.49346800      13.20605433
Na      16.74059637      13.92487872      22.38900538
Na      11.08312378      18.13890905      15.39887847
Na      14.56766286      22.29346031      18.03642019
Na      13.52231601      14.72018532      20.92038276
Na      15.34834699      22.53773123      14.33288832
Na      11.08962913      16.29343698      18.53678697
Na      13.83410364      15.70119145      16.45564059
Na      16.75166460      14.26398610      15.04854918
Na      15.99603921      11.09698688      16.90396769
Na      22.22692096      16.32377414      12.44754402
Na      13.74046893      12.76220847      14.11156241
Na      19.70950587      13.62862352      12.83496054
Na      13.63579778      19.87555243      12.59089879
Na      17.75630995      19.95319753      22.58958767
Na      16.92801419      17.31746151      17.10290671
Na      15.38943775      17.71865580      10.18059386
Na      19.61597356      16.45547754      14.83753814
Na      16.16608621      14.11279006      18.60334415
Na      15.17436739      17.41580748      22.94230854
Na      20.22483635      18.50356323      17.66903648
Na      22.23616014      14.30830959      15.56849802
Na      17.84080671      20.39968728      15.47724751
Na      18.85352716      17.04539736      11.12677548
Na      14.24945606      17.95560635      19.42646852
Na      14.92467600      11.35772038      20.45112634
Na      11.59154758      19.98266275      18.46535582
Na      13.07862767      16.16402509      12.88490770
Na      10.63728995      14.48729888      15.40144558
Na      16.44273861      17.47425951      13.58943912
Na      19.62962447      15.04513119      18.15732307
Na      22.82885182      16.14982764      19.02057909
Na      15.98034070      14.28829935      11.63870735
Na      21.24932337      21.53716557      16.26846080
Na      17.61790014      16.72696999      20.53467215
Na      16.89642506      11.15651143      13.25608544
Na      22.95969992      18.18745624      15.55281490
Na      14.34630904      19.30686823      15.98971882
Na      17.24726151      20.09674835      19.11101909
Na      11.90072032      21.72021194      15.25710285
Na      19.47383344      11.94858818      16.09464394
Na      23.34282292      19.88261998      18.75434823
Na      20.86636764      18.28018155      21.28450945
Na      18.16056968      23.30398529      17.36344461
Na      20.58999519      14.62357642      21.49317363
Na      18.51665054      11.78626710      19.63987279
54
Properties=species:S:1:pos:R:3 config_type=qcd gap_pre_relax_energy=-59.52269934181269 gap_pred_energy=-59.67069469146221 gap_fmax_final=0.0009061381202445233 gap_converged=1 pbc="F F F"
Na      17.08787607      20.95687052      11.04434277
Na      19.84210148      20.30421384      19.68911937
Na      20.98445299      21.10089991      16.33546373
Na      17.87277013      22.19555456      14.46406398
Na      11.36070565      21.34287571      16.45778974
Na      17.10980048      18.67405342      13.84708487
Na      18.49012592      23.25528414      18.07059504
Na      11.55984046      18.66954631      13.83491830
Na      18.01336301      17.45863921      10.67862661
Na      14.34082121      21.12486239      13.86823043
Na      15.24609781      14.90253792      10.86070477
Na      10.68404853      17.96315372      17.66448399
Na      10.83217971      15.17955262      15.01226949
Na      16.25365120      14.41371059      19.52920232
Na      12.42977980      16.81325079      20.67549847
Na      11.77708075      15.92603663      11.52481377
Na      13.94504286      18.87756846      16.74517714
Na      15.74556240      18.19343264      19.75746279
Na      18.99772025      14.56087308      22.33952872
Na      20.14369775      19.87506720      12.57581099
Na      19.41795671      14.37799839      16.60705028
Na      18.77118874      13.82371015      10.49477547
Na      13.13282027      13.12480001      20.48586086
Na      16.53668865      21.49477930      20.63345084
Na      17.94187453      18.73658193      22.57677972
Na      21.90202713      14.60171016      19.29392750
Na      22.74251430      15.31340638      15.85404560
Na      12.71786129      20.35667588      19.64911652
Na      16.96273438      11.67325647      12.89078065
Na      20.39092239      12.66203725      13.58402975
Na      14.43438992      19.47361482      22.81564089
Na      15.02654556       9.80045552      15.40318762
Na      17.29721746      20.02684393      17.24704244
Na      15.99495463      13.14312289      16.18068523
Na      18.53959386      10.69252292      16.02452184
Na      12.52510268      11.96292435      17.06216481
Na      10.18634850      14.38323645      18.59491570
Na      17.52210531      15.12973763      13.58118402
Na      14.81153752      22.47705208      17.28793066
Na      15.52968956      15.83266535      22.58025582
Na      22.51705152      18.10420585      18.13515635
Na      13.38928784      15.41691701      17.41313199
Na      23.15548147      18.71650984      14.60522068
Na      20.85468284      16.24827720      12.67438823
Na      19.04838880      12.17600727      19.51672089
Na      21.93217060      11.88899199      16.84809160
Na      19.06911138      16.74461674      19.71393597
Na      14.30449901      18.46813412      11.26182086
Na      16.67738605      16.53211881      16.85327629
Na      16.27152776      12.13956421      22.19796839
Na      19.91521832      17.83868760      15.88579066
Na      14.23554629      16.46792506      14.09500280
Na      13.46920381      12.95558757      13.55342183
Na      15.50366219      10.87135091      18.86754974
54
Properties=species:S:1:pos:R:3 config_type=qcd gap_pre_relax_energy=-58.8575676922412 gap_pred_energy=-59.335736336339146 gap_fmax_final=0.0008862056259685572 gap_converged=1 pbc="F F F"
Na      16.80427842      14.14676518      14.74973022
Na      13.44081112      16.44739386      10.66074372
Na      16.63915813      15.27192476      11.49419868
Na      10.26856581      17.23595696       9.98241372
Na      13.88923265      14.07832377      16.52567652
Na      10.98342168      15.97993258      13.37879583
Na      16.68358694      11.82909485      12.37324193
Na      14.68444304      10.55850402      15.58466483
Na      17.71056129      12.95926403       9.00473853
Na      10.82420481      15.30205752      17.01253746
Na      13.71477822      10.26844845      12.00135000
Na      10.91058456      13.73619064      10.68884061
Na      16.41188815       9.67574400       9.65651063
Na      11.36408188      11.86056270      18.43354195
Na       8.70454221      14.73367498       7.97499677
Na      12.25427333      15.18336476       7.64499775
Na      13.28748885       9.41778357       8.35564949
Na       9.21267621      13.20887897      13.49767031
Na      17.08288288       8.46897707      12.88095410
Na      16.78280006       8.55859573      17.20442653
Na      14.80062932      12.44157572       6.65232260
Na       7.53826621      15.67441580      11.64746550
Na      15.89209909      18.77828020      11.59279812
Na      14.18966054      12.85758209       9.83471811
Na      15.79948031      15.84141577       8.12403418
Na      19.58260803      10.53489554      11.10113776
Na      10.96542683      11.95438826       7.51547407
Na       7.55512798      12.27861431      10.40074486
Na      10.62450146      10.10120924      10.77437489
Na      17.86305061      17.47298675      14.26476568
Na      14.26279226      16.67602942      14.31802767
Na       8.85643559      18.79225363      12.91807754
Na      14.52621318       6.91125897      14.77034818
Na      15.01279595      19.71334580      15.24980358
Na      11.20498861       8.09529754      13.92938360
Na      14.06571436       7.16424132      11.06457811
Na       7.97409685      10.01605706      13.48451867
Na      19.66914931      13.88719511      12.63296113
Na       7.69848642      16.11777439      15.10197960
Na      13.66508202      13.68821461      13.01018436
Na      11.47093708      11.54723815      14.85294398
Na       5.80899005      13.26075417      13.63426789
Na      12.43187262      19.22172205      12.48679220
Na      19.75431421      14.87871462      16.23110916
Na      12.60496102       8.53539411      17.37129355
Na      16.66087496      16.26004936      17.48064302
Na       8.98976849       9.23743744      16.84121101
Na      11.19564546      18.79852490      15.69143796
Na      18.73330861      10.99531340      15.13672624
Na      14.34566685      14.45524731      19.73110238
Na       8.07435025      12.71169706      16.71111278
Na      13.54770375      17.52581863      18.00584286
Na      14.70523552      10.76125571      19.32369046
Na      17.22004814      12.83690535      17.95299084
55
Properties=species:S:1:pos:R:3 config_type=qcd gap_pre_relax_energy=-60.8129965317937 gap_pred_energy=-60.86267504271204 gap_fmax_final=0.0008220491713096995 gap_converged=1 pbc="F F F"
Na      12.79275349      12.79275349      12.79275349
Na      12.79275037      14.52363923      15.90238852
Na      12.79275037      14.52363983       9.68311633
Na      12.79275037      11.06186839      15.90238936
Na      12.79275037      11.06186779       9.68311550
Na      14.52363923      15.90238852      12.79275037
Na      11.06186839      15.90238936      12.79275037
Na      14.52363983       9.68311633      12.79275037
Na      11.06186779       9.68311550      12.79275037
Na      15.90238852      12.79275037      14.52363923
Na      15.90238936      12.79275037      11.06186839
Na       9.68311633      12.79275037      14.52363983
Na       9.68311550      12.79275037      11.06186779
Na       6.74509812      12.79275253       9.09734016
Na      12.79275253      16.48816507      18.84040618
Na      12.79275253      16.48816495       6.74509846
Na      12.79275253       9.09734003      18.84040653
Na      12.79275253       9.09734016       6.74509812
Na      16.48816507      18.84040618      12.79275253
Na       9.09734003      18.84040653      12.79275253
Na      16.48816495       6.74509846      12.79275253
Na       9.09734016       6.74509812      12.79275253
Na      18.84040618      12.79275253      16.48816507
Na      18.84040653      12.79275253       9.09734003
Na       6.74509846      12.79275253      16.48816495
Na      12.79275296      19.03644713      12.79276258
Na      12.79275296       6.54905819      12.79276258
Na       6.54905819      12.79276258      12.79275296
Na      19.03644713      12.79276258      12.79275296
Na      12.79276258      12.79275296       6.54905819
Na      12.79276258      12.79275296      19.03644713
Na      14.72417598       7.89758718      15.86040387
Na      10.86132803       7.89758699      15.86040461
Na      14.72417711       7.89758860       9.72509708
Na      10.86132690       7.89758841       9.72509634
Na      17.68791699       9.72509588      10.86132654
Na      17.68791681       9.72509661      14.72417747
Na       7.89758841       9.72509634      10.86132690
Na       7.89758860       9.72509708      14.72417711
Na      14.72417747      17.68791681       9.72509661
Na      14.72417634      17.68791823      15.86040434
Na      10.86132654      17.68791699       9.72509588
Na      10.86132767      17.68791842      15.86040508
Na       9.72509708      14.72417711       7.89758860
Na      15.86040387      14.72417598       7.89758718
Na       9.72509634      10.86132690       7.89758841
Na      15.86040461      10.86132803       7.89758699
Na       7.89758718      15.86040387      14.72417598
Na       7.89758699      15.86040461      10.86132803
Na       9.72509588      10.86132654      17.68791699
Na      15.86040508      10.86132767      17.68791842
Na      15.86040434      14.72417634      17.68791823
Na       9.72509661      14.72417747      17.68791681
Na      17.68791842      15.86040508      10.86132767
Na      17.68791823      15.86040434      14.72417634
55
Properties=species:S:1:pos:R:3 config_type=qcd gap_pre_relax_energy=-60.51452822237728 gap_pred_energy=-60.745730063913356 gap_fmax_final=0.000957626185328941 gap_converged=1 pbc="F F F"
Na      20.83063170      12.48990499      16.97421402
Na      21.10586911      15.07522070      13.57106590
Na      20.54956121      16.15753934      16.93148932
Na      19.85435317      18.83321388      14.67351392
Na      18.83173825      14.49942653      19.38682269
Na      20.25552630      17.81452779      11.11252570
Na      19.58814768      11.81590801      13.13940658
Na      18.95133672      14.28254651      10.57616131
Na      17.77564281      11.46108296      18.81960759
Na      18.96198769      18.98223408      18.59138657
Na      17.77771132      10.53592956       9.93470152
Na      17.91970222      13.59081368      15.99990599
Na      16.71426558      16.90225683      20.53800328
Na      17.80739836      16.15864440      13.46462125
Na      16.03793345      12.39420066      12.60968816
Na      17.21686156      19.55360768      12.07693504
Na      16.45718357       8.95748632      13.03280735
Na      17.01553572      17.09751763       9.37453725
Na      16.05326870      13.32736537      21.54767746
Na      15.33886280       8.20441965      16.86875125
Na      16.56987542      20.07641196      15.71272392
Na      17.02154457      16.77061028      16.95623451
Na      18.38378790       9.94359343      15.81184217
Na      15.72821177      13.28146166       8.89895960
Na      14.57532147      10.54389925      19.58283166
Na      15.33774208      14.06168734      18.46173663
Na      15.13389095      19.70977749      19.10006575
Na      14.72912008      14.68108594      15.14747978
Na      14.17065919      10.36373223      10.46594350
Na      13.24300037      16.35030360      21.01968104
Na      14.40325915      18.02433059      13.69399004
Na      14.61567239      15.50102278      11.38140179
Na      15.10683165      11.43122699      16.15238209
Na      12.16806645      13.01046178      20.37546348
Na      11.81804890       9.64664207      17.54505353
Na      14.31796046      21.51667747      12.89023471
Na      13.51772516      17.06247379      17.49729125
Na      13.94680084      19.04763222      10.34070725
Na      12.28864612      12.97561658      13.10495706
Na      13.69527928      16.19648984       7.97497234
Na      11.95151228      13.01706249      16.81819156
Na      12.84265180      20.32914364      16.07190082
Na      12.18007729      13.24978696       9.51488402
Na      11.35240246      19.25288477      19.44813139
Na      11.50997458      16.28788087      14.36584123
Na      12.94623032       9.45652618      14.09846214
Na      10.41293306      15.83169804      18.77515007
Na       9.64377905      11.04879252      14.77332798
Na      11.26343698      19.65116814      12.76307288
Na      11.15512700      16.58352881      10.72764043
Na       9.05578550      13.65341861      12.15683736
Na       9.54802292      18.32656523      16.32047360
Na       8.77831362      14.63948198      15.65271622
Na       8.22778745      17.14852827      13.08504460
Na      10.52429872      10.40184483      11.29784665
