3
Properties=species:S:1:pos:R:3 config_type=qcd gap_pre_relax_energy=-18.8754361290723 gap_pred_energy=-18.998216404149012 gap_fmax_final=0.00034329092172605773 gap_converged=1 pbc="F F F"
Nb       8.48081926       7.58243719       7.15567078
Nb       8.27781085       9.64274016       8.25039503
Nb       8.11538190       7.64883465       9.46794620
4
Properties=species:S:1:pos:R:3 config_type=qcd gap_pre_relax_energy=-27.03266173434508 gap_pred_energy=-27.034929583149026 gap_fmax_final=0.00047833724832055245 gap_converged=1 pbc="F F F"
Nb      10.17929424       8.86418373       8.03205376
Nb       8.03904032       7.68494968       8.63936668
Nb       9.33635637       8.92743129      10.40408708
Nb       8.12327882      10.20140503       8.60246223
5
Properties=species:S:1:pos:R:3 config_type=qcd gap_pre_relax_energy=-35.33719298955877 gap_pred_energy=-35.387010330362834 gap_fmax_final=0.0005179375932311234 gap_converged=1 pbc="F F F"
Nb      10.22547123      10.14243054      10.90849411
Nb       9.03030382      10.57767867       8.48624092
Nb       9.48598336       8.02142646       9.34691160
Nb      11.34124635       9.60363013       8.71613168
Nb       7.82009695       9.55793591      10.44532342
6
Properties=species:S:1:pos:R:3 config_type=qcd gap_pre_relax_energy=-43.8150393807795 gap_pred_energy=-43.9932418206902 gap_fmax_final=0.0005112774461348654 gap_converged=1 pbc="F F F"
Nb       6.56591281       8.55921507       6.83827087
Nb       6.12510443       6.14685165       6.31496491
Nb       6.39375861       6.52913452       8.72770021
Nb       9.04647500       8.91800912       6.90604846
Nb       8.52952498       6.46473824       6.95070837
Nb       8.16232317       8.20515040       9.08540618
7
Properties=species:S:1:pos:R:3 config_type=qcd gap_pre_relax_energy=-53.095931671966454 gap_pred_energy=-53.24919199201757 gap_fmax_final=0.0005620302094150212 gap_converged=1 pbc="F F F"
Nb       9.25272687       9.32985675       7.55874658
Nb      11.24244007       9.52662456       9.26369446
Nb      10.17035016       7.25660282       8.98043855
Nb       7.20333902      10.06787919       8.97748392
Nb       9.38780799      11.23030173       9.53201282
Nb       9.00997056       8.94231900      10.70796414
Nb       7.66528755       7.57833818       8.91158174
8
Properties=species:S:1:pos:R:3 config_type=qcd gap_pre_relax_energy=-61.53797936886131 gap_pred_energy=-61.643633223578384 gap_fmax_final=0.0006683529907502393 gap_converged=1 pbc="F F F"
Nb       9.46436060       8.62616660      11.33273421
Nb      10.90587956       8.53852005       8.84159691
Nb      11.22712594      10.26779800      10.71263609
Nb       8.91549087      11.10056428       9.96614857
Nb      10.50990003      10.91812934       7.96153321
Nb       8.49250769       9.50723120       7.60537570
Nb       8.72273106       7.32625596       9.12427510
Nb       7.25815182       9.21148212       9.95184778
9
Properties=species:S:1:pos:R:3 config_type=qcd gap_pre_relax_energy=-70.34127115063924 gap_pred_energy=-70.6211301861056 gap_fmax_final=0.000698179031760924 gap_converged=1 pbc="F F F"
Nb      11.24312090       9.33512306      10.34693415
Nb       9.58473357       7.38424296      10.26512366
Nb      10.10523865      11.07035293       8.84458661
Nb      10.82056685       8.67342449       7.90853642
Nb       8.69434231       7.24516113       7.86714524
Nb       8.86961241       9.78119352      11.20131589
Nb       7.21916720       8.42791600       9.59563934
Nb       8.45491193       9.71708711       7.23900523
Nb       7.58967707      10.94686969       9.31308433
10
Properties=species:S:1:pos:R:3 config_type=qcd gap_pre_relax_energy=-79.41980578132575 gap_pred_energy=-79.58010774161005 gap_fmax_final=0.000851784778197429 gap_converged=1 pbc="F F F"
Nb       6.93836720       7.27534460       7.20459426
Nb       8.83020437       6.38901157       8.70025734
Nb       6.70524100       8.04122705       9.64604917
Nb       9.24414716       8.17345963       6.51297300
Nb      10.82312931       8.01965789       8.54686614
Nb       9.02788881       7.92597693      10.76231744
Nb       7.11916832       9.82569436       7.45876559
Nb       7.81794564      10.35611347       9.88454680
Nb       9.61314485      10.44972312       7.66908429
Nb      10.35684335      10.01987139      10.09062598
11
Properties=species:S:1:pos:R:3 config_type=qcd gap_pre_relax_energy=-87.40845160059041 gap_pred_energy=-87.43541883391981 gap_fmax_final=0.0008817382418407261 gap_converged=1 pbc="F F F"
Nb      10.25130630       9.03363801       8.68915614
Nb       6.15791818       7.78661922       6.81504576
Nb       6.24112790      10.10592537       7.63628182
Nb       7.08771848       6.10298550       8.75360414
Nb       8.25422673       6.56004068       6.32715748
Nb       9.64657688       6.25783877       8.78688790
Nb      10.43548900       7.65173164       6.66012712
Nb       8.50654147       7.86033355      10.43164362
Nb       8.15500101      10.26024440       9.17701039
Nb       6.12287974       8.31966659       9.60699252
Nb       8.48967132       9.40943329       6.46455013
11
Properties=species:S:1:pos:R:3 config_type=qcd gap_pre_relax_energy=-86.76645856233898 gap_pred_energy=-86.88290863316945 gap_fmax_final=0.0008877259676849015 gap_converged=1 pbc="F F F"
Nb      11.64213337       9.92184313       8.25564803
Nb       9.35959331      10.56376854       7.29689536
Nb       9.45928067       8.35277991       8.59974055
Nb      10.08164772      12.28718953       9.05879815
Nb       7.89473708      10.72053154       9.38768683
Nb      11.24242802       8.64620427      10.53087295
Nb      12.10741576      11.36442599      10.31440394
Nb       9.45329729      11.30872198      11.43416476
Nb       8.38459550       8.71129793      10.89064328
Nb      11.73409218      10.46976860      12.62862111
Nb       9.90992241       8.92261187      12.87166835
12
Properties=species:S:1:pos:R:3 config_type=qcd gap_pre_relax_energy=-96.47336903906219 gap_pred_energy=-96.65862647113397 gap_fmax_final=0.0008971265655954528 gap_converged=1 pbc="F F F"
Nb       7.27778786      10.79813748       8.63369214
Nb       9.53383919      11.50439510       9.87244655
Nb       7.76944630       9.92928509      11.10878231
Nb       6.73082805       8.27075334       9.29386290
Nb       7.85337781       8.82092122       6.93594446
Nb       9.58572627      10.81937054       7.29354439
Nb      11.50351939       9.96361619       8.94051956
Nb       8.70060454       6.72997573       8.36188015
Nb      10.46490643       8.30509210       7.12560483
Nb      10.38106450       9.41345215      11.29838734
Nb      10.95653663       7.43622075       9.60070939
Nb       8.64859297       7.41501024      10.94085588
12
Properties=species:S:1:pos:R:3 config_type=qcd gap_pre_relax_energy=-95.52535482307277 gap_pred_energy=-95.87936592775901 gap_fmax_final=0.0008725215277606631 gap_converged=1 pbc="F F F"
Nb      11.45680129       9.71145649      11.64023596
Nb      10.03098450       9.91877939       8.97423168
Nb       9.68655646      11.66492335      11.42737170
Nb      10.43551793       7.30773196      10.61391624
Nb      11.72672812      11.52898815       9.65639458
Nb      10.91366014       7.44792461       8.19721963
Nb       7.76468028      10.92531930       7.81777105
Nb       8.20080531       8.26767524       9.03385299
Nb       8.69875016       8.99041581      11.52374592
Nb       7.31483185      10.75298633      10.23780173
Nb       9.04605077      12.60913275       9.14882521
Nb      12.56891722       8.71895063       9.57291730
13
Properties=species:S:1:pos:R:3 config_type=qcd gap_pre_relax_energy=-104.62267702674502 gap_pred_energy=-104.8525157538051 gap_fmax_final=0.0008629711003752856 gap_converged=1 pbc="F F F"
Nb      10.93986729      12.08976316      10.23039176
Nb       8.76511080      10.47707827      11.33147800
Nb       8.70604275      12.25006199       9.00879284
Nb      11.34514206      10.04086122      11.76929362
Nb       6.97386022      10.35435421       9.37843254
Nb      12.58938279      10.34722988       9.33442815
Nb      12.12595736       8.02330563      10.01079439
Nb       9.99341746       9.69599100       8.98348761
Nb       9.96012710       7.85216137      11.46915637
Nb       8.38610859      10.64891677       7.03563592
Nb       7.72369509       8.01271189      10.24615143
Nb       7.81052747       8.33275548       7.65044394
Nb       9.91554947       7.10959755       8.78630187
13
Properties=species:S:1:pos:R:3 config_type=qcd gap_pre_relax_energy=-104.48637773540077 gap_pred_energy=-104.69786750088845 gap_fmax_final=0.0009737914715889815 gap_converged=1 pbc="F F F"
Nb       9.23404423       9.10095328       9.38803468
Nb       7.81032363       9.94040349      11.71398037
Nb       8.33446879       7.45825687      11.37349772
Nb       9.03702843      10.33846715       6.67707531
Nb       8.84319825       7.40186154       7.03049128
Nb      10.76438703      11.10597034       8.34491712
Nb      10.38843037       6.90065289       9.13044737
Nb       7.80291527      11.14244591       9.23196223
Nb       7.44457926       6.72352555       9.13255316
Nb      12.08008293       9.07816629       9.18630631
Nb      11.13808269       8.68639441       6.95952094
Nb       6.22832912       8.88375746      10.17120966
Nb       6.87923951       9.22425434       7.64511337
14
Properties=species:S:1:pos:R:3 config_type=qcd gap_pre_relax_energy=-113.61802929043624 gap_pred_energy=-113.89559866311536 gap_fmax_final=0.0007528482933054476 gap_converged=1 pbc="F F F"
Nb      11.21118597       7.47128291       9.83206327
Nb       9.02597135       8.99311719       9.21443779
Nb       9.17947681       6.07875346       8.52890632
Nb       7.61274131      11.15953137      10.09856486
Nb       7.55396563      10.80635169       7.33506594
Nb       9.84554741       9.98836243       6.50812511
Nb       7.87419345       8.03125751       6.97387839
Nb       6.88782711       6.89669411       9.35575468
Nb       6.07507829       9.26043850       8.75891231
Nb      10.65836147       7.62469327       7.10505558
Nb       7.22681073       8.89362188      11.26987866
Nb      11.59722454       9.73738204       8.66100829
Nb       9.02592029       7.04957260      11.13659992
Nb       9.79813764      11.58138304       8.79419087
14
Properties=species:S:1:pos:R:3 config_type=qcd gap_pre_relax_energy=-113.68854562738657 gap_pred_energy=-113.7999630672525 gap_fmax_final=0.0009182085382999579 gap_converged=1 pbc="F F F"
Nb      10.42191926      10.37939693      10.07604933
Nb      12.99305579       9.21397067      10.10979383
Nb       7.66494894      10.41995949       9.31032322
Nb      10.98150443      13.01395110      10.21558062
Nb       8.58717441      12.57433843      10.72169282
Nb      11.14532115       7.52494810       9.80676115
Nb       8.74219093       8.10122014      10.64294557
Nb      10.40580396      11.76022306      12.69067677
Nb      12.62119578      11.34408264      11.56012217
Nb      11.02134339       9.04235048      12.19321572
Nb       8.36843952      10.24170439      12.10034042
Nb       9.49684758      11.59733878       8.05031123
Nb      11.59624172       9.49075863       7.81670216
Nb       9.27730970       8.61905370       8.02878153
15
Properties=species:S:1:pos:R:3 config_type=qcd gap_pre_relax_energy=-123.6161032502833 gap_pred_energy=-123.72105620901728 gap_fmax_final=0.00034522295301321187 gap_converged=1 pbc="F F F"
Nb       9.21577422       9.21577362       9.21577556
Nb      11.86909630       8.94138440       9.22672171
Nb       6.56244441       9.49015855       9.20482286
Nb      10.35893064      11.62586470       9.20653831
Nb       7.72808410      11.86032818       9.19588873
Nb      10.70345941       6.57121424       9.23565381
Nb       8.07261253       6.80567692       9.22500610
Nb       8.45297169      10.57002176      11.38362968
Nb      11.07815779      10.27958750      11.36218401
Nb       9.96307705       7.88555504      11.40381376
Nb       7.33811577       8.17563018      11.36048828
Nb       8.46846549      10.54598971       7.02772714
Nb      11.09342715      10.25591354       7.07105482
Nb       9.97857317       7.86151947       7.04791203
Nb       7.35338278       8.15195468       7.06935568
15
Properties=species:S:1:pos:R:3 config_type=qcd gap_pre_relax_energy=-123.20894193656159 gap_pred_energy=-123.52390960704169 gap_fmax_final=0.0005254506071494604 gap_converged=1 pbc="F F F"
Nb      10.11186028       9.03380805       7.20111548
Nb       9.28370220      11.44289147       7.57577788
Nb      12.01193364      10.90406048       8.22216826
Nb       7.70163004       9.33856874       8.76318939
Nb      12.22867028       8.46943283       9.03151526
Nb       9.65922825       7.22598645       8.97780361
Nb      10.79453108      12.64201028       9.68056287
Nb       8.00313903      12.04419400       9.72706609
Nb       9.92125150       9.92123780       9.92125742
Nb      12.14085738      10.50385960      11.07939142
Nb       8.37879413       7.82729529      11.12929605
Nb      11.22797685       7.77269853      11.29943306
Nb       7.55067372      10.23648645      11.50384667
Nb       9.79381592      11.94543766      11.94843023
Nb      10.01071496       9.51081162      12.75792555
16
Properties=species:S:1:pos:R:3 config_type=qcd gap_pre_relax_energy=-132.0861227708126 gap_pred_energy=-132.45005767071882 gap_fmax_final=0.0007704916707020996 gap_converged=1 pbc="F F F"
Nb      10.32550226      10.32549078      10.32548127
Nb      12.41366192       9.23082896      11.51568570
Nb       9.26265677      12.53978347      11.29625139
Nb       9.29982684       9.20569972       8.16461478
Nb      12.17199466       8.74347625       8.62152484
Nb      12.13386841      12.14652728      11.81843798
Nb      13.10902039      11.01070410       9.62910163
Nb      11.21900604      10.99550150       7.59503071
Nb      11.19657057      13.01905247       9.49589213
Nb       8.95569030      12.12081310       8.39771067
Nb      10.61041461      10.79037066      13.24411589
Nb      10.64877164       7.38719690      10.04733269
Nb       7.43223412      10.76461080       9.82348880
Nb      10.07687685       8.31147347      12.46667596
Nb       8.16431486      10.31990952      12.33344476
Nb       8.18712570       8.29609698      10.43274677
17
Properties=species:S:1:pos:R:3 config_type=qcd gap_pre_relax_energy=-138.9276699130968 gap_pred_energy=-141.3209520323513 gap_fmax_final=0.0008547838189664172 gap_converged=1 pbc="F F F"
Nb      10.95904224      10.95903874      10.95903106
Nb      11.20492731      11.16405097      14.05317521
Nb      12.00165895       8.98189491      13.12244235
Nb       9.24833433       9.62486832      12.52830400
Nb       9.11663376      12.30251853      13.07485372
Nb      11.73471654      13.35766105      12.61002103
Nb      13.33779887      11.37424138      12.11589728
Nb      13.30723915       8.91946490      10.90765512
Nb      10.61441481       7.96730268      11.06767230
Nb       8.00714593      11.55547236      10.85071329
Nb       9.74454166      13.82246043      11.01039602
Nb      13.47972493      10.95564368       9.30761723
Nb      12.08863544      13.09305467       9.80180462
Nb       9.40048400      12.56132737       8.79574370
Nb       9.16145145       9.74403016       9.39014056
Nb      11.66745055       8.79148347       8.84338825
Nb      11.22950872      11.12919499       7.86485289
18
Properties=species:S:1:pos:R:3 config_type=qcd gap_pre_relax_energy=-147.29987385952597 gap_pred_energy=-147.96292796231648 gap_fmax_final=0.0009907136289984064 gap_converged=1 pbc="F F F"
Nb      11.05959539      11.05956549      11.05955416
Nb      11.05947746      11.05955864      13.80246165
Nb      11.83711565       8.66615419      12.59276246
Nb       9.02355827       9.58043890      12.59278182
Nb       9.02369645      12.53881095      12.59276923
Nb      11.83730822      13.45291495      12.59275758
Nb      13.57598667      11.05948080      12.59286508
Nb      13.87867912       9.01121882      11.05958019
Nb       9.98258473       7.74548287      11.05955495
Nb       7.57482188      11.05968209      11.05952784
Nb       9.98287381      14.37370801      11.05953053
Nb      13.87887991      13.10763859      11.05957402
Nb      13.57602434      11.05946450       9.52629921
Nb      11.83733262      13.45290465       9.52634437
Nb       9.02373936      12.53879939       9.52627698
Nb       9.02360191       9.58043688       9.52629938
Nb      11.83715279       8.66614193       9.52636321
Nb      11.05951490      11.05954185       8.31664083
19
Properties=species:S:1:pos:R:3 config_type=qcd gap_pre_relax_energy=-155.08439151336455 gap_pred_energy=-158.0539014078122 gap_fmax_final=0.000997426715540595 gap_converged=1 pbc="F F F"
Nb      10.99635154      10.99631318      10.99625874
Nb      11.48193822      10.64408650      14.08973708
Nb      11.79928456       8.57566030      12.48462477
Nb       9.22571674       9.57842430      13.18346980
Nb       9.31930741      12.21293394      13.10038276
Nb      11.79482494      13.11936282      13.18349216
Nb      13.54686012      10.98419529      12.48433552
Nb      13.87406260       8.90839877      10.99673767
Nb       9.66551936       8.14005655      10.99641031
Nb       8.08371119      10.50978891      10.99596640
Nb       8.11861507      13.08415672      10.99609277
Nb      10.55531723      13.91616825      10.99627165
Nb      13.29890918      13.14742372      10.99607904
Nb      13.54693906      10.98370821       9.50842752
Nb      11.79504549      13.11914328       8.80893568
Nb       9.31968462      12.21300997       8.89195222
Nb       9.22609691       9.57833418       8.80884159
Nb      11.79934479       8.57515140       9.50878218
Nb      11.48225348      10.64346622       7.90298463
20
Properties=species:S:1:pos:R:3 config_type=qcd gap_pre_relax_energy=-163.62917727465614 gap_pred_energy=-164.4629769922243 gap_fmax_final=0.0008561032193073456 gap_converged=1 pbc="F F F"
Nb      11.43237424      11.74248000      12.97329030
Nb      12.36328905      11.01796563      15.55392082
Nb      12.30171099       9.01123691      14.09584610
Nb       9.69751205      10.42884966      14.21193679
Nb       8.73493274      12.96434490      13.18030281
Nb      13.53666248      12.93014557      14.40943098
Nb      14.37736771      10.80640639      13.55297587
Nb      10.53486480       8.99356484      12.24535442
Nb       8.79861371      10.88815894      11.37804857
Nb      10.46901869      13.61562846      11.13350665
Nb      13.45290049      12.58743020      11.49241994
Nb      13.25014345       9.72006832      11.47643509
Nb      11.31885961      11.02900571      10.24279546
Nb      11.82225112      11.77624794       7.35573215
Nb       7.64750486      13.08466479      11.05318289
Nb       9.75195619      10.31962621       8.24066397
Nb      12.56017554       9.45635443       8.41749552
Nb       9.54615957      12.73921646       8.86423665
Nb      12.41316800      13.56123630       9.06565163
Nb      14.00513441      11.34196803       9.07137308
21
Properties=species:S:1:pos:R:3 config_type=qcd gap_pre_relax_energy=-172.38761550025026 gap_pred_energy=-173.0624460353634 gap_fmax_final=0.0006671515265050678 gap_converged=1 pbc="F F F"
Nb      11.53206773      11.47185987      13.31254155
Nb      12.21669678       9.96634429      15.61989284
Nb      12.94144418       8.62500051      13.69870462
Nb      10.25587005       9.19387132      14.01651553
Nb       9.49429347      13.59476193      13.29485979
Nb      12.50040263      13.92333069      13.56063443
Nb      13.98006450      11.27322982      14.16750804
Nb      11.14579028       8.89995400      11.62868158
Nb       9.22867416      11.30804365      11.94468972
Nb       7.48333189      11.71515244      10.10307067
Nb      11.05504304      13.87279073      11.27076792
Nb      13.77781157      12.80373678      11.62225687
Nb      13.87365888      10.10389357      11.69537215
Nb      11.69424310      11.32110440      10.51002861
Nb      11.86540834      11.26458270       7.59741104
Nb       8.17496669      13.84616814      11.04502112
Nb       9.70941661      10.15159597       9.18689501
Nb      12.63623494       9.23345081       9.00259483
Nb       9.78211205      12.72661241       9.00697471
Nb      12.67502846      13.49202580       8.91992825
Nb      14.16875109      11.40380061       8.98696115
22
Properties=species:S:1:pos:R:3 config_type=qcd gap_pre_relax_energy=-180.77894740595042 gap_pred_energy=-181.21214505174095 gap_fmax_final=0.0009723455421329559 gap_converged=1 pbc="F F F"
Nb      11.88005557      11.54426774      13.13636459
Nb      12.37500615      11.82297632      15.72271063
Nb      12.83665226       9.26110069      14.07848448
Nb      10.18304226       9.35225220      13.72953837
Nb      10.17904418      13.36305637      14.09304898
Nb      12.94454317      13.95341919      14.41515944
Nb      14.53230477      11.72751689      14.34702309
Nb      11.66653507       9.05737194      11.37319582
Nb       9.53398950      11.50101486      11.85548802
Nb       7.76266151      12.41786500      10.01299808
Nb      11.24963945      14.15566591      11.99486295
Nb      14.10330751      13.09571528      12.09202431
Nb      14.09760774      10.24577163      11.89477426
Nb      12.10379780      12.00504755      10.42575136
Nb      11.26289570      11.54953801       7.58994481
Nb       9.16057777       8.75202392      11.55068098
Nb       8.52286856      14.12761106      11.63967878
Nb       9.87016211      10.44250985       9.41698623
Nb      12.86377686       9.84839730       8.97039695
Nb       9.96111901      13.44814832       9.41553258
Nb      13.53584415      12.42456519       8.04405603
Nb      14.96070894      11.49030484       9.78743927
23
Properties=species:S:1:pos:R:3 config_type=qcd gap_pre_relax_energy=-192.75783564585765 gap_pred_energy=-193.02565539461975 gap_fmax_final=0.0009805850821772764 gap_converged=1 pbc="F F F"
Nb      12.20298815      11.52026865      10.41434141
Nb      12.52825689      11.50574970      13.29835925
Nb      12.65930321       9.14990410      12.18770986
Nb      10.07880508      10.71424435      11.74726065
Nb      10.75842937      13.31578697      12.39026068
Nb      13.86854455      13.48527215      11.21337198
Nb      14.80966267      10.97841020      11.56724545
Nb      11.41220523       8.64327741       9.95603075
Nb       8.49156009       8.50503090      10.62048099
Nb       7.66638123      11.00507408      10.58323903
Nb       8.38737434      13.46994551      11.14183399
Nb      11.73939125      14.57804741      10.22498103
Nb      14.86952460      11.96079756       9.09936052
Nb      12.96021462      13.45895708       8.33831112
Nb      10.05247393      12.70912565       9.27148232
Nb       9.81899499      10.17608243       8.75853298
Nb      14.09491276       9.47051904       9.52277030
Nb      12.46043233      10.82064286       7.90127707
Nb      10.04035814      11.66194397      14.60434841
Nb       7.95248484      12.28639075      13.26990679
Nb       8.26183373       9.62928457      13.27775254
Nb      10.80600695       9.26006929      14.30318890
Nb      10.11531731       7.73063167      12.34341022
24
Properties=species:S:1:pos:R:3 config_type=qcd gap_pre_relax_energy=-201.1483393277967 gap_pred_energy=-202.10412853511252 gap_fmax_final=0.000983145836811216 gap_converged=1 pbc="F F F"
Nb      11.91472425      12.10493317      10.59694649
Nb      12.45312912      11.53383034      13.62511230
Nb      13.38682681       9.65882303      11.76985385
Nb      10.47107812      10.25320009      11.99279046
Nb      10.50411452      13.17120874      12.79202062
Nb      13.19721285      14.03029355      12.62785603
Nb      14.70259758      11.97641897      12.11223533
Nb      11.37609091       7.45465027      11.79703965
Nb       9.14026920       8.36229936      10.71114150
Nb       8.65857479      11.80154977      10.69849390
Nb       9.45746327      14.31475390      10.64085452
Nb      11.93483715      14.88636370      10.47383532
Nb      14.20260765      11.18990320       9.37853583
Nb      12.95541957      13.64697022       8.18395567
Nb      10.37464823      13.16792999       8.49795077
Nb       9.92106084      10.40333339       8.88588246
Nb      11.99085099       9.15628577       9.64781491
Nb      12.27129020      11.22335777       7.68016822
Nb       9.80438626      10.36123758      14.63181367
Nb       8.18654368      11.89582682      13.31143612
Nb       7.69562318       9.54418745      12.63564067
Nb      11.92510167       8.76046438      14.03774742
Nb       9.43606872       7.88670835      13.55310309
Nb      14.53528055      13.71127028      10.21357131
25
Properties=species:S:1:pos:R:3 config_type=qcd gap_pre_relax_energy=-208.01380548857298 gap_pred_energy=-209.27856660563828 gap_fmax_final=0.0009378770832996797 gap_converged=1 pbc="F F F"
Nb      12.68557749      11.89510930      10.44873916
Nb      12.94115650      11.11331747      13.33379822
Nb      13.93231305       9.31585565      11.59599924
Nb      10.95383504       9.94803627      11.37399145
Nb      10.42469300      12.42301375      12.13431070
Nb      13.01149587      13.96394850      12.59427190
Nb      14.94613438      11.88364019      11.85322639
Nb      11.41740628       7.42540829      11.07866915
Nb       8.71570651       8.42121388      10.74120445
Nb       8.28489088      11.28330175      10.44137073
Nb       8.62914129      14.14534418      10.34381782
Nb      11.37870307      14.63542764      10.45478095
Nb      14.71371506      11.02715275       9.10610607
Nb      12.82988638      13.35662271       8.21822731
Nb      10.33337279      12.30743817       9.04679142
Nb      10.56678840       9.67951339       8.72260376
Nb      13.06330114       8.99102079       9.20085798
Nb      12.51711547      11.09094198       7.41687450
Nb      10.55420508      10.38635316      14.26018185
Nb       7.77371715      13.28521821      12.42240767
Nb       8.34916047      10.49247305      12.87372766
Nb      12.07490329       8.20156232      13.44762348
Nb       9.47755021       7.97381712      13.08701891
Nb      10.15307671      14.89909415      12.69456409
Nb      11.64660116      13.22962200      14.48328182
26
Properties=species:S:1:pos:R:3 config_type=qcd gap_pre_relax_energy=-217.21028707190453 gap_pred_energy=-217.6727775120923 gap_fmax_final=0.0007224709771272638 gap_converged=1 pbc="F F F"
Nb      12.45150966      12.19188886      10.77692396
Nb      12.64423966      12.32026607      13.80786341
Nb      13.40092059      10.09423543      12.43871861
Nb      10.53127705      10.77517761      12.26244408
Nb      10.57886321      13.59654996      12.57963114
Nb      13.33142755      14.58088779      12.45156035
Nb      14.94668283      12.75882280      11.67522343
Nb      10.93295704       8.34826955      10.89715460
Nb       8.37873636       9.18448351      10.94306900
Nb       8.36749621      11.93173239      10.68178564
Nb       8.77011083      14.51367413      10.82926750
Nb      11.61771457      15.35215311      10.75102240
Nb      14.80469118      12.11990076       8.73924200
Nb      13.63000050      14.29688761       9.48238810
Nb      10.56099812      13.53787920       9.18652795
Nb      10.41876535      10.70468077       9.39034362
Nb      12.98334802       9.85049535       9.11770039
Nb      12.43609183      12.20878864       7.79297674
Nb       9.75166319      11.45373718      14.76956235
Nb       8.13257077      12.83146004      13.19072231
Nb       7.54012060      10.38425977      13.03375221
Nb      15.19298606      10.38463903      10.52885811
Nb      13.52080494       7.95102066      10.83628051
Nb      11.82356764       9.96311386      14.89990357
Nb       9.40276406       8.70661839      13.65634666
Nb      11.88037688       7.98906226      13.31141608
27
Properties=species:S:1:pos:R:3 config_type=qcd gap_pre_relax_energy=-225.25919822939642 gap_pred_energy=-226.5654855254861 gap_fmax_final=0.0009112215866968049 gap_converged=1 pbc="F F F"
Nb      12.61877562      12.23418473      10.89169259
Nb      12.65112296      12.22305961      13.96506298
Nb      13.18025403       9.86758806      12.67245862
Nb      10.55982134      10.74741104      12.34757071
Nb      10.67638831      13.65327011      12.55004488
Nb      13.08850862      14.75814091      12.20895145
Nb      14.90729381      12.32234628      12.41313462
Nb      10.87278204       8.27784597      10.79847988
Nb       8.32527834       9.22834021      11.06002150
Nb       8.36928689      11.89216668      11.03233393
Nb       8.87311501      14.60530771      10.82403536
Nb      11.17311497      15.77820499      10.65020773
Nb      14.79100145      12.23625472       9.05683378
Nb      12.96623030      14.58511524       9.13928206
Nb      10.48315425      13.35895897       9.23319795
Nb      10.46667650      10.68847012       9.53164383
Nb      13.03136684       9.81887846       9.31913459
Nb      12.51759818      12.13260914       7.86466366
Nb      10.18400347      12.16432599      15.04317074
Nb       8.31517877      12.87760481      13.42640268
Nb       8.21173011      10.31335637      13.78355446
Nb      15.09598514      10.22599858      10.81478799
Nb      13.39999996       7.77422361      10.95587626
Nb      10.94153882       9.76834603      14.89143409
Nb       9.19029776       8.03412804      13.16893212
Nb      11.70819586       7.78829666      13.33135142
Nb      15.04371128      14.28797759      10.66815075
28
Properties=species:S:1:pos:R:3 config_type=qcd gap_pre_relax_energy=-234.96867266037566 gap_pred_energy=-235.43030315524578 gap_fmax_final=0.0009818865569910103 gap_converged=1 pbc="F F F"
Nb      12.82149911      11.68017051      10.65373866
Nb      12.98763287      11.73673448      13.65903408
Nb      13.60572767       9.43313297      12.27644431
Nb      10.83768704      10.22662481      12.18925554
Nb      10.72152728      12.92767792      11.85880723
Nb      13.11663641      14.40137203      12.26593456
Nb      15.02191089      12.44574514      11.72978973
Nb      11.19367744       7.90079003      10.66013011
Nb       8.52351553       8.91944777      10.83029876
Nb       8.42804620      11.66033196      10.68511833
Nb       8.59800420      14.51795557      10.62062280
Nb      10.89467191      15.69287406      10.68215095
Nb      14.81452581      12.14190244       8.70285462
Nb      12.94217703      14.18616381       9.62996233
Nb      10.59454221      13.24768834       9.00830275
Nb      10.62854716      10.51577719       9.45537059
Nb      13.33241355       9.46778092       9.00491414
Nb      12.58649990      11.89635189       7.68576571
Nb      10.15821817      12.23332197      14.55598402
Nb       7.98253078      13.55898773      12.93606354
Nb       8.38408283      10.84653641      13.15778964
Nb      15.38833517      10.16575125      10.38519454
Nb      13.77705853       7.45030869      10.62018376
Nb      11.23356735       9.66919115      14.66277191
Nb       9.23433829       8.05281606      13.02160946
Nb      11.84599596       7.56995828      13.12669864
Nb      12.02050086      13.97633054      14.52967761
Nb      10.03767968      15.18982593      13.11708156
29
Properties=species:S:1:pos:R:3 config_type=qcd gap_pre_relax_energy=-245.25696065657525 gap_pred_energy=-245.72683665930288 gap_fmax_final=0.0009344785447646068 gap_converged=1 pbc="F F F"
Nb      13.10395983      11.82414044      10.79725762
Nb      13.06655911      11.84743276      13.69118207
Nb      14.00478857       9.51266802      12.50101401
Nb      11.32989584      10.09270801      11.90761639
Nb      10.64031360      12.86520347      12.19240147
Nb      12.91815487      14.32891050      12.03520300
Nb      15.35873927      13.30155074      10.70291346
Nb      10.69889465       7.81270208      10.46623760
Nb       8.60690819       9.16919946      10.83620514
Nb       8.77288774      11.83195640      10.45833648
Nb       8.76871809      14.69669646      10.57113095
Nb      11.14226419      15.68000892      10.71781461
Nb      15.05735921      11.70033876       8.44586068
Nb      13.73779623      14.11269028       9.03020861
Nb      11.13089320      13.38659102       9.40049299
Nb      10.77446328      10.42612176       9.13274413
Nb      13.28106499       9.47927556       9.41673386
Nb      12.66303600      11.77100503       7.75310640
Nb      10.58713237      11.19216552      14.69283237
Nb       7.76917653      13.73150795      12.63022434
Nb       8.54070888      11.06566027      12.97753677
Nb      15.61548773      10.52635305      10.60366892
Nb      13.26779666       7.42191691      11.01055067
Nb      12.28126426       9.22495328      14.65799807
Nb       9.64317889       8.55990553      13.29371898
Nb      11.92695269       7.28746780      13.07059455
Nb      11.72005588      13.89699736      14.67493264
Nb      10.01631939      15.38287590      13.08697638
Nb       9.11469114      13.41045806      14.78396812
30
Properties=species:S:1:pos:R:3 config_type=qcd gap_pre_relax_energy=-252.99134436765308 gap_pred_energy=-254.8141313718486 gap_fmax_final=0.000928396629420684 gap_converged=1 pbc="F F F"
Nb      13.00395756      12.19330352      10.69772553
Nb      12.68484054      12.39130383      13.73704776
Nb      12.69640058       9.90265670      11.99860095
Nb      10.23389450      11.06458189      12.46766352
Nb      10.78578968      13.53006334      11.66075365
Nb      13.61844252      14.58764277      12.20820929
Nb      15.00887456      11.48637878      12.76745630
Nb      10.87213917       8.37020689      10.75068471
Nb       8.36935117       9.36185243      10.68019586
Nb       8.28730801      12.12251435      10.57500011
Nb       8.52862964      14.93886510      10.78935385
Nb      11.18976614      16.03130241      11.18707656
Nb      14.70166719      12.30841418       8.52021145
Nb      13.03225926      14.53433710       9.55461493
Nb      10.66509784      13.67189937       8.97771100
Nb      10.65862614      10.94246380       9.64205610
Nb      13.15807367       9.85373744       8.96777948
Nb      12.47564508      12.18528373       7.64968150
Nb      10.25984495      13.22390900      14.50255463
Nb       8.11478890      13.03120107      13.01865118
Nb       7.59941372      10.27972533      12.75214634
Nb      15.26629000      10.32919361      10.43624857
Nb      13.87777139       7.72442178      10.69526990
Nb      11.54171691      10.04492972      14.84258558
Nb       9.98807846       8.56799438      13.17114308
Nb      12.73392109       7.71705683      13.36420903
Nb      11.74690078      15.37614493      13.75178100
Nb       9.15097741      15.56892302      13.11586558
Nb      14.06072724       9.71972975      14.60798768
Nb      15.31918262       8.57033966      12.54011159
31
Properties=species:S:1:pos:R:3 config_type=qcd gap_pre_relax_energy=-263.25948444614244 gap_pred_energy=-263.8533765022508 gap_fmax_final=0.0009450454468594958 gap_converged=1 pbc="F F F"
Nb      10.95312264      10.02402023       8.63179265
Nb      11.09774428       9.77822401      11.62726481
Nb      13.39827646      10.88359039       9.55452979
Nb      13.46004725      10.83885589      12.39585004
Nb      11.24247089      12.44177642      10.45451571
Nb      11.44350111      12.29711019       7.46946190
Nb       8.99918498      12.26325485       8.71648587
Nb      13.44692445      13.47573593       8.63202344
Nb      10.70804022      14.62890000       8.71701373
Nb       8.82916283      12.17500052      11.96461307
Nb      13.72584267      13.41469412      11.62734739
Nb      10.73809849      14.81679859      11.96499577
Nb      11.27318099       9.81677169      14.65236473
Nb      13.64498245      10.70531257      15.13804306
Nb      11.33371527      12.37567168      13.38383865
Nb      11.57779203      12.19928988      16.32441058
Nb       9.20465897      12.06033383      15.20896006
Nb      13.74445757      13.23611800      14.65234091
Nb      10.96493190      14.49582886      15.20924108
Nb      15.92505640      11.71531036      13.08184286
Nb      15.67823603      11.91542325      10.50817372
Nb      12.83417842      15.27239960      13.51802335
Nb      12.71023423      15.37402270      10.16286297
Nb      13.13369550       8.39486303      10.50822198
Nb      13.40125071       8.22336675      13.08194396
Nb       8.79970551      14.20670634      13.70786663
Nb       8.68151868      14.29255614      10.38459483
Nb       9.05414724      10.04191897      13.51785881
Nb       8.91941093      10.12790336      10.16193786
Nb      15.53721465       9.33759221      11.27548669
Nb      15.63530663       9.26674002      13.86218350
32
Properties=species:S:1:pos:R:3 config_type=qcd gap_pre_relax_energy=-274.3696972668785 gap_pred_energy=-274.56391491382834 gap_fmax_final=0.0007367489633916953 gap_converged=1 pbc="F F F"
Nb      11.17737940      11.79571863      13.27228809
Nb      14.00051173      12.00732559      13.22020538
Nb       8.44254187      11.55366475      13.46697984
Nb      12.78786350      14.55828424      13.31721024
Nb      10.09947353      14.31803568      13.49816186
Nb      12.32246490       9.20756230      13.18850001
Nb       9.50004125       9.07285557      13.25517085
Nb      14.96165461       9.53221514      12.88802503
Nb      14.72302372       9.72353772       8.62905942
Nb      10.91973101      12.00190273       8.72058631
Nb      13.73945676      12.19130949       8.68870697
Nb       8.27982605      11.69186321       9.03028168
Nb      12.56440472      14.76720506       8.92427240
Nb       9.94536469      14.47064498       9.06167807
Nb      12.08249451       9.42694922       8.65750148
Nb       9.25463595       9.24499491       8.86179256
Nb      12.97076862      10.74795989      10.90277297
Nb      10.26825543      10.52903798      11.04946904
Nb      15.69450307      10.86086927      10.72832450
Nb       7.55257177      10.23948160      11.11062628
Nb      11.33452575       8.00120853      10.83145135
Nb       8.68371250       7.92590190      11.00147877
Nb      14.15710257       8.29587748      10.69930201
Nb      11.88812250      13.23158423      11.07998796
Nb      14.62224520      13.48654451      10.89345094
Nb       9.06192979      13.08743387      11.17531538
Nb      10.86234935      15.76164522      11.17313021
Nb      13.43692645      15.85655397      11.09131625
Nb      10.49280338      10.43693887      15.54107777
Nb      13.11764744      10.60959007      15.32448640
Nb      12.03015151      13.00190992      15.57006198
Nb       9.46059272      12.79846973      15.58240418
33
Properties=species:S:1:pos:R:3 config_type=qcd gap_pre_relax_energy=-282.4401348144644 gap_pred_energy=-282.9282532023926 gap_fmax_final=0.0008542117018104716 gap_converged=1 pbc="F F F"
Nb      10.93576427       9.59875091       8.56338820
Nb      10.66819344       9.22962851      11.98236403
Nb      13.82260025      10.57942457       9.07945542
Nb      13.58764616      11.21043848      12.07936500
Nb      11.28226608      11.46566056      10.41684592
Nb      11.94706698      11.83373017       7.49769392
Nb       9.45791881      11.93506448       8.00152237
Nb      13.57084406      13.16769597       9.63225778
Nb      11.11382969      14.05422921       9.05051783
Nb       8.77895792      11.53484295      12.27076701
Nb      14.76335624      13.94808927      11.85123164
Nb      11.77449360      13.66115600      12.05797033
Nb      11.13717221       9.48102732      15.33822232
Nb      13.81336259      10.73992722      15.12260801
Nb      11.32386582      11.47463194      13.56030069
Nb      11.77263134      11.92018311      16.42348398
Nb       9.36969150      11.89530045      15.37555053
Nb      13.72607167      13.24816079      14.34281147
Nb      11.32685665      14.23916028      14.94932262
Nb      16.09586811      11.72957480      13.16715951
Nb      16.02184468      11.88469051      10.50128549
Nb      13.43402775      15.80590992      13.46121474
Nb      12.59868885      15.89935212      10.91996700
Nb      12.85357783       8.67924486      10.46134016
Nb      13.05272776       8.70368157      13.20662981
Nb       9.32483124      14.06736113      13.31932542
Nb       8.99665179      13.28087534      10.35256072
Nb       8.91324981       9.66681857      14.12788122
Nb       8.72814543      10.25219584       9.81865696
Nb      15.54071654       9.46218799      11.21703337
Nb      15.55764753       9.30475036      13.78540071
Nb       9.94792939      15.85185109      11.04959291
Nb      10.98717126      16.42007094      13.24194019
34
Properties=species:S:1:pos:R:3 config_type=qcd gap_pre_relax_energy=-289.41580765065254 gap_pred_energy=-289.99063057079854 gap_fmax_final=0.0009280274374710739 gap_converged=1 pbc="F F F"
Nb      11.35769871       9.52523287       8.67192139
Nb      11.13822495       9.43234972      11.79619774
Nb      14.05452033      10.65298272       8.19556451
Nb      14.34386376      10.07147893      12.43078707
Nb      12.55222644      11.44135680      10.49843924
Nb      11.88066379      11.79630255       7.47450014
Nb       9.85462735      11.70077453       9.65095884
Nb      13.84412999      13.43686835       9.20460473
Nb      11.29134870      13.89144003       8.79678078
Nb       9.90140849      11.85993606      12.41359377
Nb      13.92737449      13.31948462      12.29611090
Nb      11.35181850      14.02370529      11.48080621
Nb      10.83752212       9.80070784      14.91145690
Nb      13.81026995      10.42261178      15.56365446
Nb      12.35223952      11.60841350      13.59033654
Nb      11.99152160      11.98582305      16.51584450
Nb       9.70631258      12.15300410      15.15901565
Nb      13.85858206      13.53233756      15.35190099
Nb      11.36629268      14.11580704      14.26902813
Nb      15.51374227      11.99998642      14.03562953
Nb      15.63103117      12.02601362      10.53681086
Nb      13.48449683      15.86158528      13.29838967
Nb      13.29408387      15.80604499      10.61851852
Nb      13.20773280       8.50321765      10.05133313
Nb      12.79582894       8.57460465      13.90253792
Nb       8.56137299      14.17394309      13.03193932
Nb       8.73244525      14.00090001      10.48469720
Nb       8.28070731       9.85861767      13.25846517
Nb       8.57832265       9.64236135      10.75132555
Nb      15.47395717       9.52786998      10.00255183
Nb      15.57447894      15.07577092      11.26034257
Nb      15.71146551      14.86742324      13.93768210
Nb       7.28937360      11.95257413      11.39792888
Nb       7.24556969      12.15372467      13.95560027
35
Properties=species:S:1:pos:R:3 config_type=qcd gap_pre_relax_energy=-297.90451562990035 gap_pred_energy=-298.4306833303996 gap_fmax_final=0.000716166389675906 gap_converged=1 pbc="F F F"
Nb      11.43427707       9.95963142       9.94311892
Nb      11.34013333      10.02823294      12.66460722
Nb      13.90000697      10.52107407       8.82633887
Nb      13.91352523      10.82283109      11.89519012
Nb      12.50342385      12.57469353      10.50746875
Nb      11.83001775      11.77068840       7.58926772
Nb       9.68497041      11.91145545       9.01985014
Nb      13.61207977      13.44606419       7.99834882
Nb      10.95189609      14.23241525       9.18850739
Nb       9.95735782      12.22143281      11.72987318
Nb      14.24475264      14.08855958      12.10678582
Nb      11.24361471      14.62331029      12.40634489
Nb      11.17636477      10.04801005      15.32801372
Nb      13.74248348      10.54726932      15.00740089
Nb      12.47686153      12.56404574      13.74984046
Nb      11.69945611      12.06364391      16.77651100
Nb       9.78119435      12.32222380      14.50615137
Nb      13.90361784      13.20878483      16.17689638
Nb      11.20686546      14.39530273      15.61162188
Nb      15.56432896      11.98662549      13.74477897
Nb      15.54366801      12.08711491      10.13092248
Nb      13.14081879      15.47829010      14.51329173
Nb      12.92966583      15.56303328      10.04346686
Nb      13.47906740       8.24435290      10.85607565
Nb      13.23374689       8.23777350      13.52309229
Nb       8.64459291      14.45742006      13.34973852
Nb       8.36319250      14.21949972      10.86823835
Nb       8.64378757      10.07580755      13.62439113
Nb       8.54572590       9.91413456      11.10936037
Nb      15.73962554       9.26117523      10.29678410
Nb      15.52121710       9.01372040      12.95603213
Nb      15.18431700      14.61758734       9.61802997
Nb      15.41252663      14.43996032      14.50676128
Nb       7.25505648      11.96318612      10.18705968
Nb       7.27223263      12.16711844      12.71630831
36
Properties=species:S:1:pos:R:3 config_type=qcd gap_pre_relax_energy=-307.49055085553135 gap_pred_energy=-307.8451691629045 gap_fmax_final=0.0008813401319286954 gap_converged=1 pbc="F F F"
Nb      10.40359108       9.75060328       8.64911476
Nb      10.25002922       9.60090269      11.73559463
Nb      13.34616585      10.54625340       8.74057685
Nb      13.49231262      10.46138425      11.96742521
Nb      11.59728847      11.73910949      10.46118503
Nb      11.17089650      11.83365377       7.55172302
Nb       8.95036673      11.95722601       9.73777798
Nb      12.91829610      13.75372911       9.18302493
Nb      10.35422695      14.04191468       8.76000278
Nb       8.96370149      12.09141753      12.52653362
Nb      13.16374191      13.65790679      12.18166967
Nb      10.56018911      14.27848017      11.46911779
Nb      10.14981798       9.98499496      14.70506876
Nb      13.29208883      10.51247789      15.20234966
Nb      11.63315680      11.82097588      13.46901612
Nb      11.39643138      12.14751570      16.36395059
Nb       9.09427646      12.37992749      15.20784842
Nb      13.14645226      13.73573288      15.23650014
Nb      10.63475486      14.33495137      14.29372118
Nb      14.89327980      12.18353471      13.79178498
Nb      14.92571618      12.26271394      10.44998594
Nb      12.62047071      16.18542075      13.12108591
Nb      12.27169264      16.14847992      10.53756257
Nb      12.31648069       8.61730891      10.18561930
Nb      12.19911881       8.63718040      13.51144047
Nb       8.19451480      14.62988172      13.16830403
Nb       7.96009329      14.26686467      10.80704643
Nb       7.83312762       9.64438015      13.27091229
Nb       7.67566297       9.92410924      10.94135145
Nb      15.31871532       9.08619183      10.48824645
Nb      15.24833167       9.06365173      13.49880616
Nb      14.70003382      15.58357639      11.02053573
Nb      14.93535126      15.31579252      13.89815418
Nb      16.23569147      13.89774985      12.23422498
Nb      16.50500185      10.82206544      12.02581453
Nb      13.99894722       7.45195518      11.95693815
37
Properties=species:S:1:pos:R:3 config_type=qcd gap_pre_relax_energy=-316.68215509716214 gap_pred_energy=-317.58484532840856 gap_fmax_final=0.0008718764203173879 gap_converged=1 pbc="F F F"
Nb      11.18332283      10.47995637       9.91094679
Nb      11.17133464      10.19152049      12.99303695
Nb      14.33081889      10.88796647       9.48724374
Nb      14.45563707      10.89126996      12.70474675
Nb      12.62498478      12.29138013      11.16726342
Nb      12.36778644      12.56082198       8.30285964
Nb       9.98013308      12.81432568       9.49075809
Nb      14.08208041      14.18900801       9.39565112
Nb      11.63706381      14.81357715      10.34878043
Nb      10.08687758      12.61318073      12.25638447
Nb      14.14239817      14.10733196      12.45952600
Nb      11.49958698      14.76163927      13.21794357
Nb      11.40696961      10.27910268      16.03426656
Nb      14.41500995      11.00573891      15.91025486
Nb      12.60196241      12.24127877      14.24521779
Nb      12.21463459      12.36996972      17.16148180
Nb       9.92464956      12.49149151      15.07902648
Nb      13.96908713      14.23940422      15.48742166
Nb      11.46377078      14.56856887      15.97882675
Nb      15.93786915      12.70658888      14.20676168
Nb      15.89643484      12.59434762      10.85992527
Nb      13.29559147      16.59149056      14.09391176
Nb      13.60460237      16.59613476      11.47409867
Nb      13.19929596       9.17227314      11.05061194
Nb      13.32098192       9.15703590      14.57622434
Nb       8.88561908      14.77203424      14.11616713
Nb       8.78135907      14.89783177      11.53993956
Nb       8.67421593      10.43006198      13.94458730
Nb       8.50893074      10.60271608      11.38331536
Nb      16.14641973       9.54453835      11.18628899
Nb      16.22562653       9.61157041      14.15392093
Nb      15.91413272      15.73245543      10.70788890
Nb      15.69395761      16.03744677      13.57942920
Nb      17.20838918      14.29000974      12.38315064
Nb      17.48306476      11.17745602      12.62585294
Nb       7.45815089      12.72402615      13.18195093
Nb       7.50764875      12.86484871      10.60473698
38
Properties=species:S:1:pos:R:3 config_type=qcd gap_pre_relax_energy=-323.47713377948037 gap_pred_energy=-324.8406918945289 gap_fmax_final=0.00082770300914284 gap_converged=1 pbc="F F F"
Nb      12.21716317      12.29543446      14.72473918
Nb      13.09983629       9.81606772      15.35693496
Nb      10.04792147      10.55775228      15.20980143
Nb       9.67222906      13.07367924      15.30093469
Nb      14.03562748      14.72741316      15.00406582
Nb      15.26720808      12.38598772      14.73437713
Nb      11.33489628       9.87457362      12.95641383
Nb      10.42185064      12.60039588      12.43219577
Nb      11.25273497      14.94428652      13.38329963
Nb      13.62345645      13.77806545      12.52123861
Nb      14.16252602      10.64027519      12.98083053
Nb      12.55201516      11.60369570      10.95646673
Nb      15.51795133       8.43623156      13.67243197
Nb      12.94129128       7.84687185      13.66673497
Nb       8.93366818       8.53885194      12.80804473
Nb       8.23787131      11.19852612      13.39806141
Nb       8.25469762      14.20617137      13.51635575
Nb       9.43453194      16.82189929      13.38272663
Nb      12.65964155      17.03566494      13.59680669
Nb      15.19788536      16.41516419      13.35921367
Nb      16.53412492      14.21478372      13.34899700
Nb      16.98908376      10.68186690      13.44685693
Nb      13.62592570       8.57521352      11.23369644
Nb      10.74521132       7.65029777      11.31157009
Nb       9.33788507      10.26138943      10.82670665
Nb       7.68997224      12.58827645      11.26314146
Nb       9.05079008      14.98629248      11.16710284
Nb      10.68171677      17.15148156      11.34499969
Nb      13.23935890      16.34215253      11.15135761
Nb      15.74248130      15.27167677      11.00670795
Nb      15.88565104      12.32379829      11.54400778
Nb      16.44073415       9.32328622      11.38588690
Nb      11.56967015       9.46590792       9.61754418
Nb       9.98414509      12.50555253       9.52338156
Nb      11.55159825      14.45590215      10.31827179
Nb      14.16065541      13.77133411       9.57755690
Nb      14.73529802      10.60416532       9.81066798
Nb      12.40407920      12.26299910       8.39325708
39
Properties=species:S:1:pos:R:3 config_type=qcd gap_pre_relax_energy=-335.0720432835511 gap_pred_energy=-335.95137043348115 gap_fmax_final=0.0008428936670584461 gap_converged=1 pbc="F F F"
Nb      13.80128942      13.80141352      12.13695881
Nb      16.81885177      13.87252623      12.05524976
Nb      13.87206916      16.81903359      12.05518912
Nb      11.03556868      13.40043217      12.11882000
Nb       8.37541847      12.95554639      11.91277435
Nb      11.45292356      16.05518092      12.29137632
Nb      10.63331251      10.63319878      12.05010691
Nb       7.59504067      10.54721370      12.09887183
Nb      10.54745233       7.59492684      12.09899801
Nb      13.40053295      11.03561062      12.11891102
Nb      16.05525514      11.45329481      12.29149068
Nb      12.95575662       8.37538603      11.91300377
Nb      12.20295671      12.20301555      14.41592832
Nb      15.05062394      12.72799737      14.37113240
Nb       9.35204466      11.71725938      14.31791300
Nb      12.72771205      15.05073749      14.37107748
Nb      11.71736166       9.35208899      14.31800735
Nb      15.53366017      15.53401701      13.54131565
Nb       9.67620560      14.40401624      14.19902282
Nb       8.98524540       8.98514101      13.68158781
Nb      14.40412178       9.67642493      14.19918337
Nb      12.25069911      12.25057184       9.90503943
Nb      14.97393248      12.73650286       9.79416353
Nb       9.46143062      11.69398775       9.80129235
Nb      12.73642135      14.97390274       9.79408923
Nb      11.69426024       9.46124891       9.80141734
Nb      15.45837721      15.45869088      10.52479604
Nb      10.08704336      14.66280368       9.95281542
Nb       8.88578645       8.88553797      10.66382604
Nb      14.66305081      10.08706123       9.95305350
Nb      13.82448475      13.82471744      16.38829990
Nb      10.75221894      13.73546863      16.32662616
Nb      10.67115231      10.67118834      16.38091716
Nb      13.73544879      10.75243270      16.32673706
Nb      13.21402995      13.21381085       7.43401364
Nb      10.71320183      13.65877646       7.72041483
Nb      11.08917059      11.08886940       7.56835315
Nb      13.65906409      10.71298340       7.72058605
Nb      12.23676652      12.23692601      17.68658308
40
Properties=species:S:1:pos:R:3 config_type=qcd gap_pre_relax_energy=-340.97325996986734 gap_pred_energy=-342.89583706199636 gap_fmax_final=0.0008546871826861864 gap_converged=1 pbc="F F F"
Nb      12.66413555      12.35382469      14.11754506
Nb      12.26466799      12.75514867      16.71585239
Nb      13.94171175      10.00171554      14.87853380
Nb      10.58122530      10.99129243      15.31807404
Nb      10.40174848      14.07970809      15.18018557
Nb      13.22950155      14.67182774      15.41045810
Nb      15.24706161      12.17670438      15.12976877
Nb      12.12961826      10.02712508      12.60366389
Nb      10.03565019      12.40809529      12.92611491
Nb      11.92280565      14.81798990      12.70215553
Nb      14.56007669      13.96227198      12.74835461
Nb      14.57375633      11.26619497      12.13820385
Nb      12.13431658      12.37578407      11.04894910
Nb       8.31851800      12.43437278      15.48390140
Nb      14.85920289       8.40167876      12.94354226
Nb      12.27792925       7.43668526      13.00983127
Nb       9.81294795       9.08559095      13.40407829
Nb       7.74429696      10.88256307      13.54341772
Nb       7.68508652      13.84132027      13.39223573
Nb       9.58280938      15.86934638      13.06993482
Nb      11.91423182      17.57377018      12.96389736
Nb      14.22833072      16.45557713      13.54597579
Nb      17.01262104      12.99696392      13.39157525
Nb      16.78912216      10.31930545      13.36058357
Nb      13.79965802       8.60827006      10.65290059
Nb      11.03281077       7.79849931      10.94463598
Nb       9.45523908      10.26799601      11.13054656
Nb       7.48419550      12.34006272      11.35304463
Nb       9.54972070      14.46790761      10.92143598
Nb      11.02685294      17.03122231      10.77096400
Nb      13.68607775      16.38181419      10.95374554
Nb      16.17999074      15.13651519      11.08340982
Nb      16.81732493      12.33262411      10.95184452
Nb      16.54164124       9.60575958      10.82886172
Nb      11.71727032       9.88244060       9.46540066
Nb       9.83285464      12.31226918       9.55688498
Nb      11.99302252      14.70712049       9.60526233
Nb      14.54694971      13.58749382       9.74134677
Nb      14.58649048      10.91050263       9.32837649
Nb      12.42027068      12.02638780       8.26624896
41
Properties=species:S:1:pos:R:3 config_type=qcd gap_pre_relax_energy=-354.27400142811143 gap_pred_energy=-354.7039668216826 gap_fmax_final=0.0007884255258550964 gap_converged=1 pbc="F F F"
Nb      11.36479712      10.65774635       9.34125101
Nb      11.40278332      10.76079194      12.39094631
Nb      14.44620058      11.50662040       9.36030943
Nb      14.60358541      11.40012706      12.65457466
Nb      12.75192769      12.70935419      11.06952320
Nb      12.37182280      12.78462040       8.17232701
Nb      10.03272775      12.88956310      10.23978205
Nb      14.09473014      14.65263066       9.79347950
Nb      11.59244962      14.96409394       9.30301361
Nb      10.18902496      13.08917085      13.07716724
Nb      14.23638237      14.63683743      12.83623667
Nb      11.57756592      15.23078890      12.05182631
Nb      11.32542849      10.95771964      15.46006880
Nb      14.39341078      11.61377274      15.96303036
Nb      12.77933502      12.81138527      14.18477034
Nb      12.51623072      13.23327248      17.05054568
Nb      10.13191627      13.28976856      15.82647280
Nb      14.20895378      14.79328096      15.89630356
Nb      11.71727919      15.32411280      14.91187092
Nb      16.00572067      13.20960329      14.47783759
Nb      16.04359726      13.23535849      11.12336662
Nb      13.64758566      17.13528683      13.76224557
Nb      13.32492303      17.07551618      11.15909986
Nb      13.35648433       9.47576248      10.81494978
Nb      13.24253769       9.50364960      14.19121282
Nb       8.85104508      15.33416178      13.74629639
Nb       8.91603885      15.12540171      11.15789678
Nb       8.70354395      11.01864357      14.06529830
Nb       8.83642573      10.67637106      11.36462174
Nb      16.40572452      10.08713421      11.18452467
Nb      16.36155285      10.10105207      14.18714412
Nb      15.73026055      16.54216837      11.63828290
Nb      15.98957117      16.33581281      14.52390053
Nb      10.36626262       8.57343190      10.72149858
Nb      10.04220457       8.82369095      13.57806349
Nb       7.55335530      13.15451092      12.17218055
Nb       7.62840316      13.30873403      14.72104274
Nb      17.62835346      11.79400942      12.70740793
Nb      17.30290292      14.87998966      12.89507131
Nb      15.11332198       8.39609866      12.66487157
Nb      12.07346142       7.76778308      12.41951545
42
Properties=species:S:1:pos:R:3 config_type=qcd gap_pre_relax_energy=-363.1762100562917 gap_pred_energy=-363.74254057716126 gap_fmax_final=0.0009587858621724362 gap_converged=1 pbc="F F F"
Nb      11.33147748      10.52537668       9.42880408
Nb      11.40642750      10.42931432      12.60453993
Nb      14.39720739      11.31327160       9.36573452
Nb      14.49936154      11.33434300      12.56901343
Nb      12.53708018      12.41631989      10.89572980
Nb      12.18053682      13.05887068       8.26000481
Nb       9.90752568      13.44303956       9.47955396
Nb      14.04245122      14.60725804       9.35770860
Nb      11.70379266      15.30377015      10.34358770
Nb      10.35475786      13.41932035      12.34867781
Nb      13.92077723      14.48315433      12.36549969
Nb      11.49262987      15.53756085      13.41449160
Nb      11.45621185      10.57012318      15.84125935
Nb      14.40232909      11.52920462      15.75746090
Nb      12.44545556      12.57687208      14.11596705
Nb      12.35337125      12.71413231      17.02213269
Nb       9.91771697      13.49282419      15.23449419
Nb      14.07266604      14.59614813      15.37816894
Nb      11.74294658      15.05915978      16.14681774
Nb      15.87161676      13.24838975      14.08644785
Nb      15.80938543      13.09099804      10.79702039
Nb      13.35055172      17.10063638      14.15872782
Nb      13.52710985      17.03735862      11.48830216
Nb      13.38139202       9.32951204      10.92978344
Nb      13.39998564       9.40934252      14.28528481
Nb       8.45405101      15.21703274      13.39967865
Nb       9.34054711      15.98657763      11.17689867
Nb       9.32092867      11.15942903      14.26212212
Nb       9.23054345      11.29384348      11.09389501
Nb      16.41431360      10.04137376      11.07841830
Nb      16.42194547      10.14356594      14.09689711
Nb      15.80620968      16.18605362      10.69884540
Nb      15.65596671      16.42783914      13.57780301
Nb      10.39362601       8.35836868      11.11243654
Nb      10.44236171       8.31574439      14.12950828
Nb       7.74256124      13.88608518      10.94107740
Nb       7.53578336      12.78513612      13.16925656
Nb      17.53630000      11.83954950      12.53841843
Nb      17.17379972      14.83255446      12.30712007
Nb      15.29377975       8.34884937      12.62746186
Nb      12.34616297       7.51261718      12.63117684
Nb       8.54205434       9.19477772      12.63947151
43
Properties=species:S:1:pos:R:3 config_type=qcd gap_pre_relax_energy=-371.9924822114917 gap_pred_energy=-372.69958317119927 gap_fmax_final=0.0008444283058278945 gap_converged=1 pbc="F F F"
Nb      12.12712143      11.14667324       9.88328596
Nb      12.09527188      10.96760966      13.09891552
Nb      15.11780205      12.10275293       9.89171404
Nb      15.23058505      11.96970292      13.10786276
Nb      13.13790414      13.12530644      11.57355598
Nb      13.09685515      13.28083304       8.65931628
Nb      10.66107708      13.86608633      10.33765422
Nb      14.73222705      15.16780174      10.34953190
Nb      12.34265256      15.63015639       9.65905020
Nb      10.69732976      13.81881032      13.33664532
Nb      14.71441493      15.10272916      13.34848209
Nb      12.24606081      15.90781475      12.46078628
Nb      12.20256376      11.17660243      16.33437614
Nb      15.00483190      12.07223238      16.34245509
Nb      13.12642413      13.13247534      14.68988850
Nb      12.94213431      13.68348935      17.47137064
Nb      10.61980171      13.98016113      16.30148351
Nb      14.66802701      15.27405382      16.31338212
Nb      12.25131549      15.86463808      15.32372652
Nb      16.53423324      13.74294643      14.91716037
Nb      16.61791770      13.84869137      11.56927337
Nb      14.25510873      17.67773893      14.26243569
Nb      14.00010222      17.65073217      11.62576271
Nb      14.12589291      10.03581785      11.37330704
Nb      14.12989437       9.99341781      14.71659154
Nb       9.57337934      16.18139051      14.24883803
Nb       9.81097626      16.31189995      11.61346254
Nb       9.99514681      11.65298779      14.89793714
Nb       9.88327632      11.69600508      11.54984866
Nb      17.15377896      10.76035426      11.52202601
Nb      17.16876637      10.70949174      14.53716011
Nb      16.35927858      17.05196440      12.16088851
Nb      16.50410777      16.84338895      15.05880688
Nb      11.23840607       8.86960155      11.50553807
Nb      11.24002644       8.81457467      14.52058490
Nb       8.23344368      14.45504962      12.13693319
Nb       8.22076218      14.19592476      15.03441742
Nb      18.29396697      12.47610250      13.05439461
Nb      17.87175672      15.46225877      13.42650035
Nb      16.04171165       8.99335590      13.00840251
Nb      13.16139144       8.07272196      13.00060853
Nb       7.91629955      12.28060633      13.39703530
Nb       9.30642935       9.60350117      13.02905736
44
Properties=species:S:1:pos:R:3 config_type=qcd gap_pre_relax_energy=-380.09364457954223 gap_pred_energy=-381.3979741756062 gap_fmax_final=0.000986258453408871 gap_converged=1 pbc="F F F"
Nb      12.15060489      10.96627498       9.94677562
Nb      12.01015002      10.84921504      13.13600712
Nb      14.96443664      11.97564482       9.85598989
Nb      15.14583531      11.83600272      13.10305008
Nb      13.11228949      13.03507201      11.58431089
Nb      12.96254487      13.51317231       8.79853436
Nb      10.55843006      13.73613852       9.91588475
Nb      14.66408305      15.14089765       9.93176267
Nb      12.09447776      15.60137515      10.84242840
Nb      10.61639733      13.68196088      12.86967971
Nb      14.73087602      15.15108917      12.94444374
Nb      12.13211569      15.78906141      13.78028323
Nb      11.99821558      11.03687010      16.32830339
Nb      14.98069505      11.97650022      16.34437283
Nb      13.09420672      13.04601425      14.63480098
Nb      12.96595187      13.17044490      17.54731387
Nb      10.58781536      13.77570163      15.84856132
Nb      14.70568890      15.05386634      15.92141623
Nb      12.24781589      15.52964511      16.56743779
Nb      16.52400749      13.63989377      14.64236908
Nb      16.46990712      13.57275013      11.34965642
Nb      13.91675051      17.43650652      14.80161430
Nb      13.55856471      17.47303447      11.71727017
Nb      14.02212941       9.84887088      11.50301634
Nb      14.01141340       9.92546670      14.85057717
Nb       9.68732538      16.20364877      14.55700459
Nb       9.49114436      16.01566069      11.94050298
Nb       9.80103277      11.58325045      14.67623495
Nb       9.92032274      11.47509912      11.34113172
Nb      17.05776567      10.54479893      11.62612125
Nb      17.04989666      10.57452138      14.63961527
Nb      16.43708793      16.70835046      11.35702519
Nb      16.70573647      16.69976393      14.44580639
Nb      11.15989703       8.64985290      11.72721562
Nb      11.12540173       8.74665605      14.74422265
Nb       8.12461753      14.00642870      11.17988171
Nb       8.13000518      14.30793296      14.07062228
Nb      18.23743821      12.25429081      13.11898005
Nb      17.93046651      15.20033056      12.84156546
Nb      15.91573282       8.83051985      13.15543220
Nb      13.05323169       7.93405322      13.27846481
Nb       7.81433032      12.12899550      12.83364296
Nb       9.21713015       9.47116779      13.19871380
Nb      15.45336275      18.44053737      13.03928485
45
Properties=species:S:1:pos:R:3 config_type=qcd gap_pre_relax_energy=-390.43168393021494 gap_pred_energy=-390.8824354014618 gap_fmax_final=0.0009395994533049094 gap_converged=1 pbc="F F F"
Nb      12.12475112      10.81968902       9.71153559
Nb      12.12581674      10.76214690      12.52605551
Nb      14.61772052      11.27118038      10.15161880
Nb      14.78278282      11.31258973      13.24181589
Nb      13.30716780      13.23116225      11.41554425
Nb      12.93236057      13.10855067       8.55511773
Nb      10.60138552      13.13357323      10.53674668
Nb      15.06401008      14.38988829       9.70228946
Nb      11.95857130      15.24481761       9.65364000
Nb      10.60793444      12.89400481      13.40817487
Nb      15.18728054      14.54766615      12.96794572
Nb      11.99811051      15.22477221      12.69394228
Nb      12.34856992      10.67671712      15.39749831
Nb      14.78748814      11.26831168      16.28215249
Nb      13.32720187      13.20203533      14.51992882
Nb      13.08740261      12.88697092      17.37984152
Nb      10.66067119      12.87301650      16.22273376
Nb      14.99763583      14.48316799      16.23285889
Nb      11.90392993      15.08115100      15.78402476
Nb      16.58562414      12.81461923      14.81188362
Nb      16.55943159      12.68421940      11.43877129
Nb      13.87587507      16.45380929      14.49751699
Nb      14.00775412      16.43693070      11.12436087
Nb      13.76718873       8.77688038      11.52768875
Nb      14.21642358       8.81607910      14.31925543
Nb       9.26898779      15.09438858      14.40717622
Nb       9.45420883      15.50756936      11.61594475
Nb       9.87495012      10.44043594      14.65026965
Nb       9.56835163      10.87317902      11.28265334
Nb      16.24726081       9.43154791      12.10191018
Nb      16.57269885       9.70803538      14.95397210
Nb      17.03045127      15.81288245      11.46865707
Nb      16.98611775      15.87480100      14.46776085
Nb      11.06844995      17.44223728      10.98249797
Nb      10.70003647      17.22376023      13.83448149
Nb      11.37201916       8.40516750      10.87371974
Nb      11.83137394       8.13813650      13.69211553
Nb       8.03294304      13.47525829      12.24131859
Nb       8.13348394      12.95250357      15.05969382
Nb      17.85231892      11.05967622      13.23476159
Nb      18.20364876      14.11061951      12.99848321
Nb      15.76216233      17.54085145      12.93798135
Nb      12.76432912      18.20793309      12.70234319
Nb       7.79778864      11.18000830      13.26902828
Nb       9.58616047       8.66788899      12.66311931
46
Properties=species:S:1:pos:R:3 config_type=qcd gap_pre_relax_energy=-398.98729707877914 gap_pred_energy=-399.6854245892551 gap_fmax_final=0.000959217755404374 gap_converged=1 pbc="F F F"
Nb      12.13593079      10.90682890      10.71165849
Nb      12.37952997      10.80886413      13.57097007
Nb      14.84198767      11.54060332       9.92252282
Nb      14.87119647      11.56508112      12.73723525
Nb      12.98335340      13.51888734      11.61436360
Nb      12.97251501      13.12879814       8.77073115
Nb      10.61074821      12.85910181       9.82217741
Nb      15.22077857      14.10356079      10.34101845
Nb      12.36961854      15.56674368       9.92381007
Nb      10.63641137      12.88092565      12.84281012
Nb      15.36868270      14.41709626      13.36842743
Nb      12.20752527      15.71556920      13.16293533
Nb      12.41489973      10.86909610      16.34702730
Nb      14.91792185      11.70467691      15.58032618
Nb      13.01231030      13.54912763      14.66335314
Nb      13.17783563      13.24665279      17.51169935
Nb      10.72131686      12.74116188      15.91377469
Nb      15.13128553      14.45684929      16.47747940
Nb      12.19027302      15.54978017      16.38473639
Nb      17.21914718      12.71020393      14.82916751
Nb      17.24226103      12.47402668      11.82597464
Nb      14.20121626      16.57284192      14.95406377
Nb      14.29820636      16.52604812      11.63360079
Nb      13.89452956       9.16425953      11.40159297
Nb      14.40903152       9.25767858      14.79887123
Nb      10.00517917      15.00339148      14.68432861
Nb      10.07851398      15.14990024      11.29940847
Nb       9.85929941      10.23806450      14.54396501
Nb       9.54382067      10.55385661      11.75948089
Nb      16.77719458      10.03092193      10.96453262
Nb      17.17669066      10.30398745      13.80808345
Nb      17.28295017      15.69918324      11.83129694
Nb      17.24972402      15.74367065      14.88995311
Nb      11.49722639      17.86852578      11.68659897
Nb      11.39050758      17.84206121      14.70780997
Nb      10.97856853       8.53969948      12.37785383
Nb      11.49330593       8.45620935      15.19237030
Nb       8.21949587      12.68426436      11.11755787
Nb       8.29712227      12.25759182      13.97421762
Nb      18.64690081      14.19870232      13.32577092
Nb      16.18368758      17.46901298      13.34340718
Nb      13.39552360      18.55244002      13.25634540
Nb      15.97443955       8.39616482      12.73239994
Nb      13.05932724       7.55870973      13.39692987
Nb       9.48815619      17.12962138      13.15862372
Nb       7.98462372      14.50032759      12.84950852
47
Properties=species:S:1:pos:R:3 config_type=qcd gap_pre_relax_energy=-407.3753058914314 gap_pred_energy=-408.3279337984415 gap_fmax_final=0.0009701713571844779 gap_converged=1 pbc="F F F"
Nb      12.41488734      10.65703094      10.02661062
Nb      12.28160340      10.87824920      12.92197809
Nb      15.45166919      11.42483015      10.04586852
Nb      15.43256880      11.42309668      13.24249588
Nb      13.72755330      13.04250155      11.79162745
Nb      13.54242536      12.91518135       9.00329946
Nb      10.85482911      12.70043445      10.62474002
Nb      15.38446904      14.57075884      10.11482662
Nb      12.21887868      14.92570008      10.50886422
Nb      10.81678088      13.11584820      13.35123227
Nb      15.49988701      14.73295386      13.28725163
Nb      12.36362990      15.35705178      13.56574848
Nb      12.00996584      11.28852476      15.86316374
Nb      15.26918363      11.58268098      16.40664161
Nb      13.72193735      13.16131043      14.75001564
Nb      13.51477294      13.33837880      17.50929633
Nb      10.85983898      13.58395013      16.00781432
Nb      15.48540935      14.75916495      16.48912026
Nb      12.52662644      15.58978889      16.49971917
Nb      16.99430688      13.10820976      14.94395892
Nb      17.02370627      12.99724135      11.61566059
Nb      14.36078472      16.73753944      14.93644182
Nb      14.17329210      16.46400470      11.62515633
Nb      14.24629464       9.44985756      11.56302717
Nb      13.96501832       9.71936759      14.86672593
Nb       9.78024671      15.75531271      14.79891040
Nb       9.43901031      15.13736939      11.99002555
Nb       9.37792076      11.08729738      14.32100748
Nb       9.71332786      10.56550584      11.75653209
Nb      17.28276176       9.87109249      11.91082466
Nb      17.11529062      10.00190027      14.91452602
Nb      17.27981617      16.09545606      11.64489321
Nb      17.37925782      16.22279437      14.65087942
Nb      10.98938941      17.31239260      12.18152610
Nb      11.42295113      17.81785822      15.08152956
Nb      11.32604536       8.50690887      11.32938490
Nb      10.76650263       8.93683347      14.11163799
Nb       8.09741217      12.87207436      12.06229952
Nb       8.07334365      13.59626395      14.45063336
Nb      18.53101259      11.51383499      13.36727015
Nb      18.59202242      14.52825469      13.22307864
Nb      16.03297402      17.78405302      13.06231095
Nb      13.03524394      18.40958674      13.28556468
Nb      15.84625515       8.35329115      13.46099947
Nb      12.84165658       7.82021735      13.21131206
Nb       8.78921376      17.71502942      13.50325864
Nb       7.22226482      15.64725526      13.19454901
48
Properties=species:S:1:pos:R:3 config_type=qcd gap_pre_relax_energy=-415.10532719443364 gap_pred_energy=-416.0799030372315 gap_fmax_final=0.0009999578816403628 gap_converged=1 pbc="F F F"
Nb      10.29015938      11.39295419       8.53303880
Nb      10.43537490      11.43602081      11.34777804
Nb      12.77064308      12.24010865       8.71525192
Nb      13.12615341      12.19294636      11.76624594
Nb      11.21708112      13.88481166      10.18757378
Nb      10.96225391      13.81721195       7.25301193
Nb       8.69942545      13.36660895       9.22210206
Nb      12.93120192      15.37326721       8.48118759
Nb       9.94842814      15.72421255       8.45853019
Nb       8.44902991      13.15480641      11.98965961
Nb      12.97859862      15.35924858      11.71070354
Nb       9.65670925      15.60014791      11.76302530
Nb       9.88701456      11.73366327      14.42156961
Nb      12.80048345      12.33732408      14.81535746
Nb      11.19020416      13.90382879      13.23525023
Nb      10.66226823      13.98695473      16.20221354
Nb       8.54325610      14.11010437      14.46821150
Nb      12.74659001      15.39952011      15.04023550
Nb       9.98359209      16.20300830      14.78524302
Nb      14.83258586      13.73973107      13.36144896
Nb      14.60235794      13.75161217      10.01510715
Nb      11.44074637      17.14699457      12.99886975
Nb      11.66615322      17.03351456       9.99725581
Nb      12.09568138       9.51018595      10.24980051
Nb      12.57249099       9.84539265      13.09394072
Nb       7.94590290      10.51426835      12.36181629
Nb       7.75711017      10.97549933       9.93235112
Nb      14.65437526      10.42792976      10.46151899
Nb      15.06246464      10.80009585      13.44046707
Nb      14.60861646      16.80373327      10.22305890
Nb      14.60294651      16.65779611      13.30352465
Nb       9.48265294       8.97183508      10.21084980
Nb      10.12705474       8.85356715      12.79791876
Nb      16.63140605      11.90301037      11.55565364
Nb      16.11838063      15.30483625      11.58745738
Nb      14.46318514       8.04411410      11.79658805
Nb      11.86921882       7.24130577      11.69677361
Nb      16.93495661       9.13531076      11.83503002
Nb      17.30461715      12.85504485      13.92318663
Nb      17.61412399      10.24355513      13.92512124
Nb      15.08187148      14.49064104      15.95186513
Nb      15.68560569      11.99119445      15.89935087
Nb      13.24107884      13.14569102      17.29545124
Nb      11.17117135      11.57918305      17.18503211
Nb      13.66171584      10.08240137      16.02172800
Nb      11.14762786       9.61384963      15.63522205
Nb      15.19106583       8.24638422      14.21511954
Nb      12.67490278       7.39510835      14.15283760
49
Properties=species:S:1:pos:R:3 config_type=qcd gap_pre_relax_energy=-424.9379346475184 gap_pred_energy=-427.3216167616233 gap_fmax_final=0.0009264207192101518 gap_converged=1 pbc="F F F"
Nb      10.39856210      11.26748864       9.10360924
Nb      10.12572526      11.22874277      11.98939920
Nb      12.99566349      11.86795220       8.38795647
Nb      12.75013896      11.88828390      11.31389776
Nb      11.14997385      13.80241245      10.02951386
Nb      11.30342459      13.25249976       7.04880357
Nb       8.99125066      13.41939573       8.19319287
Nb      13.19089419      15.00537650       8.50112150
Nb      10.77890662      15.80992406       7.76724319
Nb       8.50862455      13.20978465      10.96070573
Nb      12.94136217      15.15163422      11.78170257
Nb       9.49531974      15.55486846      12.04706224
Nb       9.61054047      11.15708276      14.92437715
Nb      12.32458426      11.72867419      14.47686671
Nb      10.92582007      13.62883917      13.16279058
Nb      10.51544036      13.44629622      16.21094173
Nb       8.37113773      13.26562616      13.93779362
Nb      12.63135442      14.94641954      15.04230344
Nb       9.62949481      15.51696129      14.98534949
Nb      14.26392068      13.39688994      13.31841357
Nb      14.63238443      13.55112732      10.06990501
Nb      11.37717273      16.69386756      13.44493404
Nb      11.56063592      16.78324154      10.16157881
Nb      12.23128647       9.34427252      10.24447383
Nb      11.69465688       9.31408071      13.12758004
Nb       7.60962246      10.63095323      12.51860408
Nb       7.89744288      10.83867462       9.99124650
Nb      14.83219197      10.31191844       9.81658280
Nb      14.28424473      10.19936944      12.77686851
Nb      14.37856322      16.66021341      10.18814532
Nb      14.89569035      16.10457224      13.76274491
Nb       9.50544245       8.76723046      10.88260153
Nb       9.12287329       8.58458982      13.39075995
Nb      16.09464619      11.98753171      11.64174068
Nb      16.07981285      15.15062849      11.65338498
Nb      14.00346765       7.72010261      11.51959923
Nb      11.36515930       7.00922889      11.94657025
Nb      16.48752793       8.96686868      11.32047993
Nb      16.97329357      13.81090173      13.84974552
Nb      17.31749237      10.37675180      13.28465984
Nb      15.56945577      14.57044191      15.82271018
Nb      15.59920888      11.66081665      14.95805614
Nb      13.63530066      12.94670975      16.55150079
Nb      11.55974812      11.30438838      17.29062058
Nb      13.70588092       9.88019298      15.81839145
Nb      11.22217705       9.18664307      15.86740109
Nb      15.78394583       8.45157700      14.07101829
Nb      13.34925868       7.45100137      14.04056797
Nb       8.95326451      15.82093820       9.42847041
50
Properties=species:S:1:pos:R:3 config_type=qcd gap_pre_relax_energy=-432.9382919029575 gap_pred_energy=-435.93009180487695 gap_fmax_final=0.0009127716949477678 gap_converged=1 pbc="F F F"
Nb      10.52619487      11.47201367       8.79332569
Nb      10.45030538      11.80198217      11.88185849
Nb      13.51348868      12.43676918       8.80904325
Nb      13.68713050      12.64769290      12.10835954
Nb      11.81865173      13.79108125      10.41530801
Nb      11.33914797      13.57320585       7.39993321
Nb       9.27131868      13.75936350       9.51123336
Nb      13.48894671      14.96136714       8.17914783
Nb      10.74417408      15.77774325       8.43717919
Nb       8.90245478      14.55239647      12.14115396
Nb      12.98006377      15.59641015      12.60815865
Nb      10.55848629      16.27851117      11.19694363
Nb      10.10703309      12.01406299      15.28226526
Nb      13.36390838      13.14685936      15.27581703
Nb      11.16832060      13.91331738      13.63001881
Nb      10.85757721      14.44546341      16.55106533
Nb       8.69479668      14.66532833      15.13172085
Nb      12.71121630      16.08591092      15.42387099
Nb      10.37774476      16.48055956      14.18385598
Nb      15.29881672      14.74462805      13.72356560
Nb      14.93564467      14.49157535      10.54581318
Nb      12.35840827      18.08477763      13.09143850
Nb      12.83856017      16.72512113       9.95818852
Nb      12.48601691      10.55900528      10.36779512
Nb      12.33856927      10.87647261      13.72557831
Nb       8.23413644      12.58640915      13.60070673
Nb       8.13697700      11.56302731      10.65161736
Nb      15.61094541      11.22536075      10.77276752
Nb      15.60293840      11.65125778      13.83465232
Nb      15.11619631      17.13586671      11.85384482
Nb      14.55254203      17.57872597      14.32595534
Nb       9.58080124       9.49568839      10.29699375
Nb       9.35466981       9.76913071      13.23670875
Nb      17.22898970      12.90598094      12.00780953
Nb      17.13595496      15.52583250      11.78754061
Nb      14.53066891       9.46859877      12.43191933
Nb      11.40431626       8.77877878      12.11492907
Nb      17.50632762      10.03572680      12.16941696
Nb      17.67468427      13.89502222      14.41549689
Nb      18.21618312      11.22000681      14.41904525
Nb      15.20636315      15.39216364      16.38033042
Nb      16.03035927      12.80013991      16.31315641
Nb      13.42250080      14.15948724      17.75964690
Nb      11.91998807      11.52125542      17.02978207
Nb      14.14265684      10.07516831      15.68807774
Nb      11.22859153       9.04983215      15.23666244
Nb      16.48691463       8.81460603      14.21114934
Nb      13.23122359       7.97966679      14.20171364
Nb      14.25529579      11.66009283      17.93971741
Nb      16.75992389      10.21768086      16.33484668
51
Properties=species:S:1:pos:R:3 config_type=qcd gap_pre_relax_energy=-443.70935866607334 gap_pred_energy=-444.9965171869082 gap_fmax_final=0.0009702990046253389 gap_converged=1 pbc="F F F"
Nb      12.95020524      13.49093254      12.27954337
Nb      13.12856953      16.25574368      12.43559893
Nb      10.31970747      14.50804088      12.03525124
Nb       7.49346532      13.00823295      12.09469982
Nb      10.72917554      17.12188178      12.31440078
Nb      10.11024951      11.63938355      12.08299065
Nb       7.49047422      10.55914616      11.60003793
Nb      10.16866437       8.89692801      11.54139034
Nb      12.84088737      10.71805893      12.12868805
Nb      12.93623224       8.11285131      11.92721171
Nb      11.23672368      12.42322425      14.49701722
Nb       8.40648114      11.41175703      14.42904314
Nb      11.36340764      15.22938889      14.59774318
Nb      11.03339633       9.67522556      14.32308921
Nb       8.55030795      14.01988338      14.10340860
Nb       8.47594511       9.06131338      13.43041438
Nb      11.80265629      12.73285726       9.84255435
Nb      14.60565159      11.81921654       9.97802931
Nb       8.95443169      12.85290292       9.60452053
Nb      12.24009117      15.54958306       9.79213419
Nb      12.12567417       9.93762116       9.53392381
Nb      14.66509165      14.57714906      10.23173539
Nb       9.82909110      15.24215631       9.36652255
Nb       9.43945936      10.32830141       9.42208205
Nb      14.60517623       9.14966763      10.06104223
Nb       9.54794187      13.52767767      16.45213019
Nb      10.02439668      11.09313991      16.81689579
Nb      13.82015982      13.98204463       7.83731899
Nb      11.18033098      13.91130960       7.45846059
Nb      10.56387741      11.43132063       7.38434705
Nb      13.17546414      11.56825086       7.53677154
Nb      12.32801062      13.18988757      16.95385059
Nb      13.96508069      14.13402940      14.76759069
Nb      13.83000631      11.39561203      14.68258060
Nb      15.52824173      12.44954434      12.59250577
Nb      15.85849017      15.14922059      12.78173236
Nb      15.51126844       9.71909486      12.43439981
Nb      12.46212882      10.44619935      16.76103394
Nb      13.66883724       8.69155015      14.28040352
Nb      12.54626427      15.93651619      16.82677877
Nb      14.11455347      16.84960620      14.94891828
Nb      17.32980697      11.16410663      10.79130329
Nb      17.04878574      13.63149274      10.24618069
Nb      15.01073410      14.87505225      17.15647147
Nb      14.81426958      12.25836635      17.17074463
Nb      16.57960035      13.08731194      15.08016000
Nb      16.57578951      15.70727747      15.24739144
Nb      16.25224763      10.39783130      14.95250101
Nb      18.12106482      11.03214205      13.30843967
Nb      18.16347367      13.47210169      12.61977752
Nb      11.74314755      17.84305443      14.52342724
52
Properties=species:S:1:pos:R:3 config_type=qcd gap_pre_relax_energy=-455.6631181999519 gap_pred_energy=-456.3563515853825 gap_fmax_final=0.0008877255949628052 gap_converged=1 pbc="F F F"
Nb      13.18996411      13.38251756      12.28141399
Nb      12.99945639      16.15489933      12.41412450
Nb      10.49440215      14.07801231      12.13136740
Nb       7.92928874      14.81223907      11.85600086
Nb      10.32361292      16.79904678      12.28755645
Nb      10.58409375      11.31210022      12.02598932
Nb       8.06392164      12.15102273      11.79631045
Nb      10.87451522       8.68080106      11.88560216
Nb      13.30871233      10.61191448      12.29107426
Nb      13.42795595       7.97333932      12.17492660
Nb      11.51033895      12.13711195      14.55352023
Nb       8.84959726      12.93281407      14.31363403
Nb      11.44970927      14.88035186      14.56916688
Nb      11.56040755       9.38872462      14.47202984
Nb       8.86893722      15.74758194      14.32300581
Nb       9.05444713      10.25357909      14.25666008
Nb      12.19432634      12.50327201       9.91842787
Nb      14.98619181      11.79897586      10.09133602
Nb       9.49530585      13.19525918       9.62697105
Nb      11.95839741      15.31173964       9.91180510
Nb      12.37168660       9.74929694       9.76122775
Nb      14.72983794      14.52330972      10.13608036
Nb       9.34974126      15.84588523       9.94341819
Nb       9.82150877      10.52958777       9.50750752
Nb      14.93340410       9.13394226      10.18445810
Nb       9.87260777      13.84736733      16.66774511
Nb       9.91857486      11.00951562      16.62044905
Nb      13.56417438      13.48546461       7.78354573
Nb      11.02597540      14.24176611       7.69449733
Nb      11.24968789      11.63088317       7.50312684
Nb      13.78164567      10.91663562       7.81779054
Nb      12.39741297      12.98332584      17.06149356
Nb      14.11889148      14.07518016      14.81685998
Nb      14.15702437      11.30529927      14.87001935
Nb      15.87244214      12.60162543      12.75003245
Nb      15.72107367      15.43858142      12.35300492
Nb      15.99521609       9.82131815      12.51809063
Nb      12.39408127      10.25118342      16.86566065
Nb      14.18490310       8.61999492      14.55945828
Nb      12.45817031      15.76559042      16.91833803
Nb      13.97863287      16.74141368      14.85262410
Nb      17.79888804      11.47702801      10.97713309
Nb      17.34575525      13.89044903      10.39311858
Nb      15.07205882      14.81008922      17.16367833
Nb      14.96905262      12.28195987      17.30888793
Nb      16.93319729      12.89666021      15.42061139
Nb      16.79115956      15.28617482      14.62967817
Nb      16.70511274      10.35300581      14.99783318
Nb      18.55694289      11.30031407      13.44558073
Nb      18.35115327      13.81575193      12.82773507
Nb      11.34826878      17.57270532      14.72011727
Nb       9.95545415      16.54070984      16.59659314
53
Properties=species:S:1:pos:R:3 config_type=qcd gap_pre_relax_energy=-460.3789812233063 gap_pred_energy=-461.99772207481715 gap_fmax_final=0.0009967477042769717 gap_converged=1 pbc="F F F"
Nb      12.90131981      12.51120778      13.14086461
Nb      11.88407496      12.48312879      16.06766902
Nb      13.66309978      10.25120275      14.32131642
Nb      10.84179858      10.77676901      14.20636618
Nb      10.81928873      14.21377115      14.20461278
Nb      13.62113676      14.77073296      14.34828668
Nb      15.97520051      12.53893748      13.53002275
Nb      11.70033497      10.85351330      11.25888615
Nb       9.71116890      12.50923286      12.20325921
Nb      11.74912248      14.16839380      11.22811947
Nb      14.77096012      14.24538045      11.76903707
Nb      14.77979758      10.80853629      11.74801220
Nb      13.47923927      12.51256537       9.86614586
Nb      12.56425503       9.73314959      16.68853626
Nb       9.99593538      10.32131645      16.92824522
Nb       9.91173454      14.55764252      16.92468917
Nb      12.49414013      15.22340019      16.71312456
Nb      14.56517930      12.51081649      15.82415319
Nb      16.28247369       9.79868343      14.36261371
Nb      14.07735644       7.79299940      14.90983559
Nb      11.30111194       8.23100774      15.07488480
Nb       8.52044573       9.38047232      15.25993031
Nb       8.81462371      12.46769731      15.36385533
Nb       8.45376388      15.51263780      15.22878059
Nb      11.19915578      16.72435011      15.15576358
Nb      13.96510736      17.22894312      14.98101811
Nb      16.23036921      15.28843420      14.41494656
Nb      15.46364953       8.29793787      12.51025971
Nb      12.52550299       8.41117067      12.55851849
Nb       9.57131604       9.17795460      12.50235528
Nb       7.79850976      11.05125894      13.27846675
Nb       7.82362260      14.17435325      13.04045559
Nb       9.72952064      15.92373642      12.46034949
Nb      12.54709170      16.61041642      12.54614806
Nb      15.34536559      16.79084354      12.56710190
Nb      17.58540598      14.69897208      12.21984044
Nb      17.61977256      10.46553358      12.14323113
Nb      13.70189106       9.09810721       9.99677386
Nb      10.81470226       8.40632613      10.10092807
Nb       9.04257774      10.40887229      10.08190554
Nb       7.65335746      12.63084630      10.47385040
Nb       9.18657148      14.72710850      10.05206360
Nb      11.10585230      16.61509620       9.91976596
Nb      13.80903278      15.84418212       9.87362970
Nb      16.74632240      15.64098969      10.15739488
Nb      16.70859536      12.55391298      10.46624398
Nb      16.74877801       9.50913808      10.08390504
Nb      11.78564972      10.29423198       8.44039184
Nb      10.41198171      12.51065581       9.12674679
Nb      11.87608834      14.61239310       8.32387021
Nb      15.29143349      13.97090109       8.62975280
Nb      15.06821060      10.84740397       8.54697318
Nb      12.84485440      12.39058550       7.25395294
54
Properties=species:S:1:pos:R:3 config_type=qcd gap_pre_relax_energy=-471.6097200150648 gap_pred_energy=-472.63454571799747 gap_fmax_final=0.0009619279401818955 gap_converged=1 pbc="F F F"
Nb      12.72608838      13.44537558      13.48993794
Nb      12.70056382      13.48323777      16.45822911
Nb      12.85073717      11.00849399      14.73157572
Nb      10.35127669      12.07645239      15.48760362
Nb      10.26759993      14.63296208      14.59131442
Nb      12.80351859      15.82961296      14.96005191
Nb      15.11970679      13.40671157      15.04468318
Nb      15.19345360      13.39038052      11.82016305
Nb      12.91216842      15.85558537      11.80593053
Nb      10.26966581      14.65085964      11.96778990
Nb      10.38590680      12.00673255      12.63517141
Nb      12.88151365      10.97324240      11.72572531
Nb      12.79111262      13.41775786      10.48217986
Nb      12.76929574      11.11835454      17.81188633
Nb      10.51123371      12.20133620      18.22040583
Nb      10.37446628      14.70664466      17.31523538
Nb      12.64286116      15.98077496      18.04639705
Nb      14.70600241      13.58074467      18.25049232
Nb      15.11544781      11.04753290      16.59240865
Nb      12.92094245       8.66895014      15.98103629
Nb      10.67292884       9.69352932      16.35710922
Nb      10.40989402      17.10790899      16.38565438
Nb      12.74133616      18.15095837      16.10801368
Nb      15.00119084      15.78812232      16.75287605
Nb      17.16993170      13.44874439      16.68002872
Nb      15.25716110      11.07938795      13.33145934
Nb      13.07067334       8.52481997      12.86831029
Nb      10.75689466       9.52046463      13.53666247
Nb      10.70482110      17.20322396      13.75808436
Nb      13.06250611      18.20691814      13.05152259
Nb      15.24603187      15.69421713      13.44698209
Nb      17.50829320      13.37292937      13.50810126
Nb      17.36601559      13.33660368      10.30413196
Nb      15.20416189      15.69734208      10.13842824
Nb      13.47688720      18.23299231      10.07184242
Nb      11.13787136      17.51105202      10.72434392
Nb      10.91554252       9.43845517      10.77105944
Nb      13.23405088       8.65502587       9.90797136
Nb      15.09348057      11.11211919       9.99338284
Nb      14.73897962      13.36008233       8.53767326
Nb      12.96386454      15.94085446       8.74914158
Nb      10.65098897      15.10886595       9.49679921
Nb      10.51756788      12.03363242       9.92052526
Nb      12.66777619      10.97680713       8.71522372
Nb      12.26111149      13.39935892       7.71707477
Nb      17.32082851      11.24456562      15.18231978
Nb      17.32110974      15.54418437      15.16341143
Nb      17.48158275      11.26041396      11.84016842
Nb      17.47228411      15.45355846      11.77618624
Nb      15.17797790       8.93554137      14.84724059
Nb      15.11878228      17.86535448      15.07004656
Nb      15.23350835       8.95357931      11.52407874
Nb      15.33743096      17.83559231      11.85692275
Nb      12.27861251      13.69669185      19.35464585
55
Properties=species:S:1:pos:R:3 config_type=qcd gap_pre_relax_energy=-484.61450797892127 gap_pred_energy=-485.1005921272278 gap_fmax_final=0.0007674056872700041 gap_converged=1 pbc="F F F"
Nb       8.31941053      11.19645956      14.40161293
Nb      14.96100113      13.23250203      10.98594432
Nb      12.77290404       8.95362521      16.09405264
Nb      10.42794134      10.78991957       9.52231105
Nb      14.99814172      13.43627608      14.20500199
Nb      12.69299724      12.94900124       6.42052703
Nb      10.51392042      11.08237342      12.79034811
Nb       8.28277877      10.99582211      11.22916895
Nb      12.71668190      13.11585365       9.43380770
Nb      12.81473510      11.36563184      17.56205345
Nb      10.50391601      11.20395214      16.07021035
Nb      12.77115530      13.47827061      12.61215783
Nb      10.51319303      15.39707409       9.27501495
Nb       8.33420895      15.37560026      10.91079517
Nb      12.79042991      13.51924013      15.81131652
Nb      10.39278532      15.77006581      12.49499718
Nb      12.70357201      10.75906451       7.96851482
Nb      17.14986537      13.10003643       9.44293746
Nb      14.96449170      10.75878369       9.46471073
Nb      12.71316567      10.88451367      11.13690250
Nb      17.27160356      13.28958181      12.57159176
Nb      15.00403295      10.95022862      12.74620991
Nb      12.75101661      11.09111077      14.40385056
Nb       8.30577497      13.20338513       9.52827284
Nb      15.04036714      11.17366546      16.02565659
Nb      12.73298425      15.18885608       7.65071770
Nb       8.37844637      13.60067532      15.80926201
Nb      14.96594967      15.35527743       9.22776594
Nb      12.75719834      15.68631000      10.78771701
Nb      10.60565253      13.68764942      17.42121693
Nb      15.14416934      15.73893405      12.44133576
Nb      12.79568741      15.89864703      14.14358102
Nb      12.83689406      13.73349243      18.82133086
Nb      10.42823291       8.66371722      11.36992307
Nb      17.13261831      11.02303711      11.04613397
Nb      17.22213142      13.49621587      15.70127258
Nb      10.46475424       8.86215131      14.50672951
Nb      17.17111992      11.23369765      14.37360179
Nb      15.03188278      13.64474379      17.38299965
Nb      10.49502359      13.08352230       7.86678410
Nb      17.16427768      15.32190290      10.83547525
Nb       8.37179149      15.58136134      14.16352097
Nb      10.51013738      13.28072122      11.03009103
Nb       8.35694755       8.99034988      12.94800616
Nb      10.58775925      15.80545514      15.73251440
Nb      10.54740172      13.48482898      14.25880216
Nb       8.20370817      13.37044741      12.67244612
Nb      12.84489926      15.80037129      17.31803387
Nb      14.77172382       8.61885337      11.17454462
Nb      12.69886177       8.55128192       9.73008391
Nb      15.04035123      15.76376160      15.68103515
Nb      14.81168941       8.83580864      14.60451983
Nb      12.66999109       8.63694786      12.92035451
Nb      17.20120979      15.52479841      14.03984716
Nb      14.92108459      13.03881518       7.80705555
