3
Properties=species:S:1:pos:R:3 config_type=qcd gap_pre_relax_energy=-7.862748123790195 gap_pred_energy=-7.869100895887363 gap_fmax_final=0.00039433744276376454 gap_converged=1 pbc="F F F"
Ni      15.99463792      15.74679938      14.80921987
Ni      14.44220353      14.97083159      16.12757559
Ni      14.56315855      14.28236902      14.06320454
4
Properties=species:S:1:pos:R:3 config_type=qcd gap_pre_relax_energy=-11.686791942306087 gap_pred_energy=-11.752494428610923 gap_fmax_final=0.0008281165571821391 gap_converged=1 pbc="F F F"
Ni      14.56716682      15.89032401      15.96477079
Ni      14.06501179      13.99319158      14.84925051
Ni      16.20841701      14.45225795      15.38769692
Ni      15.15940438      15.66422646      13.79828177
5
Properties=species:S:1:pos:R:3 config_type=qcd gap_pre_relax_energy=-15.650787529165466 gap_pred_energy=-15.800380546392695 gap_fmax_final=0.0006920535667045334 gap_converged=1 pbc="F F F"
Ni      14.63979993      16.23132443      15.52279374
Ni      16.33832963      14.66181172      14.88306663
Ni      15.03509149      15.70313091      13.36782321
Ni      14.02183857      14.10685739      14.59412258
Ni      14.96494039      14.29687555      16.63219385
6
Properties=species:S:1:pos:R:3 config_type=qcd gap_pre_relax_energy=-20.25334103804033 gap_pred_energy=-20.279908604321154 gap_fmax_final=0.000414161757381256 gap_converged=1 pbc="F F F"
Ni       7.89728183       8.53319941       9.56514356
Ni       8.54456924       9.49934740       7.57043726
Ni       6.47877143       8.48257007       7.74389174
Ni       7.49550905       6.54071333       8.46963811
Ni       9.56130365       7.55751550       8.29617519
Ni       8.14280179       7.50689127       6.47495113
7
Properties=species:S:1:pos:R:3 config_type=qcd gap_pre_relax_energy=-24.009559027402393 gap_pred_energy=-24.017821887510767 gap_fmax_final=0.0007058469831935112 gap_converged=1 pbc="F F F"
Ni      16.34848756      15.49342496      14.72639666
Ni      14.98852093      17.22163429      14.04585801
Ni      15.72411908      14.19885763      16.57478079
Ni      15.62700704      13.28386119      14.44523076
Ni      14.37086218      15.98012751      15.88335789
Ni      14.27272628      15.05625282      13.73332949
Ni      13.66827692      13.76584159      15.59104639
8
Properties=species:S:1:pos:R:3 config_type=qcd gap_pre_relax_energy=-28.19809689545155 gap_pred_energy=-28.261714565808887 gap_fmax_final=0.0006960354875071728 gap_converged=1 pbc="F F F"
Ni      15.68061773      13.61390208      15.27713245
Ni      15.50353181      15.10666193      13.51794319
Ni      17.12584797      15.46243109      15.17322519
Ni      13.77929803      13.55955890      13.90557141
Ni      13.52431491      13.88489282      16.15861039
Ni      15.17043743      15.53197970      16.46599944
Ni      15.57036803      17.09314106      14.76251020
Ni      13.64558410      15.74743243      14.73900773
9
Properties=species:S:1:pos:R:3 config_type=qcd gap_pre_relax_energy=-32.44037268276968 gap_pred_energy=-32.49517099000714 gap_fmax_final=0.0008926524636912512 gap_converged=1 pbc="F F F"
Ni      14.01586677      16.47364006      15.00415795
Ni      13.44202365      14.23912248      15.36576496
Ni      13.49725732      15.08851098      13.16179973
Ni      15.13124803      13.57646132      13.95274236
Ni      15.24561876      12.98694212      16.23784455
Ni      16.25718007      16.92456507      15.60057318
Ni      15.00822452      15.28104561      16.74961753
Ni      15.70516189      15.81120705      13.59110988
Ni      16.69741899      14.61850533      15.33638986
10
Properties=species:S:1:pos:R:3 config_type=qcd gap_pre_relax_energy=-36.33617742862777 gap_pred_energy=-36.35537571938498 gap_fmax_final=0.0007332955708151302 gap_converged=1 pbc="F F F"
Ni      14.71005576      17.78443143      15.11082262
Ni      14.18549190      15.85989387      16.23449245
Ni      14.22078362      15.95981015      13.81727898
Ni      13.74966247      13.84162053      17.22353108
Ni      13.71302116      13.87477403      14.93461444
Ni      13.81668874      14.03048225      12.65279279
Ni      16.28692830      16.12525544      15.06537793
Ni      15.77913076      14.04019048      16.18272291
Ni      15.81455949      14.14006565      13.76550367
Ni      17.72367779      14.34347616      15.01286316
11
Properties=species:S:1:pos:R:3 config_type=qcd gap_pre_relax_energy=-40.88995391353228 gap_pred_energy=-40.93012901856847 gap_fmax_final=0.0009592317799727995 gap_converged=1 pbc="F F F"
Ni      14.35953647      16.75056298      14.99229098
Ni      12.45984126      15.30452349      14.75290939
Ni      16.37107192      15.50232706      15.15520608
Ni      13.25669303      13.12620886      14.76228826
Ni      15.64050285      13.24949983      15.00767845
Ni      14.44246555      14.79014137      13.65785739
Ni      14.18652103      14.70740726      16.18688531
Ni      15.47239759      16.41692841      17.09173406
Ni      16.26938586      14.23865240      17.10128614
Ni      15.87235234      16.54605650      13.14120774
Ni      16.66923211      14.36769183      13.15065620
12
Properties=species:S:1:pos:R:3 config_type=qcd gap_pre_relax_energy=-45.47966918071422 gap_pred_energy=-45.508773039582174 gap_fmax_final=0.0008943412451253686 gap_converged=1 pbc="F F F"
Ni      11.73864884       9.75661839      12.04019560
Ni       9.52029556       9.00608574      12.09192603
Ni       7.83264440      10.24344975      10.94097482
Ni      10.80094007       8.83567225      10.09364822
Ni       8.53230903       8.11744729      10.10730888
Ni       9.07070128      10.10421639       8.91346478
Ni       8.42025573      12.18934548       9.77677487
Ni       9.79623970       8.00907912       8.13805974
Ni      11.24572188       9.84277587       7.98412214
Ni      10.08351760      11.01537743      10.94813375
Ni      12.23353741      10.73174265       9.96864058
Ni      10.54585383      11.96885495       8.81741589
13
Properties=species:S:1:pos:R:3 config_type=qcd gap_pre_relax_energy=-49.798165296276835 gap_pred_energy=-49.83651470603765 gap_fmax_final=0.0009355387969722361 gap_converged=1 pbc="F F F"
Ni       8.37677299      10.61134917       6.91617530
Ni       8.29905154       8.27897179       6.96314093
Ni       8.47626329       6.06268468       7.56254088
Ni      10.36406952       9.32893637       6.93429753
Ni      10.10870657       7.56465385       8.56180543
Ni       6.80853248       9.51082114       8.30633073
Ni       6.31877893       7.20424260       7.70704278
Ni       9.09721859       9.68374339       8.91507687
Ni       7.47033924       9.39247909      10.62466293
Ni       5.67189083       8.13525688       9.76487607
Ni       9.58315650       8.33531334      10.73730277
Ni       7.89477102       7.49820662       9.36004169
Ni      10.19831298       7.06120557       6.31457059
14
Properties=species:S:1:pos:R:3 config_type=qcd gap_pre_relax_energy=-54.206431904136466 gap_pred_energy=-54.24646899866458 gap_fmax_final=0.000844090828929039 gap_converged=1 pbc="F F F"
Ni      15.89354894      16.82890559      12.79344193
Ni      15.36132312      12.94102769      12.84536989
Ni      16.35015456      14.79918425      13.80139504
Ni      16.73658567      16.83984848      14.99457099
Ni      14.51721840      16.35081446      14.60581632
Ni      15.93922126      14.88654291      16.11860201
Ni      14.28698323      15.06610828      12.64681722
Ni      15.13679145      16.93327767      16.82165349
Ni      16.17872999      12.76185932      15.04905737
Ni      14.17084250      13.81846800      14.63979953
Ni      12.47734361      15.33451749      14.22007643
Ni      14.61956891      13.14966090      16.87252037
Ni      14.87038274      15.06085558      18.20553439
Ni      13.46130564      15.22892938      16.38534501
15
Properties=species:S:1:pos:R:3 config_type=qcd gap_pre_relax_energy=-58.70220422557947 gap_pred_energy=-58.72331591268034 gap_fmax_final=0.0006398837053604903 gap_converged=1 pbc="F F F"
Ni       6.75294745       7.64799528      10.11968709
Ni       8.82876907       9.64456286       7.51221936
Ni       8.86543459       8.22840111      11.15441642
Ni      10.94400320      10.55488425       7.67802775
Ni      10.81470935       8.14281997       7.86690519
Ni       8.87996353       7.55475424       6.53224331
Ni      10.77957609       7.31791286      10.09031190
Ni       8.81692998      10.64824489      11.26541930
Ni      10.16514374       9.51838874       9.66870704
Ni       8.79122548       7.52129325       8.90602372
Ni       9.15860081      11.47850554       9.02089790
Ni       6.91767591       8.22113773       7.77693940
Ni       7.63543798       9.69688881       9.52484048
Ni      10.42105957       9.18532724       5.84644165
Ni       6.92832076       9.33868073      11.73671698
15
Properties=species:S:1:pos:R:3 config_type=qcd gap_pre_relax_energy=-58.9018163543341 gap_pred_energy=-58.94298929058336 gap_fmax_final=0.0006737652076589415 gap_converged=1 pbc="F F F"
Ni      13.16547889      12.77170334      14.74740683
Ni      11.24896252      11.62173221      15.38733146
Ni      11.26432207      13.93355848      15.41132187
Ni      12.37141252      10.83389438      13.46859334
Ni      10.90516676      12.80059203      13.41316478
Ni      12.39746008      14.74601596      13.50920834
Ni      14.76743864      13.99810249      13.39477704
Ni      14.75112256      11.55235648      13.36937787
Ni      13.03372818      12.79706398      12.38910013
Ni      12.99584365      12.82144652      10.06638911
Ni      11.32243316      11.59627143      11.34548053
Ni      13.62100739      10.80464748      11.35097435
Ni      11.33873796      14.04196783      11.37089021
Ni      13.64767855      14.80259914      11.39251799
Ni      15.08582965      12.79467085      11.30008876
16
Properties=species:S:1:pos:R:3 config_type=qcd gap_pre_relax_energy=-63.42230517204278 gap_pred_energy=-63.4525945002745 gap_fmax_final=0.0007938567919649695 gap_converged=1 pbc="F F F"
Ni       9.07203227       8.44965386      10.54286521
Ni       7.15984799       7.24209338      11.08573301
Ni       7.19516315       9.60544392      11.22018877
Ni       9.31249313      10.66448515      11.21076785
Ni       8.37660974       6.58575176       9.17198579
Ni       6.79993162       8.48008790       9.16620084
Ni       8.10478560      10.55460650       9.24199287
Ni      10.49412136       9.95221153       9.29499894
Ni      10.72616229       7.46149207       9.11234468
Ni       8.92716875       8.62747105       8.17109340
Ni       8.94293127       8.70251659       5.84703658
Ni       7.31906099       7.34597861       7.06903419
Ni       9.67152828       6.71823078       7.07915035
Ni       7.16293174       9.77526074       7.12900713
Ni       9.42022537      10.68645237       7.19113456
Ni      11.00516646       8.83842381       7.15662585
16
Properties=species:S:1:pos:R:3 config_type=qcd gap_pre_relax_energy=-63.05623131415163 gap_pred_energy=-63.10293792006708 gap_fmax_final=0.0008511645104659744 gap_converged=1 pbc="F F F"
Ni      12.41764396      10.82879417      12.41734071
Ni      12.72638481      11.39370973      10.06113739
Ni      12.41050114       9.02582122      10.79285740
Ni      10.75239557       8.98586196      12.55870547
Ni      11.26741933      12.77867210      11.54284142
Ni      12.29940591      11.72279190       7.76389301
Ni      10.04920453      11.29444067      13.02004106
Ni       8.92107037       9.48025056      13.83602868
Ni      10.68606630      10.60791000      10.88364804
Ni      10.10267206       8.43155613      10.25985909
Ni       8.60442712       9.83198406      11.59355495
Ni       8.96078358      12.18065135      11.00908555
Ni      11.35633055       9.84279663       8.75354156
Ni      10.60613245      12.30583777       9.24577684
Ni       9.01664835      10.42488947       9.25506318
Ni      10.10862564      11.14974396       7.29233734
17
Properties=species:S:1:pos:R:3 config_type=qcd gap_pre_relax_energy=-67.88333175906553 gap_pred_energy=-67.9196973344259 gap_fmax_final=0.0007440696267442199 gap_converged=1 pbc="F F F"
Ni      10.98475642      10.69399090       8.58041274
Ni      10.18604275       9.15527735      10.37138217
Ni      12.48822440      12.33193734       9.70680687
Ni      10.18238622      12.91867585       9.03658962
Ni      10.60365079      11.42872994      10.77302973
Ni       8.75247077      10.94549041       9.44930293
Ni       8.70635085      10.53946238      11.82293767
Ni      11.00093041      13.70572506      11.16067036
Ni      12.46354214      12.04892644      12.10939627
Ni      12.45244617      10.00143578      10.35537569
Ni      11.94840297       8.10325084      11.55975754
Ni      14.27221072      11.30958252      10.88884933
Ni      10.90360783       9.89655144      12.55970089
Ni       8.76258208      12.82242906      11.05730830
Ni      10.20237929      12.17710591      12.96013271
Ni      13.24460344       9.88761579      12.55531286
Ni      11.96499696      11.15339717      14.17261850
17
Properties=species:S:1:pos:R:3 config_type=qcd gap_pre_relax_energy=-67.9541094591423 gap_pred_energy=-67.98633451474569 gap_fmax_final=0.0008920644150906122 gap_converged=1 pbc="F F F"
Ni      13.32132258      12.66663205      14.60486235
Ni      11.27697308      11.56865240      15.10364529
Ni      11.57089114      13.98107110      15.31086090
Ni      13.75143912      14.86960453      15.22277519
Ni      12.58903496      10.77689731      13.28008194
Ni      11.00060414      12.92209487      13.26460770
Ni      12.48888156      14.83175966      13.28414211
Ni      14.82272026      14.05335046      13.29009216
Ni      14.90963455      11.56612366      13.16006661
Ni      13.14064278      12.82019643      12.24329119
Ni      13.06250803      12.81522141       9.91808782
Ni      11.41202622      11.58587413      11.27679676
Ni      13.77779483      10.86021433      11.14851140
Ni      11.44856573      14.07631315      11.19375693
Ni      13.74701838      14.81303650      11.19117767
Ni      15.19605861      12.87740274      11.15486809
Ni      10.27984710      10.71151833      13.14833896
18
Properties=species:S:1:pos:R:3 config_type=qcd gap_pre_relax_energy=-72.47060562749931 gap_pred_energy=-72.5096181086904 gap_fmax_final=0.000823555323611597 gap_converged=1 pbc="F F F"
Ni       9.25369931       8.72675460      10.58771134
Ni       7.15204682       7.70812234      11.05190988
Ni       7.53065482      10.09536370      11.25618231
Ni       9.74773525      10.91261011      11.20160594
Ni       8.52531505       6.84562352       9.30828741
Ni       6.94508681       9.04635780       9.20204723
Ni       8.50515958      10.91423852       9.25299878
Ni      10.81162135      10.05141593       9.27835223
Ni      10.82725065       7.58530923       9.14016420
Ni       9.08876497       8.88483850       8.21927453
Ni       9.06059624       8.93918181       5.88079599
Ni       7.30140993       7.80529711       7.13859304
Ni       9.58503324       6.88368085       7.12385773
Ni       7.46621339      10.23942832       7.15126917
Ni       9.80359044      10.85794889       7.18580793
Ni      11.14430143       8.83132489       7.12767800
Ni       6.24707475       6.78018691       9.00155583
Ni       7.67725596       5.56512696       7.56471850
18
Properties=species:S:1:pos:R:3 config_type=qcd gap_pre_relax_energy=-72.4132624177172 gap_pred_energy=-72.48779524872072 gap_fmax_final=0.00046308900346045607 gap_converged=1 pbc="F F F"
Ni      12.81723472      12.79788269      14.35384098
Ni      13.47411592      10.72321188      14.95845937
Ni      11.05425333      11.52700217      14.96871341
Ni      11.07115665      14.07629329      15.00060632
Ni      13.50076933      14.84818233      15.01002546
Ni      14.98607551      12.77627598      14.98391754
Ni      12.15023442      10.80708926      12.99756335
Ni      10.70162844      12.82851746      13.02275243
Ni      12.17656770      14.83063545      13.04746781
Ni      14.53659523      14.04690380      13.03753615
Ni      14.52051065      11.56017392      13.00669605
Ni      12.81701827      12.82783117      11.95221364
Ni      12.81685377      12.85626993       9.64983787
Ni      11.12070896      11.62489911      10.92871532
Ni      13.44880138      10.85158946      10.91903492
Ni      11.13678567      14.07781363      10.95904856
Ni      13.47476467      14.82053197      10.96802945
Ni      14.90367480      12.82664592      10.94329080
19
Properties=species:S:1:pos:R:3 config_type=qcd gap_pre_relax_energy=-77.00237737125421 gap_pred_energy=-77.03898617912392 gap_fmax_final=0.0009068836282730927 gap_converged=1 pbc="F F F"
Ni       7.04018644       9.44297519       9.50043961
Ni      10.34815119       7.78144466      11.08539916
Ni      10.12649239       9.10430295      13.09184646
Ni      11.33069666      11.20498241      12.83838329
Ni      12.91128061      10.79545917       8.49881263
Ni       8.36559520      11.20525644      10.26565468
Ni       8.28753793       9.08785267      11.46344135
Ni      11.74825254       8.95406007       9.49632696
Ni      12.26140943       9.12612768      11.87725935
Ni       8.96035363      11.18210022      12.59155042
Ni      10.56297331      10.89676882       8.73412281
Ni      10.33419848      10.12284932      11.00230463
Ni      11.71639527      12.85758735       9.09223762
Ni      10.31544023      12.47194503      10.96457082
Ni       9.32329580      12.83450977       8.84283918
Ni      13.87956122       9.50898161      10.21278896
Ni       8.31597949      10.75111478       8.02013015
Ni      12.39131399      11.24407363      10.68497652
Ni       9.28352818       8.93025024       9.23955738
19
Properties=species:S:1:pos:R:3 config_type=qcd gap_pre_relax_energy=-77.09601321876077 gap_pred_energy=-77.14396293720671 gap_fmax_final=0.0007579646916951669 gap_converged=1 pbc="F F F"
Ni      13.39937225      13.38355329      14.54240693
Ni      13.39991606      13.35246072      16.80714994
Ni      14.03605985      11.37170289      15.45544410
Ni      11.69496849      12.14761683      15.46650446
Ni      11.70945941      14.61361299      15.50034452
Ni      14.05947252      15.36198841      15.51018769
Ni      15.49753821      13.35835238      15.48241312
Ni      12.72996650      11.38008330      13.37162215
Ni      11.27190174      13.41160656      13.39967467
Ni      12.75348383      15.42601731      13.42709614
Ni      15.12743912      14.63957072      13.41598665
Ni      15.11291760      12.13889825      13.38170392
Ni      13.39906465      13.41489941      12.25606991
Ni      13.39900149      13.44591441       9.99131009
Ni      11.69456784      12.20457440      11.29884637
Ni      14.03571915      11.42892606      11.28800872
Ni      11.70876411      14.67054950      11.33264790
Ni      14.05866492      15.41918703      11.34269277
Ni      15.49695497      13.41571827      11.31512265
20
Properties=species:S:1:pos:R:3 config_type=qcd gap_pre_relax_energy=-81.6727287029674 gap_pred_energy=-81.7117689292448 gap_fmax_final=0.0008045204547505591 gap_converged=1 pbc="F F F"
Ni      13.53661326      13.27314365      14.53223212
Ni      13.45767592      13.29072970      16.78832400
Ni      14.17790743      11.27117244      15.46195926
Ni      11.85134447      12.00592383      15.46491420
Ni      11.79066005      14.53771946      15.35848270
Ni      14.22086529      15.23951629      15.52258177
Ni      15.62267625      13.24270952      15.49699048
Ni      12.89867551      11.24699752      13.36076540
Ni      11.38655811      13.17704315      13.38740828
Ni      12.99953135      15.37830462      13.42667373
Ni      15.29573767      14.51840624      13.41903819
Ni      15.25897009      12.03155894      13.37945687
Ni      13.54262604      13.30923416      12.25759489
Ni      13.47555946      13.39853802      10.00282886
Ni      10.69087007      15.37815556      13.42065380
Ni      11.86250723      12.07235124      11.27625599
Ni      14.18911790      11.33778997      11.26824205
Ni      11.80091572      14.59966179      11.46281428
Ni      14.23189281      15.30608120      11.33384253
Ni      15.63372623      13.30939348      11.30337144
21
Properties=species:S:1:pos:R:3 config_type=qcd gap_pre_relax_energy=-86.17708968551136 gap_pred_energy=-86.26504048776938 gap_fmax_final=0.0008290565536276016 gap_converged=1 pbc="F F F"
Ni      13.78775262      13.50529617      14.64122775
Ni      13.61400406      13.49579842      16.87969263
Ni      14.45407274      11.53179151      15.61877856
Ni      12.05084426      12.19613680      15.45030886
Ni      12.06488861      14.82548543      15.46237497
Ni      14.47490536      15.46245410      15.63701819
Ni      15.87181385      13.48975029      15.61227576
Ni      13.26342847      11.41160377      13.50271721
Ni      11.57000517      13.52238673      13.51586269
Ni      13.28598226      15.61485781      13.52199329
Ni      15.55077761      14.73767523      13.51363998
Ni      15.53758687      12.26463306      13.50226759
Ni      13.78332268      13.51569261      12.38154192
Ni      13.60048264      13.52681268      10.14381993
Ni      10.97042225      11.29525084      13.50685838
Ni      10.99441757      15.75583932      13.52720366
Ni      12.04308854      12.21403929      11.56740698
Ni      14.44572569      11.55140826      11.38315323
Ni      12.05718736      14.84328928      11.57938887
Ni      14.46669320      15.48181776      11.40107356
Ni      15.86369873      13.50908121      11.40249654
21
Properties=species:S:1:pos:R:3 config_type=qcd gap_pre_relax_energy=-86.11232047176841 gap_pred_energy=-86.13180970444492 gap_fmax_final=0.0008089162259502631 gap_converged=1 pbc="F F F"
Ni      17.88929679      14.28779954      15.20526936
Ni      17.56516841      16.39871223      14.40002792
Ni      17.15082003      16.05030824      16.88757179
Ni      16.67884867      13.55112066      16.99455968
Ni      16.03091718      17.77290818      15.38338085
Ni      16.52079851      14.57403155      13.27197691
Ni      15.58778945      15.28716404      15.51580824
Ni      15.99684963      12.89084349      14.80564357
Ni      15.14435817      14.92455092      17.97854562
Ni      14.82107260      17.03534254      17.17270422
Ni      15.42243946      16.63366670      13.37729975
Ni      14.37458053      13.26722402      16.44457861
Ni      15.04358646      12.84932889      12.65454399
Ni      13.80025547      17.01016749      15.01633331
Ni      13.27634866      15.32687943      16.54991011
Ni      13.89616231      14.46083470      14.03130009
Ni      14.71209456      15.00854712      11.83062482
Ni      13.80542118      12.09549701      14.48480190
Ni      13.14266105      16.41393717      12.83691788
Ni      12.23593916      13.50092959      15.49105463
Ni      11.90459176      15.66020649      14.66714671
22
Properties=species:S:1:pos:R:3 config_type=qcd gap_pre_relax_energy=-90.77999053306712 gap_pred_energy=-90.82042412072232 gap_fmax_final=0.0007230237157070901 gap_converged=1 pbc="F F F"
Ni       9.49916199      11.77704760       9.90867752
Ni      10.81939738       9.82671403       6.72742726
Ni      11.50638768      10.91562995       8.80739925
Ni       9.60262671      11.84409126       7.44805315
Ni       8.34194374       9.90825714       6.54565929
Ni       7.50231527      11.14861913       8.56884354
Ni       6.06837074       9.90097065       7.17262432
Ni       7.29865316       7.78775195       6.39903357
Ni       5.91554564       9.83101521       9.73191415
Ni       7.35016493       8.61728572       8.49160479
Ni       8.10553563       9.90151675      10.60992126
Ni       9.49532153       7.84842255       7.26098274
Ni       9.46857149       9.89094371       8.58987209
Ni      10.56230590       9.68750535      10.72437069
Ni      11.39649109       8.45522296       8.71429233
Ni       9.25948380       7.91739982       9.71298459
Ni      10.45790905       6.18277449       8.80226294
Ni      11.11878291       7.28448768      10.87258489
Ni       9.13284095       8.14022051      11.99528996
Ni       8.01939647       6.36980187       8.44753494
Ni       7.10818422       7.71591728      10.64334304
Ni       8.89843969       5.97623438      10.75315368
23
Properties=species:S:1:pos:R:3 config_type=qcd gap_pre_relax_energy=-95.47646089498095 gap_pred_energy=-95.51687963501074 gap_fmax_final=0.0007789440358897621 gap_converged=1 pbc="F F F"
Ni      14.18429034      13.49944164      14.67763042
Ni      13.98468844      13.48132329      16.91703698
Ni      14.71541526      11.49517742      15.62386845
Ni      12.32860584      12.24537757      15.53088806
Ni      12.35799923      14.78041820      15.55398543
Ni      14.76154654      15.47327127      15.66003473
Ni      16.21954716      13.46721925      15.63261126
Ni      13.49350221      11.43341020      13.49876533
Ni      12.17981029      13.53327500      13.51510660
Ni      10.34012920      13.56645391      12.22289654
Ni      13.54191669      15.60196954      13.53658028
Ni      15.87291952      14.75801045      13.53366555
Ni      15.84354550      12.22301697      13.51071103
Ni      14.18898269      13.52036337      12.36027165
Ni      13.99846426      13.54272195      10.12008692
Ni      10.33497968      13.54294438      14.80024088
Ni      11.04450956      11.55714101      13.49477205
Ni      11.09074312      15.53534456      13.53108259
Ni      12.33674168      12.28217324      11.47692630
Ni      14.72392168      11.53346451      11.38020226
Ni      12.36619229      14.81711779      11.49991510
Ni      14.77002678      15.51162095      11.41611483
Ni      16.22804697      13.50526848      11.41313171
23
Properties=species:S:1:pos:R:3 config_type=qcd gap_pre_relax_energy=-95.593398650107 gap_pred_energy=-95.64823542671401 gap_fmax_final=0.0005555018173828992 gap_converged=1 pbc="F F F"
Ni      11.28469820      11.28425919      11.28425222
Ni      11.28438051      11.28425321      13.74102969
Ni       9.21406945      11.28425058      10.00659404
Ni       7.27658161      11.28425197      11.28425358
Ni      14.59042939      11.28425218      11.28425241
Ni      11.28437959      11.28425359       8.82747533
Ni      10.64444732       9.31529760      10.00647638
Ni      12.95926164      10.06724090      10.00628391
Ni      12.95926460      12.50126593      10.00627945
Ni      10.64444742      13.25321155      10.00647066
Ni       9.21406959      11.28425097      12.56191226
Ni      10.64444734      13.25321098      12.56203534
Ni      12.95926430      12.50126452      12.56222474
Ni      12.95926308      10.06724008      12.56222166
Ni      10.64444858       9.31529889      12.56202786
Ni      10.04563613       7.47270254      11.28425411
Ni      14.52647673       8.92846240      11.28425164
Ni      14.52647658      13.64004184      11.28425356
Ni      10.04563520      15.09580342      11.28425371
Ni      12.30585146      14.42876643      11.28425368
Ni       8.60921961      13.22775568      11.28425325
Ni       8.60921362       9.34074573      11.28425375
Ni      12.30585385       8.13973562      11.28425260
24
Properties=species:S:1:pos:R:3 config_type=qcd gap_pre_relax_energy=-100.0417294155704 gap_pred_energy=-100.0719352013548 gap_fmax_final=0.0009887087884639673 gap_converged=1 pbc="F F F"
Ni      14.23121830      13.34628003      14.75687691
Ni      14.01597124      13.26305479      16.99896612
Ni      14.74236475      11.31868783      15.66306387
Ni      12.34821002      12.11524903      15.58191690
Ni      12.41232810      14.62376479      15.65082918
Ni      14.86051579      15.25382200      15.83370890
Ni      16.27716908      13.25153440      15.69783341
Ni      13.52869501      11.30769472      13.55398069
Ni      12.23067913      13.42365400      13.57508759
Ni      10.35832589      13.39511106      12.30911143
Ni      13.66159817      15.51705746      13.74771883
Ni      12.69380712      16.74011632      12.05469956
Ni      15.92784903      14.60589197      13.62808112
Ni      15.88134299      12.09721063      13.54902458
Ni      14.21551813      13.41349982      12.43310154
Ni      14.06201029      13.37627841      10.17826032
Ni      10.37675194      13.50426753      14.82603478
Ni      11.08225729      11.44300139      13.57609677
Ni      11.24864646      15.47867563      13.47209195
Ni      12.37857305      12.11601032      11.54780018
Ni      14.77828722      11.42409505      11.44949561
Ni      12.32958779      14.55615818      11.44090958
Ni      14.63585462      15.46143963      11.52343465
Ni      16.22937542      13.47438181      11.45881233
24
Properties=species:S:1:pos:R:3 config_type=qcd gap_pre_relax_energy=-99.52809373263538 gap_pred_energy=-99.63342860773103 gap_fmax_final=0.0009654363111576016 gap_converged=1 pbc="F F F"
Ni      16.42919025      14.04948607      18.23439154
Ni      17.93099368      15.36272218      16.55500075
Ni      15.57951185      12.15792042      16.65181238
Ni      13.82954471      17.21336835      12.15177857
Ni      14.32540226      15.59189930      18.21503317
Ni      14.56208411      15.20785657      11.23869790
Ni      13.76767838      13.02734906      15.36063018
Ni      17.24911580      14.78550121      14.33970235
Ni      16.20615148      14.03607779      12.38784725
Ni      13.94737963      13.57262034      12.91020238
Ni      16.30891754      16.56361674      17.62752529
Ni      12.86066608      16.54760159      14.26462395
Ni      15.98463691      16.34889355      12.82627153
Ni      12.45614085      15.34181008      12.20815545
Ni      15.86122327      12.89435555      14.39705814
Ni      14.79314637      17.90474791      14.14905633
Ni      14.70994468      15.19322592      14.34280193
Ni      15.58336303      14.61159672      16.32198759
Ni      17.55193912      13.15996003      16.07844612
Ni      14.39274074      16.91447465      16.22701249
Ni      12.14390195      14.29459559      14.25789853
Ni      16.52089792      16.77930479      15.24744374
Ni      13.97821103      13.38711883      17.72333049
Ni      13.02721836      15.05389676      16.28329194
25
Properties=species:S:1:pos:R:3 config_type=qcd gap_pre_relax_energy=-104.66457504735503 gap_pred_energy=-104.6965557663354 gap_fmax_final=0.0008050317158320114 gap_converged=1 pbc="F F F"
Ni      11.10833203      10.48754591      12.94036202
Ni      11.98265391      16.68439016      12.93642708
Ni      16.91217136      12.82839648      12.94453563
Ni      12.49589332      15.96828379      15.16025366
Ni      11.46964556      11.29537667      15.16269123
Ni      16.02990426      12.74310486      15.16629504
Ni      10.50753421      15.16251244      14.06013077
Ni      16.32921693      14.86744243      14.06597972
Ni      13.16271675       9.97374714      14.06751970
Ni      11.30317666      12.20162615      11.33192242
Ni      15.33153190      12.13661581      11.33636096
Ni      13.37372899      15.65807386      11.33180465
Ni      15.50685092      14.64648147      11.67547345
Ni      13.38824265      10.79516591      11.67687649
Ni      11.11240229      14.55543863      11.67129765
Ni      15.14815652      11.11957061      13.49594634
Ni      10.50867364      12.86992169      13.48933023
Ni      14.34439898      16.01281944      13.49122417
Ni      11.94504315      13.60952780      15.37746357
Ni      14.26204901      14.39958684      15.37891219
Ni      13.78766021      11.99848321      15.38049260
Ni      13.33626730      13.33210409      11.22491941
Ni      12.69744502      12.14540603      13.32751616
Ni      12.62286578      14.47942371      13.32590993
Ni      14.68155411      13.37707031      13.32847038
25
Properties=species:S:1:pos:R:3 config_type=qcd gap_pre_relax_energy=-104.60628885768864 gap_pred_energy=-104.6408785035235 gap_fmax_final=0.000957517691443863 gap_converged=1 pbc="F F F"
Ni      14.14261637      13.21368006      14.76005780
Ni      14.01923738      13.24596783      16.98463050
Ni      14.68146017      11.21240062      15.68465999
Ni      12.29020913      11.94564478      15.60370082
Ni      12.26374470      14.41271473      15.69916932
Ni      14.84238884      15.25266170      15.62426208
Ni      16.20353998      13.15308696      15.67988200
Ni      13.45927326      11.15748803      13.56314349
Ni      12.11704349      13.23718086      13.59051358
Ni      10.28938035      13.22169426      12.26512521
Ni      13.38027201      15.28968010      13.78299619
Ni      12.85546942      16.69567993      12.12438283
Ni      15.87631945      14.45680540      13.58271364
Ni      15.80528041      11.95885941      13.55868870
Ni      14.12900157      13.25427445      12.44535632
Ni      13.98457365      13.29452343      10.19382583
Ni      10.25283637      13.28982723      14.80990988
Ni      11.01220017      11.25500492      13.56612836
Ni      11.05442427      15.29663567      13.43701285
Ni      15.10323281      16.66968128      13.42209909
Ni      12.30455703      11.99940791      11.53744359
Ni      14.68542694      11.27946086      11.44213704
Ni      12.29168866      14.49828403      11.51292201
Ni      14.66981745      15.30545122      11.54979233
Ni      16.15162924      13.26952749      11.44506967
26
Properties=species:S:1:pos:R:3 config_type=qcd gap_pre_relax_energy=-109.31668661833676 gap_pred_energy=-109.32981084885735 gap_fmax_final=0.0009716592604149119 gap_converged=1 pbc="F F F"
Ni       7.33813140       8.61947350       7.95379348
Ni       8.99809535       9.90582957       6.55776180
Ni       7.00646590       9.86522040      10.13537285
Ni       7.31090733      11.14090951       7.96702209
Ni       8.46369434       7.81407204      10.00656505
Ni       9.75209787       7.85547557       7.84246602
Ni      10.55614025       6.50262696       9.82899745
Ni      12.21576896       7.78904397       8.43284188
Ni      12.42272733       7.77818021      10.94598923
Ni      10.08842575       7.83752208      11.93167020
Ni      10.73815845       8.73334626       9.82370060
Ni      11.18530814       9.92351841       7.71780148
Ni       9.16670219       9.88331501      11.13596778
Ni       7.68909538       8.60046836      12.22254610
Ni       8.97431487       9.89359733       8.79576762
Ni       8.41866125      11.94865160      10.02853284
Ni       9.70754554      11.95829594       7.86421370
Ni       7.66159619      11.12192808      12.23596801
Ni      10.71253790      11.08129012       9.83621195
Ni      12.16915334      12.07228313       8.45573844
Ni      10.04359684      11.94016496      11.95351825
Ni      10.48197545      13.30741014       9.86518133
Ni      12.37574470      12.06107806      10.96898746
Ni       9.55547257       9.87588292      13.34011352
Ni      11.52408411       9.90532702      11.83873099
Ni      12.78938859       9.93087887       9.66032987
26
Properties=species:S:1:pos:R:3 config_type=qcd gap_pre_relax_energy=-109.35016014833302 gap_pred_energy=-109.45572760979265 gap_fmax_final=0.0009447091471435494 gap_converged=1 pbc="F F F"
Ni      13.66755135      12.90298438      10.58213255
Ni      13.69073246      10.96488641       9.24474623
Ni      13.24796252      10.78067631      11.67394924
Ni      12.59293507      12.85643910       8.37166535
Ni      11.99957274      12.75751754      12.28690812
Ni      11.64442679      14.05928041      10.17428535
Ni      11.60820622      11.68083284      10.24190761
Ni      11.95680025      10.67523731      13.71878334
Ni      11.51033460      10.70584731       8.09957214
Ni      12.19784896       9.35089826      10.00389659
Ni      10.04210283      12.08414970      13.29293875
Ni      10.22452997      12.68091151       8.63572082
Ni      12.50352447       8.61998610      12.25899390
Ni      10.71899491      10.10782715      11.97953203
Ni      10.62572495       8.53928645       8.39652198
Ni       9.79612753      12.95119343      11.09601006
Ni      10.41764095       8.11182199      13.19578538
Ni       9.71820341      10.06499817       9.92138811
Ni       9.16659595       9.99492877      13.77403948
Ni      10.59214413       7.90284300      10.81443174
Ni       8.23485734      12.00658557       9.57628130
Ni       8.60868592       8.03425198       9.47499601
Ni       9.10661427      10.55296161       7.85575275
Ni       8.44604473      11.16273328      11.78971527
Ni       8.59603613       8.79835885      11.76614172
Ni       7.35012849       9.91688952      10.03823115
27
Properties=species:S:1:pos:R:3 config_type=qcd gap_pre_relax_energy=-113.8823506430356 gap_pred_energy=-113.92866177802854 gap_fmax_final=0.000876040692445246 gap_converged=1 pbc="F F F"
Ni      14.18645307      13.13472179      14.71797951
Ni      14.00777881      13.33097614      16.94822810
Ni      14.80268861      11.27221957      15.80053711
Ni      12.32721809      11.95491196      15.61568919
Ni      12.29424121      14.44800936      15.57159205
Ni      14.67732708      15.30911450      15.55797401
Ni      16.20529955      13.32317678      15.68396163
Ni      13.59342243      11.00534760      13.69968286
Ni      12.58214325       9.89582973      11.94717466
Ni      12.16020248      13.07951249      13.51041479
Ni      10.28998447      13.30585282      12.27638867
Ni      13.49917433      15.02220781      13.51206079
Ni      12.78928039      16.74872173      12.26773803
Ni      15.88237181      14.43556633      13.50735812
Ni      15.89103432      11.94262041      13.56554659
Ni      14.16077234      13.07264764      12.35949995
Ni      14.03544019      13.29300478      10.12174769
Ni      10.31653395      13.18933129      14.76317785
Ni      11.13574349      11.10245055      13.38656249
Ni      12.77025825      16.73891046      14.76647599
Ni      11.13950916      15.25932730      13.52688232
Ni      14.95904834      16.73125835      13.50714659
Ni      12.22629399      12.08536539      11.31666466
Ni      14.55956589      11.09099624      11.41752931
Ni      12.31277007      14.48710429      11.45301154
Ni      14.69936884      15.24701346      11.47888250
Ni      16.17116265      13.16888826      11.39518002
27
Properties=species:S:1:pos:R:3 config_type=qcd gap_pre_relax_energy=-114.0360887092122 gap_pred_energy=-114.08829895743246 gap_fmax_final=0.0007375560006105187 gap_converged=1 pbc="F F F"
Ni      14.49507833      10.00744943      13.41622211
Ni      16.14066518      15.47012394      12.26306598
Ni      16.14066519      15.47012394      14.56937825
Ni      13.87921975      16.77695041      13.41622210
Ni      10.06042876      14.93397482      13.41622211
Ni      10.55182199      13.82054506      11.47798987
Ni      10.55182201      13.82054505      15.35445433
Ni      14.10493005      15.59106752      11.20186692
Ni      14.10493005      15.59106753      15.63057732
Ni      16.06875873      11.35256512      14.62515414
Ni      16.06875872      11.35256513      12.20729008
Ni      10.09960230      12.28182419      13.41622212
Ni      11.42687214      11.68286823      15.41181264
Ni      11.42687214      11.68286824      11.42063161
Ni      13.77353972      11.31077605      15.40728950
Ni      13.77353971      11.31077609      11.42515475
Ni      12.30770510      10.95058805      13.41622213
Ni      12.04635704      15.55811110      14.58284230
Ni      12.04635703      15.55811110      12.24960190
Ni      16.48544569      13.40946973      13.41622211
Ni      15.19511428      13.43249001      15.41237120
Ni      15.19511424      13.43249001      11.42007304
Ni      12.88891716      13.53669699      11.19631955
Ni      12.88891719      13.53669696      15.63612454
Ni      14.28018516      12.33701889      13.41622214
Ni      14.20013167      14.62055828      13.41622215
Ni      12.03624766      13.40967507      13.41622207
28
Properties=species:S:1:pos:R:3 config_type=qcd gap_pre_relax_energy=-118.55513951862 gap_pred_energy=-118.61343137522977 gap_fmax_final=0.0008819147565036341 gap_converged=1 pbc="F F F"
Ni       9.24788862      11.47520657      11.45849648
Ni       7.98289953       9.44743975      11.48230337
Ni      11.55431589      11.23453663      11.45337805
Ni       9.11346445       7.34405056      11.38147657
Ni      12.81307324       9.29496877      11.23255498
Ni      11.43064604       7.43444606      11.38249443
Ni      10.53932960      11.84222595       9.35276623
Ni       8.58986945      10.59068173       9.41307927
Ni      12.40956400      10.52820003       9.24406185
Ni       8.51681599       8.34503093       9.37119914
Ni      12.33269743       8.16547021       9.20001025
Ni      10.38091324       6.97260131       9.26198417
Ni       9.05983009      11.52073086       7.36370618
Ni      11.36225789      11.30908144       7.19762223
Ni       7.68547822       9.53328815       7.39617099
Ni       8.92779096       7.46334195       7.28803702
Ni      11.23929369       7.53101621       7.12719149
Ni      10.16434256       9.35584171      12.59009402
Ni      10.53707752       9.38401564      10.42940475
Ni      10.51418565       9.42695288       8.16577436
Ni       9.68744996       9.49210649       6.11052908
Ni       8.42353324      12.88249327       9.48343328
Ni       6.78480390      11.59160975       8.30764763
Ni       6.91742373      11.52937621      10.76905938
Ni       6.41603147       9.53488376       9.52636307
Ni       6.78524820       7.46711500      10.69328578
Ni       6.65182041       7.50535401       8.23145819
Ni       8.20183500       6.06781419       9.35629771
28
Properties=species:S:1:pos:R:3 config_type=qcd gap_pre_relax_energy=-118.45299632710197 gap_pred_energy=-118.64648640685022 gap_fmax_final=0.0005416238179023089 gap_converged=1 pbc="F F F"
Ni      14.29943609      13.15461905      14.67555991
Ni      14.05945979      13.49212738      16.90534555
Ni      14.50678411      11.25517797      15.85685024
Ni      12.26211552      12.18818993      15.67480635
Ni      12.38208618      14.58794579      15.54232934
Ni      14.71583466      15.42294981      15.53812608
Ni      16.24870079      13.54079708      15.69323687
Ni      14.27506681      11.02236896      13.49817047
Ni      12.59603874      10.08623202      12.26013631
Ni      12.25281804      13.17308448      13.49961162
Ni      10.35614254      13.45467981      12.26716310
Ni      13.58563470      15.10635605      13.50370012
Ni      12.82588662      16.86135686      12.26999532
Ni      15.95132519      14.67758779      13.50514568
Ni      16.24913395      12.31835762      13.50184984
Ni      14.30151470      13.15815170      12.32722873
Ni      14.06549911      13.50238123      10.09805786
Ni      12.59386232      10.08252560      14.73043059
Ni      10.35395088      13.45101212      14.72952336
Ni      11.00005825      11.32453995      13.49576204
Ni      12.82369519      16.85764906      14.74132430
Ni      11.23053700      15.38105446      13.50201882
Ni      14.96366126      16.90723231      13.50763638
Ni      12.26597425      12.19471334      11.32149048
Ni      14.51096325      11.26226944      11.14061380
Ni      12.38570727      14.59406834      11.46139339
Ni      14.71944537      15.42908175      11.47224375
Ni      16.25257863      13.54740127      11.31416087
29
Properties=species:S:1:pos:R:3 config_type=qcd gap_pre_relax_energy=-123.48150928626379 gap_pred_energy=-123.54199491685958 gap_fmax_final=0.0009024331189515458 gap_converged=1 pbc="F F F"
Ni       9.17057534      11.49864903      11.56997269
Ni       7.89043471       9.47557319      11.59941590
Ni      11.48443802      11.27094948      11.52720025
Ni       9.02648623       7.37062890      11.49554258
Ni      12.71192783       9.31209185      11.34148036
Ni      11.35059967       7.43822123      11.45824406
Ni      10.44906859      11.87827265       9.45565768
Ni       8.49665967      10.62094908       9.53268367
Ni      12.33311502      10.54852735       9.33103999
Ni       8.41792764       8.36593517       9.49203705
Ni      12.25046406       8.17796820       9.28842312
Ni      10.27811273       6.97924316       9.36746328
Ni       8.95669704      11.58000318       7.47274789
Ni      11.26192631      11.35509679       7.26527459
Ni       7.67610732       9.55711320       7.49659845
Ni      12.49836344       9.39314096       7.24490863
Ni       8.81269494       7.45207514       7.39826401
Ni      11.12831591       7.52254609       7.19623961
Ni      10.08160647       9.37946741      12.69397415
Ni      10.45214649       9.40549202      10.53757323
Ni      10.33464912       9.44982875       8.28257178
Ni       9.74137629       9.50888173       6.17714788
Ni       8.32692910      12.91124872       9.58727634
Ni       6.69937184      11.60639810       8.40411670
Ni       6.82862602      11.55707581      10.88053613
Ni       6.33084393       9.56560900       9.62481230
Ni       6.68704401       7.50030703      10.80726129
Ni       6.55781653       7.54946499       8.33080081
Ni       8.08900073       6.09256680       9.46406058
29
Properties=species:S:1:pos:R:3 config_type=qcd gap_pre_relax_energy=-123.08424123673421 gap_pred_energy=-123.10872515495413 gap_fmax_final=0.000891276260641611 gap_converged=1 pbc="F F F"
Ni      14.20992320      13.51070030      14.71840062
Ni      14.03688945      13.50629991      16.93477988
Ni      14.70208126      11.40015242      15.57742750
Ni      12.30691949      12.26122821      15.59932457
Ni      12.31464328      14.76778796      15.60521357
Ni      14.71523405      15.61425403      15.58716532
Ni      16.21540025      13.50249848      15.67759167
Ni      13.50999121      11.64486055      13.51129460
Ni      12.77248865       9.96879723      12.23818145
Ni      12.12699637      13.51997989      13.51564121
Ni      10.29388437      13.52862458      12.25800578
Ni      13.52152772      15.38651633      13.52010151
Ni      12.79413905      17.07311031      12.25510858
Ni      15.92910581      14.76130107      13.51864107
Ni      15.92137667      12.25520149      13.51290510
Ni      14.21002003      13.51636929      12.31302592
Ni      14.03715773      13.52208683      10.09664636
Ni      12.77213723       9.96282826      14.77630327
Ni      14.97049975       9.95934388      13.50754801
Ni      10.29376349      13.52255202      14.77311766
Ni      11.12315055      11.41582897      13.51052402
Ni      12.79427689      17.06708601      14.79319138
Ni      11.13611647      15.63024906      13.52070171
Ni      14.99240187      17.06300463      13.52401780
Ni      12.30711569      12.27102656      11.42606509
Ni      14.70239122      11.40977404      11.44428556
Ni      12.31481072      14.77762573      11.43200162
Ni      14.71526231      15.62391171      11.45409982
Ni      16.21556555      13.51227058      11.35395969
30
Properties=species:S:1:pos:R:3 config_type=qcd gap_pre_relax_energy=-128.1407374301628 gap_pred_energy=-128.2919659310085 gap_fmax_final=0.000930214040774792 gap_converged=1 pbc="F F F"
Ni      13.35553144       9.61060379      12.89069168
Ni      13.35553144      13.90825723      16.87040440
Ni       9.97667199      14.47696767      12.09786083
Ni      16.73439090      14.47696766      12.09786083
Ni      13.35553144      11.54617393      16.42897840
Ni      10.99374503      16.24052853      13.37269556
Ni      15.71731786      16.24052853      13.37269556
Ni      11.45424225      10.64563213      12.09730304
Ni      15.25682063      10.64563213      12.09730304
Ni      13.35553144      11.28241348      10.52615952
Ni      16.66197754      14.40290473      14.49644665
Ni      10.04908534      14.40290474      14.49644665
Ni      12.08111773      15.61747842      11.26946019
Ni      14.62994516      15.61747842      11.26946019
Ni      11.33751699      12.85641931      15.75887758
Ni      15.37354589      12.85641931      15.75887757
Ni      11.32627087      12.75823451      11.14952467
Ni      15.38479201      12.75823451      11.14952467
Ni      16.19496957      12.38562929      13.42281103
Ni      10.51609331      12.38562930      13.42281103
Ni      12.12526005      10.97180845      14.42236207
Ni      14.58580283      10.97180845      14.42236207
Ni      13.35553144      13.73187919      10.75070264
Ni      12.16238338      15.18225117      15.21156559
Ni      14.54867951      15.18225117      15.21156559
Ni      13.35553144      16.16955459      13.29863342
Ni      13.35553144      13.09606876      14.69651962
Ni      12.07919098      14.11150464      13.00391033
Ni      14.63187191      14.11150463      13.00391033
Ni      13.35553144      12.02227456      12.59821853
30
Properties=species:S:1:pos:R:3 config_type=qcd gap_pre_relax_energy=-127.67870842301063 gap_pred_energy=-127.72631944080938 gap_fmax_final=0.0009090211277254217 gap_converged=1 pbc="F F F"
Ni      14.31891210      13.68619928      14.85977850
Ni      14.15945810      13.68256698      17.06767927
Ni      14.70822372      11.54793588      15.75647585
Ni      12.37932410      12.45636269      15.77780929
Ni      12.38348929      14.91936272      15.78213686
Ni      14.71543832      15.81996947      15.76399471
Ni      16.39101103      13.68127395      15.66032304
Ni      13.54104783      11.80524402      13.68619274
Ni      12.72861832      10.15333092      12.40839751
Ni      12.19833561      13.69183685      13.69142889
Ni      10.34878185      13.69716805      12.43858158
Ni      13.54742276      15.57389150      13.69282281
Ni      12.74055236      17.23299479      12.42082984
Ni      15.95613960      15.16501173      13.68872492
Ni      15.95112796      12.20597668      13.68351656
Ni      14.31560123      13.69032569      12.51704508
Ni      14.14987581      13.69445326      10.30962046
Ni      12.73224623      10.14882620      14.96045150
Ni      14.87095723      10.01370357      13.68114742
Ni      10.35237235      13.69276492      14.94958156
Ni      11.14744283      11.61555616      13.68927946
Ni      12.74418135      17.22855309      14.97285911
Ni      11.15446256      15.77165059      13.69655687
Ni      14.88336490      17.36092863      13.69401836
Ni      17.71273606      13.68251929      13.68374330
Ni      12.37338106      12.46372128      11.60020788
Ni      14.70234761      11.55524108      11.61172504
Ni      12.37755957      14.92667968      11.60452851
Ni      14.70958524      15.82724738      11.61923759
Ni      16.38551050      13.68821117      11.71081301
31
Properties=species:S:1:pos:R:3 config_type=qcd gap_pre_relax_energy=-132.96670924919786 gap_pred_energy=-133.07399706412264 gap_fmax_final=0.0009860548744400645 gap_converged=1 pbc="F F F"
Ni      11.04439712      15.87634329      15.15219884
Ni      16.72876058      14.21477344      15.14542389
Ni      12.44743102      10.12320592      15.15044749
Ni      14.15805781      14.56216151       9.89755938
Ni      14.02436679      12.17046109       9.89762238
Ni      12.01994743      13.48213874       9.89998924
Ni      12.79492228       9.94880097      12.89456646
Ni      16.70240682      14.60531672      12.88994295
Ni      10.71547756      15.66082375      12.89694013
Ni      15.82387354      12.16868842      15.68680334
Ni      11.12870277      11.93023687      15.69246468
Ni      13.26989124      16.11540353      15.68931771
Ni      10.68763422      11.33679160      13.33990314
Ni      16.55436588      12.08572932      13.33308789
Ni      12.97296867      16.79237901      13.33691466
Ni      12.37606088      15.44415046      11.30308550
Ni      15.68169595      13.27413759      11.29914258
Ni      12.14952846      11.49642577      11.30324523
Ni      10.53455806      13.68696855      14.32412502
Ni      15.08630271      15.75049233      14.31889354
Ni      14.59709854      10.77727982      14.31944178
Ni      12.18382521      14.01617052      16.08728418
Ni      14.54988928      14.15940647      16.08501090
Ni      13.49070825      12.03848797      16.08661055
Ni      14.61969005      15.41584463      12.08317599
Ni      14.53684605      11.34613915      12.08321348
Ni      11.05360259      13.45264729      12.08726728
Ni      13.40305028      13.40480752      11.83195640
Ni      12.70321896      12.17515163      13.81331703
Ni      14.82160738      13.41213262      13.81039508
Ni      12.69086359      14.62825351      13.81240324
31
Properties=species:S:1:pos:R:3 config_type=qcd gap_pre_relax_energy=-132.78660214669492 gap_pred_energy=-132.99228085265105 gap_fmax_final=0.0009328983208345763 gap_converged=1 pbc="F F F"
Ni      13.06041837      10.12345213      12.85042724
Ni      13.64444655       8.57032644      11.11902553
Ni      11.60486438       7.94406823      12.54975133
Ni      11.28156117       9.69270561      14.20780943
Ni      13.92569359      12.31641118      12.47885361
Ni      12.12829665      12.03218894      14.10556619
Ni      13.64428119      10.91324608      10.64117639
Ni      11.84954613       7.54387777      10.00775348
Ni      11.55438618       9.61682225      11.08841979
Ni      12.84121595       9.50648236       8.95749977
Ni       9.48769771       9.14405904      12.80225223
Ni      11.61659776      11.97306976      11.88611177
Ni      12.55826401      14.16798522      12.35371048
Ni       9.89852494      11.37108295      13.39869371
Ni       9.67308813       8.05974579      10.72038695
Ni      10.47237396      13.65426351      13.15176825
Ni       7.77017886      10.95625529      12.50651739
Ni      13.37367836      11.81453022       8.38498965
Ni      11.41955473      11.43388070       9.64546123
Ni       9.43928651      10.52060790      10.84429211
Ni       7.59392829       9.00557828      11.31672905
Ni      13.05458398      13.17631234      10.27006282
Ni      10.52244062       9.23979848       8.85135218
Ni       9.01380183      12.73528425      11.56233615
Ni       8.21270050       9.36237296       9.12504119
Ni      10.84793219      13.89082695      10.67681090
Ni      11.47762435      10.86401531       7.37910133
Ni       7.53608055      11.50741352      10.07275334
Ni      11.20851119      13.22656403       8.35014624
Ni       8.99179313      13.38882736       9.33601136
Ni       9.37807255      11.32936941       8.44061319
32
Properties=species:S:1:pos:R:3 config_type=qcd gap_pre_relax_energy=-137.6866862650678 gap_pred_energy=-137.7556879124669 gap_fmax_final=0.0009614742676900747 gap_converged=1 pbc="F F F"
Ni      10.03505910      15.33206198      13.56036760
Ni      17.08567610      15.33206198      13.56036760
Ni      13.56036760      11.78867322      17.08567610
Ni      13.56036760      11.78867322      10.03505910
Ni      11.61079819      11.54274384      15.87430412
Ni      15.50993701      11.54274384      11.24643108
Ni      15.50993701      11.54274384      15.87430412
Ni      11.61079819      11.54274384      11.24643108
Ni      15.87430412      15.57799137      11.61079819
Ni      15.87430412      15.57799137      15.50993701
Ni      11.24643108      15.57799137      11.61079819
Ni      11.24643108      15.57799137      15.50993701
Ni      14.76615922      16.61235076      13.56036760
Ni      13.56036760      10.50838444      12.35457598
Ni      12.35457598      16.61235076      13.56036760
Ni      13.56036760      10.50838444      14.76615922
Ni      12.28317094      13.74885117      16.56808233
Ni      10.55265287      13.37188403      12.28317094
Ni      14.83756426      13.74885117      16.56808233
Ni      10.55265287      13.37188403      14.83756426
Ni      16.56808233      13.37188403      14.83756426
Ni      16.56808233      13.37188403      12.28317094
Ni      14.83756426      13.74885117      10.55265287
Ni      12.28317094      13.74885117      10.55265287
Ni      15.34331715      11.70664877      13.56036760
Ni      13.56036760      15.41408643      11.77741806
Ni      11.77741806      11.70664877      13.56036760
Ni      13.56036760      15.41408643      15.34331715
Ni      13.56036760      12.78682066      12.26171796
Ni      14.85901724      14.33391454      13.56036760
Ni      12.26171796      14.33391454      13.56036760
Ni      13.56036760      12.78682066      14.85901724
32
Properties=species:S:1:pos:R:3 config_type=qcd gap_pre_relax_energy=-137.16940510991944 gap_pred_energy=-137.74917723086602 gap_fmax_final=0.0008941669842533136 gap_converged=1 pbc="F F F"
Ni       9.43657093       9.30511968      12.80999504
Ni      11.16424532      11.16518809       8.34507205
Ni      11.30443842       9.97365174      10.45323504
Ni      10.10434849       8.08883024      10.74947607
Ni       7.25276417      11.13418071      10.05565982
Ni       9.07804697      12.38562496       9.16460816
Ni       7.33917267      10.77716816      12.46969786
Ni       9.25138953      10.95449006      11.18759996
Ni      11.08966849      13.60500711       8.51087359
Ni       8.28536750      12.94083816      11.60859168
Ni       7.91850585       8.99673153      10.95177009
Ni       9.79406159      14.36755424      10.40969607
Ni      10.49832632      13.49105363      12.53599467
Ni       9.20267631      11.68121068      13.63659538
Ni       9.21545192       9.89517335       9.09918873
Ni      13.07666133      11.37348321      11.18784996
Ni      14.04268073       9.38689359      11.60752211
Ni      15.07547141      11.19463455      10.05607328
Ni      12.53409133       7.96121850      10.40723697
Ni      14.40958664      13.33143261      10.95336392
Ni      13.11290096      12.43448473       9.10029495
Ni      11.23885710       8.72521826       8.50880239
Ni      13.25026467       9.94397045       9.16375852
Ni      11.02363417      12.35503901      10.45426342
Ni      12.22379251      14.23957509      10.75192427
Ni      11.16394583      11.16347666      12.55510404
Ni      11.37182866      12.34002727      14.53207502
Ni      12.89132705      13.02163359      12.81137086
Ni      14.98871877      11.55017823      12.47024467
Ni      11.82956959       8.83598801      12.53413693
Ni      10.95605842       9.98559039      14.53123467
Ni      13.12516033      10.64491751      13.63627380
33
Properties=species:S:1:pos:R:3 config_type=qcd gap_pre_relax_energy=-141.82157888129393 gap_pred_energy=-142.56681187135962 gap_fmax_final=0.0008301686333758028 gap_converged=1 pbc="F F F"
Ni      14.74797806      14.23002382      15.36678476
Ni      14.71524892      14.16693785      17.71885358
Ni      14.78230260      12.11389404      16.53970858
Ni      12.72972820      13.46578612      16.53554781
Ni      13.35395905      15.82626403      16.52228285
Ni      15.74166978      16.02879094      16.64260562
Ni      16.77936821      13.82431074      16.21392069
Ni      14.63561490      12.26741763      14.10311869
Ni      12.72103051      13.83587100      14.13581335
Ni      13.88354414      16.02083984      14.12288811
Ni      16.35424958      15.72228626      14.38906616
Ni      16.70690682      11.64876170      15.21125387
Ni      14.70754492      14.24601619      12.84541050
Ni      14.85159254      10.16298720      15.12822820
Ni      12.78015698      11.43148677      15.20497164
Ni      10.85747055      12.81442300      15.16490111
Ni      11.31752455      15.19527321      15.33030247
Ni      12.22755026      17.38937855      15.13956535
Ni      14.72238068      17.71374348      15.29543603
Ni      16.02678763      11.02023402      12.89750282
Ni      13.60462997      10.36118658      13.12678369
Ni      11.91501275      12.03449072      12.97389358
Ni      10.57916229      14.05600787      13.16642875
Ni      11.81902476      16.07232565      13.07895560
Ni      13.24410432      18.04043525      13.10400461
Ni      15.52506461      17.38244731      12.95948549
Ni      16.79164483      13.49232568      13.76837225
Ni      14.00299266      12.22927601      11.72134048
Ni      12.51820058      14.16751571      11.73914013
Ni      13.89080235      16.20528192      11.68395391
Ni      16.40171392      15.39677044      11.94313170
Ni      16.28011708      12.96038010      11.53173733
Ni      14.58613891      14.27804831      10.49582820
33
Properties=species:S:1:pos:R:3 config_type=qcd gap_pre_relax_energy=-142.09206113574942 gap_pred_energy=-142.3407056885876 gap_fmax_final=0.0008853972240367214 gap_converged=1 pbc="F F F"
Ni      12.56631860      11.36992324      11.10696071
Ni      12.23107930      11.59665460      13.45109593
Ni      14.53502216      12.56138226      11.32070538
Ni      14.45528667      12.56922342      13.70786330
Ni      12.68230323      13.88926096      12.67138115
Ni      12.59104509      13.73107166      10.42702309
Ni      10.81310044      12.72323100      11.81180093
Ni      14.58727969      14.92612338      11.39948328
Ni      12.50890609      15.97461350      11.43853499
Ni      10.69756366      13.25759811      14.15235633
Ni      14.58923057      14.99827578      13.81381190
Ni      12.31291073      16.05860218      13.82857436
Ni      12.08466033      11.92541653      15.86851830
Ni      14.49050838      12.51705147      16.14206437
Ni      12.80163248      13.93155304      15.04497340
Ni      12.91978969      13.72521369      17.42779828
Ni      10.78883719      13.86052210      16.46185002
Ni      14.63151616      14.93459141      16.29749735
Ni      12.25851964      15.80007856      16.28479287
Ni      16.29223510      13.68108103      15.04805810
Ni      16.32298486      13.70539819      12.58008138
Ni      14.04453587      16.94677090      15.19133714
Ni      14.25138821      17.02510009      12.73667521
Ni      14.19906161      10.47879937      12.60935474
Ni      13.78813059      10.57431492      14.96453171
Ni      16.35197397      11.37386736      12.39508199
Ni      16.06201103      11.26232131      14.72528734
Ni      16.41559882      16.05824270      12.53444412
Ni      16.27624851      16.12317540      14.90735268
Ni      17.97927962      14.84592660      13.85831760
Ni      17.91411315      12.45226813      13.83353920
Ni      10.30429858      15.47439893      14.82932693
Ni      10.59518545      14.99050365      12.47208137
34
Properties=species:S:1:pos:R:3 config_type=qcd gap_pre_relax_energy=-147.0550921851765 gap_pred_energy=-147.12407528957968 gap_fmax_final=0.0009905705272345699 gap_converged=1 pbc="F F F"
Ni      14.91358889       9.48098167      13.78035958
Ni      12.49325136       9.51172819      13.76027022
Ni      13.84171490      16.55285521      16.78158121
Ni      13.74522927      16.53618774      10.71692851
Ni      12.27832356      17.08724041      12.42647880
Ni      15.32228545      17.05660941      15.06910981
Ni      13.76681312      14.35332951      10.02936434
Ni      13.76420488      14.37553726      17.48251908
Ni      11.38248611      11.14568068      12.46866909
Ni      16.06550837      11.09303737      15.06366768
Ni      16.17260502      11.25988678      12.74204891
Ni      11.28014725      11.32779883      14.78928182
Ni      10.56261287      13.60151956      15.02738625
Ni      16.94767862      13.51305975      12.48910372
Ni      16.94039421      13.33078177      14.95202030
Ni      10.56488032      13.40548733      12.56536812
Ni      11.77545852      15.06105439      11.27372293
Ni      15.77289757      15.02472322      16.23382730
Ni      15.66974428      15.20407831      11.35375917
Ni      11.88341459      15.26641326      16.15269373
Ni      12.97781566      16.98323655      14.64486965
Ni      14.62033290      16.95735241      12.85108987
Ni      14.93501176      12.78790245      16.23702591
Ni      12.55593123      12.80366113      11.28449409
Ni      14.95900051      12.87952106      11.39090968
Ni      12.53466139      12.92435780      16.12995267
Ni      13.68169640      11.13387946      14.98322807
Ni      13.76679299      11.12558546      12.54776865
Ni      15.96473125      15.20625932      13.77195169
Ni      11.58818782      15.26194069      13.73470129
Ni      12.54667599      12.98068082      13.71122687
Ni      14.94811209      12.95041324      13.80927501
Ni      13.71824867      14.78777362      12.51589638
Ni      13.82358399      14.79346715      14.99347141
34
Properties=species:S:1:pos:R:3 config_type=qcd gap_pre_relax_energy=-146.4722390117154 gap_pred_energy=-147.13632505566986 gap_fmax_final=0.000872260433417402 gap_converged=1 pbc="F F F"
Ni      14.87794899      14.10994648      15.36688057
Ni      14.34877744      14.10957475      17.57491735
Ni      15.63597196      12.21359721      16.61376590
Ni      13.31851251      12.31034950      16.25398822
Ni      13.32676594      15.91550114      16.25674681
Ni      15.64463675      16.00103055      16.61648525
Ni      17.08386743      14.10450269      15.90467803
Ni      14.00911207      12.24012297      13.94885448
Ni      12.68535984      14.11572373      14.49700503
Ni      14.01790785      15.98597996      13.95184586
Ni      16.38365304      15.90976094      14.39044646
Ni      16.37521687      12.30469504      14.38780790
Ni      15.10714418      14.11122637      13.01903698
Ni      14.74234464      10.48349541      15.15514131
Ni      12.28382528      10.73166687      14.87654807
Ni      11.02248839      12.71834949      15.18656174
Ni      11.02897614      15.51971242      15.18869899
Ni      12.29952080      17.50104326      14.88165682
Ni      14.75920589      17.73752362      15.16044637
Ni      15.61865631      10.72511670      12.84088322
Ni      13.34238503      10.20457699      12.86297612
Ni      11.89040284      12.11041430      12.94693104
Ni      10.68431738      14.12128712      13.21060862
Ni      11.89985441      16.12690368      12.95001835
Ni      13.36064486      18.02614985      12.86891365
Ni      15.63446193      17.49505299      12.84582309
Ni      17.55359502      14.10511268      13.50875151
Ni      14.08618910      12.10617798      11.60671817
Ni      12.87379058      14.11698800      12.08279550
Ni      14.09550031      16.12290643      11.60987214
Ni      16.48297361      15.50978941      11.85942904
Ni      16.47636868      12.70785266      11.85742485
Ni      14.87767371      14.11348138      10.65134263
Ni      12.00300868      14.11544592      16.89705839
35
Properties=species:S:1:pos:R:3 config_type=qcd gap_pre_relax_energy=-152.05575485998165 gap_pred_energy=-152.13798961528792 gap_fmax_final=0.0008231786929880091 gap_converged=1 pbc="F F F"
Ni      17.49246414      14.26640567      12.81677260
Ni      17.49246414      13.51951827      14.96915135
Ni      12.41411980      10.59323238      12.80636853
Ni      11.77217249      16.82819827      12.82420806
Ni      11.77217249      10.95772568      14.96171589
Ni      12.41411980      17.19269157      14.97955541
Ni      14.18998184      12.56157714       9.96690951
Ni      14.90698948      12.95315153      17.81243123
Ni      14.18998184      15.22434680      17.81901444
Ni      12.58166195      14.31811844       9.97207668
Ni      12.58166195      13.46780551      17.81384727
Ni      14.90698948      14.83277242       9.97349271
Ni      14.35366769      17.05884359      13.42689085
Ni      10.92258745      12.71105925      13.41442173
Ni      16.40288118      11.91330006      13.41212894
Ni      16.40288118      15.87262388      14.37379500
Ni      10.92258745      15.07486470      14.37150221
Ni      14.35366769      10.72708035      14.35903310
Ni      12.21039102      15.39354041      16.41357840
Ni      13.42858465      11.67475360      16.40286526
Ni      13.42858465      16.11117034      11.38305868
Ni      12.21039102      12.39238354      11.37234554
Ni      16.03983125      14.58922944      16.41144803
Ni      16.03983125      13.19669450      11.37447591
Ni      15.66350052      12.20837599      15.67725430
Ni      14.46215384      11.52477643      12.09696649
Ni      14.46215384      16.26114752      15.68895746
Ni      11.55325304      13.19421566      15.68003178
Ni      11.55325304      14.59170829      12.10589217
Ni      15.66350052      15.57754796      12.10866965
Ni      13.89295899      13.89843123      11.94400136
Ni      13.89295899      13.88749272      15.84192259
Ni      13.16701562      15.15088901      13.89649248
Ni      13.16701562      12.63503493      13.88943146
Ni      15.34523906      13.89296197      13.89296197
35
Properties=species:S:1:pos:R:3 config_type=qcd gap_pre_relax_energy=-151.91184094915477 gap_pred_energy=-152.0933193725722 gap_fmax_final=0.0007214193667014367 gap_converged=1 pbc="F F F"
Ni       9.42475495      14.20016366      12.83687103
Ni      11.65897493      14.08070756      12.19123262
Ni       9.82366293      13.80984683      10.55291298
Ni       7.64513635      13.13220151      11.43693898
Ni       8.49749011      12.58270455      14.17802362
Ni      11.96145518      14.40272539       9.75045733
Ni      10.88836457      12.48079923      13.84292489
Ni      13.71067344      13.61208820      11.11840063
Ni       8.43678971      12.59505520       9.13104502
Ni      12.97235568      12.11502046      12.87322145
Ni       9.47469091      11.91266619      12.03345964
Ni      10.72170659      12.64228139       8.64185150
Ni       7.39513532      11.07837319      12.81186562
Ni       9.56065160      10.48772506      14.00720452
Ni      11.75140993      12.22090382      10.78874760
Ni      13.15955545      12.52813645       8.95650638
Ni       7.73513168      10.89216586      10.46546321
Ni      14.08049424      11.29306829      10.89356062
Ni       8.88501467       9.46243360      11.97238575
Ni      13.93635640       9.98669673      12.81537871
Ni      11.28910805      10.32941694      12.19304058
Ni      12.03741831      10.29887532      14.30411520
Ni       8.61667499       8.88623513       9.59290211
Ni       9.35593416      10.66909533       7.96257102
Ni      14.21656781      10.46959524       8.69540194
Ni      11.86412979      10.72568970       7.97975867
Ni      12.35740137       9.77714800      10.08974801
Ni      10.10027073      10.63098662      10.07491664
Ni      10.57344423       8.45220637      13.39345993
Ni      12.57405293       8.28929692      12.15518006
Ni      14.38280159       8.88023082      10.62252482
Ni      10.74967257       8.69608325       8.61306113
Ni      10.53559736       8.25532100      10.93856215
Ni      13.03362727       8.61226159       8.04300364
Ni      12.49543692       7.41373729       9.94524469
36
Properties=species:S:1:pos:R:3 config_type=qcd gap_pre_relax_energy=-156.57762322601448 gap_pred_energy=-156.96112705332283 gap_fmax_final=0.0008655921419079263 gap_converged=1 pbc="F F F"
Ni      10.04563906      13.86720213      15.30227352
Ni      17.68876520      13.86720213      15.30227352
Ni      13.86720213      11.52834225      16.87955251
Ni      13.86720213      16.20606202      16.87955251
Ni       9.91329336      13.86720213      12.96600691
Ni      17.82111090      13.86720213      12.96600691
Ni      15.01548035      13.86720213      10.16430665
Ni      12.71892392      13.86720213      10.16430665
Ni      15.13913241      10.49728568      15.18389455
Ni      12.59527185      17.23711859      15.18389455
Ni      15.13913241      17.23711859      15.18389455
Ni      12.59527185      10.49728568      15.18389455
Ni      15.01098549      10.86980229      12.90472979
Ni      12.72341878      16.86460197      12.90472979
Ni      15.01098549      16.86460197      12.90472978
Ni      12.72341877      10.86980229      12.90472979
Ni      13.86720213      11.92693604      11.09190532
Ni      13.86720213      15.80746822      11.09190532
Ni      10.86207913      11.85102121      14.05282262
Ni      16.87232513      15.88338305      14.05282262
Ni      16.87232513      11.85102121      14.05282262
Ni      10.86207913      15.88338305      14.05282261
Ni      11.89541743      12.61964158      16.09155769
Ni      11.89541743      15.11476268      16.09155769
Ni      15.83898683      12.61964158      16.09155769
Ni      15.83898683      15.11476268      16.09155769
Ni      16.05917396      15.07340243      11.88946713
Ni      16.05917396      12.66100183      11.88946713
Ni      11.67523030      12.66100183      11.88946713
Ni      11.67523030      15.07340243      11.88946713
Ni      13.86720213      13.86720213      16.52208758
Ni      15.68082629      13.86720213      13.99503723
Ni      12.05357797      13.86720213      13.99503723
Ni      13.86720213      12.39089737      14.51193153
Ni      13.86720213      15.34350689      14.51193153
Ni      13.86720213      13.86720213      12.38527473
36
Properties=species:S:1:pos:R:3 config_type=qcd gap_pre_relax_energy=-156.63563652306465 gap_pred_energy=-157.15716038945206 gap_fmax_final=0.0007107534176817128 gap_converged=1 pbc="F F F"
Ni       9.18029412       8.61344063      13.84687521
Ni      10.09870805      10.79311240      13.80112155
Ni       8.01951799      10.27607700      12.59476717
Ni       9.00259984      12.46553038      12.37625752
Ni      11.69206498       8.90020616      13.68770213
Ni      10.88384791      13.01139482      13.69269596
Ni      10.31330299       7.05678854      12.49798064
Ni      12.52322026      11.16524615      13.60666638
Ni       8.36117808       8.14347461      11.49270354
Ni      13.70926996       9.46167387      12.56248016
Ni       7.07851163      11.96621570      11.10403956
Ni       9.15470086      10.79033525      10.54458102
Ni       6.90575400       9.73499988      10.51852536
Ni      11.23096075      11.55610040      11.75166535
Ni      12.27956655       7.97970887      11.51840702
Ni      10.70626721      13.87286109      11.41423335
Ni      10.32501274       9.32425421      11.90276419
Ni      12.81629241      13.33217557      12.46216095
Ni      12.70432407      13.46589802      10.10193044
Ni       7.74070174      11.31355157       8.81513230
Ni      13.58804796      11.44568861      11.31992363
Ni      10.90040240      12.11139965       9.52766307
Ni      13.17762114      11.39958854       8.98925619
Ni      11.46903533       9.78808346       9.83155240
Ni      13.73822225       9.34966712      10.20266148
Ni       8.59939176       8.94461866       9.11629603
Ni      10.57753468      14.41471089       9.09708276
Ni      10.27089156       7.62254916      10.14658116
Ni       9.09099535      10.26394792       7.24211107
Ni       8.79562441      13.17255369      10.03410393
Ni      12.41419323       7.55100528       9.20942841
Ni      11.29560789      10.90465166       7.48708494
Ni      12.04349500      13.14988812       7.76398801
Ni      13.00018597       9.33663742       7.89839574
Ni       9.52430642      12.54469064       7.75188779
Ni      10.65630880       8.64523442       7.95725388
37
Properties=species:S:1:pos:R:3 config_type=qcd gap_pre_relax_energy=-161.35523368409355 gap_pred_energy=-161.47981654782453 gap_fmax_final=0.0008745450472764823 gap_converged=1 pbc="F F F"
Ni      14.23793609      11.86107209      11.39662450
Ni      13.09666792       9.95010502      12.52258496
Ni      13.90022374       9.35053694      10.43410073
Ni      12.45341588      12.17132524      13.06782365
Ni      11.89325483      10.33715933      14.56018856
Ni      12.94033565       7.65199354      11.81124205
Ni      14.34679232      11.11615451       8.95194385
Ni      11.21811105       8.31651395      13.19611523
Ni      13.50945514      13.24459320       9.28595612
Ni      12.54340160      13.79588987      11.30654898
Ni      12.56533362       7.44910092       9.53855356
Ni      12.38714804      11.34809088      10.26612361
Ni      10.95222404      14.07639715      13.13492385
Ni      10.77663052      10.45535697      12.52604055
Ni      10.13478674      12.04629584      14.04252302
Ni      10.47243305       7.22373621      10.99325216
Ni      11.46563762       9.19820506      10.69741579
Ni       9.62209010       9.66661150      14.45680082
Ni      10.41131730      10.65473193       9.13576488
Ni      12.60669692       9.57057560       8.46759345
Ni      12.22885189      11.82278820       7.85957833
Ni      10.20367436      14.69295353      10.97163474
Ni       9.03897669       8.75082233      12.28797843
Ni      10.62136478       8.28712759       8.51927695
Ni      11.10056119      13.31390412       9.22567993
Ni       8.76430959      13.20832680      12.38959282
Ni       9.07618681      10.85994139      11.02629643
Ni      10.68934322      12.46233073      11.40020345
Ni       8.15451387      10.95911238      13.11891966
Ni       8.84111771       8.77400988       9.91985119
Ni      10.92956017      10.13051592       6.88009827
Ni       9.53970781      12.11599536       7.69390217
Ni       8.83574062      13.00672889       9.87996355
Ni       7.06828313       9.71029159      11.23582883
Ni       7.03842147      12.08088178      11.22207095
Ni       8.82026730       9.59783514       7.65775069
Ni       7.75940365      10.98616516       9.16342980
37
Properties=species:S:1:pos:R:3 config_type=qcd gap_pre_relax_energy=-161.05443181274663 gap_pred_energy=-161.6171821552364 gap_fmax_final=0.0009221332909353534 gap_converged=1 pbc="F F F"
Ni      12.98020936      12.07958019      11.49692571
Ni      13.02523616      12.14595220      13.95664199
Ni      15.34542188      12.56660518      11.61516174
Ni      15.38852027      12.82592941      14.03318248
Ni      13.71847147      14.02002147      12.76796734
Ni      13.84058660      14.04166970      10.41306838
Ni      11.71778853      14.28145776      11.64428024
Ni      15.66711231      14.99434600      11.64930515
Ni      13.45107727      16.10042247      11.68141659
Ni      11.41445121      14.02451126      14.03534666
Ni      15.38034558      15.24918372      14.03030881
Ni      13.01285309      15.91319904      14.11109209
Ni      13.46848587      11.96182643      16.38571657
Ni      15.67741043      13.08214747      16.41403224
Ni      13.72074171      14.04381231      15.29860888
Ni      13.84687950      14.02313740      17.65324434
Ni      11.72369849      13.76994827      16.42583766
Ni      15.34004102      15.50786484      16.44861095
Ni      12.97178117      15.97958551      16.57075038
Ni      17.23553720      14.51218923      15.15672400
Ni      17.23699648      13.57411259      12.90341638
Ni      14.48381093      17.39346321      15.13055667
Ni      15.35485727      17.19590895      12.84323909
Ni      14.50377738      10.67535534      12.93439601
Ni      15.37674864      10.87904481      15.22010954
Ni      10.92716994      15.83042742      15.38073143
Ni      11.21252632      16.30224957      12.87774691
Ni      11.22953049      11.74583855      15.19342479
Ni      10.93704281      12.21561954      12.69071830
Ni      16.78439722      11.21166789      13.00793559
Ni      17.43256592      12.17015820      15.05387430
Ni      17.41887111      15.91735587      13.00636476
Ni      16.76787580      16.87197996      15.05318405
Ni      13.13325914      18.00593389      13.06951935
Ni      12.15576046      17.82396868      15.22322820
Ni      12.17852300      10.22975626      12.84571654
Ni      13.16011722      10.05424861      14.99809517
38
Properties=species:S:1:pos:R:3 config_type=qcd gap_pre_relax_energy=-166.23043322192063 gap_pred_energy=-166.28588343665407 gap_fmax_final=0.0008313761028118105 gap_converged=1 pbc="F F F"
Ni      14.82323289      14.82323289      13.59764108
Ni      17.19484473      14.79830836      13.59764108
Ni      14.79830836      17.19484473      13.59764108
Ni      12.37204927      14.82323289      13.59764108
Ni      10.00043742      14.79830836      13.59764108
Ni      12.39697379      17.19484473      13.59764108
Ni      12.37204927      12.37204927      13.59764108
Ni      10.00043743      12.39697379      13.59764108
Ni      12.39697379      10.00043743      13.59764108
Ni      14.82323289      12.37204927      13.59764108
Ni      17.19484473      12.39697379      13.59764108
Ni      14.79830836      10.00043742      13.59764108
Ni      13.59764108      13.59764108      15.32693241
Ni      16.11634868      13.59764108      15.37559017
Ni      11.07893347      13.59764108      15.37559017
Ni      13.59764108      16.11634868      15.37559017
Ni      13.59764108      11.07893347      15.37559017
Ni      15.99670770      15.99670770      15.28635502
Ni      11.19857445      15.99670770      15.28635502
Ni      11.19857445      11.19857445      15.28635503
Ni      15.99670770      11.19857445      15.28635502
Ni      13.59764108      13.59764108      11.86834975
Ni      16.11634868      13.59764108      11.81969199
Ni      11.07893347      13.59764108      11.81969199
Ni      13.59764108      16.11634868      11.81969199
Ni      13.59764108      11.07893347      11.81969199
Ni      15.99670770      15.99670770      11.90892714
Ni      11.19857445      15.99670770      11.90892713
Ni      11.19857445      11.19857445      11.90892713
Ni      15.99670770      11.19857445      11.90892713
Ni      14.79467621      14.79467621      16.98428414
Ni      12.40060594      14.79467621      16.98428415
Ni      12.40060594      12.40060594      16.98428415
Ni      14.79467621      12.40060594      16.98428415
Ni      14.79467621      14.79467621      10.21099801
Ni      12.40060594      14.79467621      10.21099801
Ni      12.40060594      12.40060594      10.21099801
Ni      14.79467621      12.40060594      10.21099801
38
Properties=species:S:1:pos:R:3 config_type=qcd gap_pre_relax_energy=-166.2076603335192 gap_pred_energy=-166.55624871235918 gap_fmax_final=0.0009522527471906603 gap_converged=1 pbc="F F F"
Ni      15.20941058      11.69291854      10.22428133
Ni      14.82271777      10.05557829      11.91280760
Ni      13.58757267      12.03463045       8.49933406
Ni      13.83832306       9.83003063       9.68114584
Ni      14.47292074      12.44411838      12.34263849
Ni      14.00869878      13.71177016      10.32604286
Ni      12.53666314      10.09772883       7.71559414
Ni      14.64906390      10.94618714      14.21500967
Ni      12.91040948       8.64529289      11.55713531
Ni      13.67915918       8.83990571      13.79130016
Ni      12.78527998      10.78607372      12.77163331
Ni      11.86901662      13.53839611       9.27424889
Ni      12.75873432      11.71492948      10.65422429
Ni      11.49765929      12.26032005       7.36537051
Ni      10.98147172      10.17045186      11.34755625
Ni      13.02521465      12.65982324      14.32743623
Ni      12.28890062      10.40541079      14.99609447
Ni      12.41438061      15.42017554      10.56013222
Ni      11.75495610       8.72772421       9.49366531
Ni      10.50635110      12.52289971      11.04443574
Ni      11.26672366       8.94217850      13.42105020
Ni      12.39996403      13.68184432      12.19393425
Ni      11.09795057      12.25536811      15.72559089
Ni      11.15369744      14.17816395      14.31551957
Ni      10.81772733      10.89629479       9.09702310
Ni      10.14494079      14.76606724      10.47004207
Ni      10.91702419      12.04395844      13.32314937
Ni      11.09681253      15.65791369      12.46572140
Ni       9.61877058      12.92305847       8.86615891
Ni      10.70957734       7.75093352      11.46104907
Ni       9.44300811       8.94135361       9.93514593
Ni       9.08310477       9.41037889      12.36018164
Ni       9.46590862      14.00521032      12.66640926
Ni       9.77453746      10.44077897      14.47138711
Ni       8.75895395      11.07968421      10.37619306
Ni       9.09921333      12.81623836      14.68716635
Ni       8.23676411      13.31765810      10.76806156
Ni       8.64840389      11.71853782      12.62611659
39
Properties=species:S:1:pos:R:3 config_type=qcd gap_pre_relax_energy=-171.07839152752786 gap_pred_energy=-171.53907924858902 gap_fmax_final=0.0009098174919713403 gap_converged=1 pbc="F F F"
Ni      15.68153873      13.08509262      15.01576211
Ni      13.38950165      13.75993997      14.99837728
Ni      13.16334779      11.89081064      13.76290541
Ni      13.39926504      13.59471635      17.43183641
Ni      14.18784527      11.67348412      16.10638038
Ni      11.88764175      12.31344852      16.02527427
Ni      11.57603971      14.74124108      16.07600826
Ni      12.36391361      18.07854433      13.99470945
Ni      11.25765735      13.43551296      14.00875007
Ni      13.66493252      16.62228446      12.61416896
Ni      11.47427677      17.12687719      16.00083778
Ni      13.68638965      18.17343956      16.07385980
Ni      13.14779915      16.08115545      17.41901723
Ni      11.48632377      15.78939686      13.73481294
Ni      15.02263954      14.98405792      11.40783191
Ni      13.32310344      16.14864247      14.98718410
Ni      15.14731752      12.87483368      12.64029119
Ni      13.04482562      14.20995052      12.62119880
Ni      15.00807571      14.99435227      13.73167404
Ni      15.33125100      10.94847646      14.04535385
Ni      17.91247147      13.20957722      16.12292448
Ni      17.03171879      15.05643800      15.01552301
Ni      15.57427929      16.94985390      14.99770725
Ni      18.95559467      14.05423294      14.05444490
Ni      17.38936577      12.28116264      13.78765296
Ni      17.60274601      17.22687652      16.10296071
Ni      17.06690272      14.46189151      12.64526645
Ni      16.15082500      16.77798774      12.62915655
Ni      17.12193851      18.46110056      14.02311846
Ni      18.32422156      16.42115944      13.77524524
Ni      19.08806157      15.35614212      16.05693657
Ni      17.09970196      15.22486214      17.44780750
Ni      14.99174437      15.00590095      16.30735145
Ni      15.92444746      19.00757331      16.02044918
Ni      14.97713289      15.01641726      18.63706528
Ni      15.84159666      13.06548715      17.44946496
Ni      16.59301446      11.21904727      16.05953761
Ni      14.67567027      18.58933672      13.74235183
Ni      15.43488096      17.08869518      17.42880135
39
Properties=species:S:1:pos:R:3 config_type=qcd gap_pre_relax_energy=-171.15086800879692 gap_pred_energy=-171.3346996845949 gap_fmax_final=0.000879495976074017 gap_converged=1 pbc="F F F"
Ni      14.79310117      10.49190086      11.26297146
Ni      14.33994210      12.70103208      10.64806420
Ni      13.89462036       8.97584940      12.88321525
Ni      14.22183001      11.96970440      12.97709269
Ni      13.56385922      10.73078789       9.23137177
Ni      13.47804448       8.73943283      10.50725153
Ni      13.18827160      10.50022802      14.52519679
Ni      13.35895829      12.97536315       8.44469971
Ni      12.77486740      13.69935855      12.20813815
Ni      12.86337359      14.58512679      10.05461637
Ni      12.07103404      12.25351005      10.36632349
Ni      11.68745598       8.33764882      12.09411961
Ni      12.46042190      10.65463027      12.15166743
Ni      11.94336143       8.50266357      14.37722503
Ni      12.01275174       9.09549685       7.99084849
Ni      10.67993028      12.31251660      12.32800650
Ni      11.58311891      11.47378659       8.03428616
Ni      11.05584550      13.73209046       8.80179010
Ni      11.67140660       7.39349583       9.88962474
Ni      12.16508824      12.58221160      14.17146991
Ni       9.95342397      10.19641462      11.71736652
Ni      10.66640051      14.31734671      11.04147921
Ni      11.43639936       9.78153609      10.02455557
Ni       9.43178632      12.63713185       7.60748091
Ni       9.58066602      10.28197578       7.78564751
Ni      10.84240973      10.56484960      14.07790828
Ni       9.61134885       7.97645091      11.00583523
Ni       9.88170505      11.62757475       9.75644252
Ni       9.90371073       8.17965804       8.66205047
Ni       9.67819105       8.61951558      13.41600907
Ni      10.83200583      14.45995585      13.39015019
Ni       9.77367604      12.71784147      14.50640797
Ni       8.73239417      13.47843343      12.34047071
Ni       8.42804601       9.63389468       9.79202862
Ni       8.72844761      13.58345343       9.89330036
Ni       8.58953130      11.08287121      13.37041373
Ni       7.70026252      11.62962949       8.77471138
Ni       7.81508542       9.26405248      12.05972198
Ni       7.93609739      11.58945011      11.15891116
40
Properties=species:S:1:pos:R:3 config_type=qcd gap_pre_relax_energy=-176.1404537337796 gap_pred_energy=-176.26217146002864 gap_fmax_final=0.0007703286837390569 gap_converged=1 pbc="F F F"
Ni      13.90407228      13.95466219      15.26545609
Ni      13.86077325      13.95466695      17.48421597
Ni      14.98735548      11.93049498      16.26044256
Ni      12.65095904      11.93980006      16.22924064
Ni      12.65095898      15.96952842      16.22923200
Ni      14.98735541      15.97883370      16.26043388
Ni      16.11025427      13.95466456      16.35464136
Ni      13.29217521      12.00315809      13.92923873
Ni      11.93137587      13.95465944      13.99738417
Ni      13.29217515      15.90616053      13.92923036
Ni      15.59384371      15.19250603      14.06404919
Ni      15.59384375      12.71681324      14.06405450
Ni      14.00975033      13.95465668      12.69531385
Ni      11.61490987      13.95466487      16.53265122
Ni      16.31645515      10.58749651      14.81546080
Ni      13.96852130      10.10555698      14.97531328
Ni      11.53956537      10.54089803      14.68927853
Ni      10.38802106      12.60163276      15.00018225
Ni      10.38802102      15.30769037      15.00017645
Ni      11.53956527      17.36842381      14.68926389
Ni      13.96852118      17.80376616      14.97529677
Ni      16.31645505      17.32182601      14.81544636
Ni      17.64639772      15.18883085      15.04343916
Ni      17.64639775      12.72049269      15.04344446
Ni      15.03859479      10.74377584      12.76963098
Ni      12.75980140      10.03682781      12.72832729
Ni      11.23582028      11.95260358      12.73282008
Ni       9.89166547      13.95465711      12.92429743
Ni      11.23582022      15.95670985      12.73281150
Ni      12.75980127      17.87248565      12.72831049
Ni      15.03859469      17.16553787      12.76961721
Ni      17.30539251      16.34764246      12.86949414
Ni      17.33828598      13.95465718      12.90555866
Ni      17.30539258      11.56167174      12.86950440
Ni      13.36393113      11.96278511      11.45874897
Ni      11.89666216      13.95465412      11.51818225
Ni      13.36393107      15.94652293      11.45874043
Ni      15.71506915      15.17981997      11.52984496
Ni      15.71506919      12.72948845      11.52985021
Ni      14.02481975      13.95465158      10.31774962
40
Properties=species:S:1:pos:R:3 config_type=qcd gap_pre_relax_energy=-175.82281832417544 gap_pred_energy=-176.26217095579193 gap_fmax_final=0.000825050208758919 gap_converged=1 pbc="F F F"
Ni      14.04667310      14.09809621      15.40888614
Ni      14.00266509      14.09810103      17.62772017
Ni      15.12927416      12.07394735      16.40442569
Ni      12.79284183      12.08304332      16.37164268
Ni      12.79284177      16.11315324      16.37163393
Ni      15.12927410      16.12224942      16.40441690
Ni      16.25219506      14.09809861      16.49937309
Ni      13.43570567      12.14633169      14.07220704
Ni      12.07500275      14.09809343      14.13963086
Ni      13.43570561      16.04985491      14.07219857
Ni      15.73699904      15.33592293      14.20834718
Ni      15.73699907      12.86026433      14.20835255
Ni      14.15370837      14.09809063      12.83876655
Ni      11.75736763      14.09809893      16.67566015
Ni      16.45930473      10.73098732      14.96014012
Ni      14.11128931      10.24873063      15.11883925
Ni      11.68258676      10.68379751      14.83106642
Ni      10.53172878      12.74492841      15.14218671
Ni      10.53172874      15.45126275      15.14218084
Ni      11.68258667      17.51239234      14.83105160
Ni      14.11128920      17.94746053      15.11882255
Ni      16.45930464      17.46520322      14.96012551
Ni      17.78901332      15.33224807      15.18884919
Ni      17.78901336      12.86394350      15.18885455
Ni      15.18268581      10.88706899      12.91356619
Ni      12.90411724      10.17993082      12.87096076
Ni      11.37999280      12.09592319      12.87478722
Ni      10.03590945      14.09809107      13.06588394
Ni      11.37999274      16.10025816      12.87477853
Ni      12.90411713      18.01625055      12.87094375
Ni      15.18268572      17.30911264      12.91355225
Ni      17.44932661      16.49108555      13.01472039
Ni      17.48209536      14.09809114      13.05064993
Ni      17.44932668      11.70509657      13.01473078
Ni      13.50870560      12.10610304      11.60188163
Ni      12.04141320      14.09808805      11.66036639
Ni      13.50870554      16.09007284      11.60187299
Ni      15.85972783      15.32329305      11.67420763
Ni      15.85972786      12.87288322      11.67421295
Ni      14.17010635      14.09808548      10.46124109
41
Properties=species:S:1:pos:R:3 config_type=qcd gap_pre_relax_energy=-180.34810950170208 gap_pred_energy=-180.5373278372411 gap_fmax_final=0.0008268006494866762 gap_converged=1 pbc="F F F"
Ni      13.85061756       9.06563240      12.75611680
Ni      14.55532071       8.66689820      10.43243033
Ni      12.64868614       7.50964166      10.99840820
Ni      15.13186778      10.66958480      11.50934506
Ni      14.02160661      11.35217219      13.44557709
Ni      12.16203618      10.11958462      14.28926204
Ni      11.57647948       8.51713129      12.74771573
Ni      15.32448416      12.93300258      12.22685374
Ni      12.51097789      12.47934376      14.84608059
Ni      12.70117562       9.08560282       8.88083791
Ni      12.58753929       9.99978546      11.02408447
Ni      14.49388869      10.66721577       9.20969827
Ni      10.79297268       8.52625016      10.12972211
Ni      13.26790701      13.63878682      12.91549921
Ni      15.82957253      12.43710705      10.06843265
Ni       9.59302773       7.74561181      11.91374556
Ni       9.78147896       9.37988711      13.97502023
Ni      13.40786948      12.22707704      10.72764662
Ni      10.33958564      11.63624722      14.54931424
Ni      11.77830176      11.74146440      12.59112576
Ni      10.00861794      10.19892739      11.79657646
Ni       8.26858150      11.19978854      13.56527588
Ni      14.01813854      14.35430090      10.63494335
Ni      14.24336443      12.97587596       8.52988046
Ni       8.82044807      13.43487281      14.17638827
Ni      10.44745693      10.15955528       8.55501696
Ni      12.47909714      11.39699875       8.29719625
Ni       7.87313843       9.18298969      12.43428533
Ni      10.99334427      13.81408029      13.59681300
Ni      11.06324123      11.77403673      10.19448867
Ni       8.61395948       9.40093500      10.10535109
Ni      11.57935315      13.99229755      11.34733900
Ni       9.48319308      12.53000873      11.90266605
Ni      12.13178581      13.69397349       9.09764305
Ni       7.15473645      13.10790163      12.66700187
Ni      10.43835618      12.51506272       7.91833795
Ni       8.80400949      11.68029616       9.39819315
Ni       9.22730985      14.72368921      12.07027210
Ni       7.53702452      11.20438237      11.29374105
Ni       9.85142256      13.86989485       9.78068362
Ni       7.69675888      13.48083861      10.48972367
41
Properties=species:S:1:pos:R:3 config_type=qcd gap_pre_relax_energy=-180.31247155099214 gap_pred_energy=-180.7499484367326 gap_fmax_final=0.0009933386795374973 gap_converged=1 pbc="F F F"
Ni      14.20351784      14.10540688      15.31037610
Ni      14.18354334      14.31994238      17.54395871
Ni      14.52306819      11.96667649      16.37697406
Ni      12.32193733      12.82836204      16.37589897
Ni      12.16749661      15.13660898      16.36217022
Ni      15.63330663      15.87749753      16.26737616
Ni      16.33820281      13.56158422      16.29893004
Ni      13.63683337      12.10716616      14.12824100
Ni      12.09857634      14.01855790      14.13599963
Ni      13.49600742      15.95934895      14.07150703
Ni      15.78943619      15.36403813      13.93104941
Ni      15.90734618      12.97840466      13.99949799
Ni      14.14708039      14.02850325      12.74943762
Ni      10.23513628      13.92486790      16.82038048
Ni      13.61753291      16.74871208      16.96136288
Ni      16.46702230      11.12690947      15.17398574
Ni      14.34895378      10.02490581      14.96811318
Ni      12.00696871      10.85076474      15.07190796
Ni      10.40364786      12.65324587      14.89967356
Ni      10.31041788      15.30463905      14.88900426
Ni      11.89899840      17.18291040      15.14369381
Ni      14.40139033      17.83055303      15.03160023
Ni      16.70896454      17.41376237      14.77862152
Ni      17.75518452      15.22089675      15.05609776
Ni      18.13540997      12.88766326      14.87498069
Ni      15.30745760      10.87544199      12.91186149
Ni      13.02828888      10.13272632      12.94590615
Ni      11.53155171      12.01284204      12.86995090
Ni      10.09926757      13.97671525      12.86531478
Ni      11.43427617      16.01429569      12.86180013
Ni      12.91941559      17.93592285      12.99715725
Ni      15.23384793      17.32625714      12.78222187
Ni      17.52368790      16.46558403      12.77904243
Ni      17.61845838      14.09433223      12.81011355
Ni      17.54516112      11.68223567      12.90850152
Ni      13.58325017      12.01753913      11.58158749
Ni      12.08422995      14.02286487      11.58279517
Ni      13.54083277      16.05048553      11.59396776
Ni      15.88403068      15.26526913      11.50288784
Ni      15.90528544      12.81841329      11.54568406
Ni      14.16485103      14.02701951      10.38024156
42
Properties=species:S:1:pos:R:3 config_type=qcd gap_pre_relax_energy=-185.34411940967703 gap_pred_energy=-185.5492011569018 gap_fmax_final=0.000900598609314161 gap_converged=1 pbc="F F F"
Ni      14.31793544      13.96765023      15.21963483
Ni      14.44759276      13.89640339      17.49796205
Ni      15.22086565      11.99790627      16.17283938
Ni      12.67180114      12.55991288      16.24279612
Ni      12.64507370      15.13989956      16.39008208
Ni      14.92858890      16.02841216      16.32182760
Ni      16.49850898      14.17899775      16.17016273
Ni      13.60853058      12.02971918      14.00717935
Ni      12.20951913      13.98518666      14.10887663
Ni      13.65782569      15.94949650      14.12109223
Ni      15.98860170      15.13022725      13.99161172
Ni      15.92064733      12.71499457      13.95753667
Ni      14.24902897      14.00215139      12.71826431
Ni      10.69940109      13.96180496      16.79960158
Ni      10.78850310      16.44277021      16.83830521
Ni      13.03715119      17.42023139      16.80770294
Ni      16.61294274      10.61594581      14.78323347
Ni      14.27416431      10.10724836      14.97967782
Ni      11.87855317      10.70549066      14.85120985
Ni      10.51419224      12.62799779      14.87671346
Ni      10.41693245      15.24253674      14.86405921
Ni      11.82041014      17.18693913      14.84980840
Ni      14.40101437      17.97431152      14.93687123
Ni      16.64302844      17.05385806      14.98115920
Ni      18.21589878      15.10328943      14.77371317
Ni      17.96583630      12.71232364      14.92104562
Ni      15.29545539      10.72721291      12.75257988
Ni      13.00111041      10.07006642      12.82205702
Ni      11.53631617      11.98167242      12.77139969
Ni      10.18363352      13.96554190      12.85098251
Ni      11.57103776      15.94239959      12.79288790
Ni      13.04314350      17.87022311      12.89079076
Ni      15.35415293      17.16634021      12.83749619
Ni      17.62378382      16.34569126      12.79732000
Ni      17.67371138      13.92510264      12.73259955
Ni      17.57400979      11.52239820      12.76234690
Ni      13.63120565      11.97926402      11.50746348
Ni      12.17379451      13.96436157      11.54133591
Ni      13.64979000      15.99143782      11.55628640
Ni      15.97889171      15.19921289      11.50216819
Ni      15.95117226      12.74251538      11.48666091
Ni      14.25287397      13.99748520      10.33928896
42
Properties=species:S:1:pos:R:3 config_type=qcd gap_pre_relax_energy=-185.42458152240192 gap_pred_energy=-185.65478391877264 gap_fmax_final=0.0009485053634751199 gap_converged=1 pbc="F F F"
Ni      13.80940392      16.79733439      11.14034541
Ni      13.99033354      17.48034116      13.33174766
Ni      10.27888620      13.36270421      15.86020558
Ni      18.10495550      13.61648785      15.75420286
Ni      16.67473362      11.42750218      11.85966247
Ni      14.25425128      10.77448941      15.89861320
Ni      11.79488382      11.41706082      11.81900236
Ni      14.18003413      14.92590849      18.28589368
Ni      17.54288478      15.86820708      16.00961549
Ni      15.45152071      12.63477262      10.28752428
Ni      12.32938522      15.05864354      10.27897889
Ni      14.05547343      17.70170071      15.65683450
Ni      10.68658076      15.64522642      16.14139114
Ni      10.31244184      14.87556524      13.81068506
Ni      17.74558502      15.19095293      13.60043799
Ni      17.02642593      14.05415598      11.60405220
Ni      13.05773896      12.81968693      10.35632370
Ni      15.55572919      16.56651373      17.10681628
Ni      12.66658310      16.48848793      17.16724710
Ni      10.90587371      13.75039817      11.72667260
Ni      15.91969957      16.11838230      12.28748387
Ni      16.19291951      14.21947344      17.17334153
Ni      14.21270813      11.24336959      11.78785538
Ni      12.21818129      12.01962591      15.92709065
Ni      12.19934672      14.09038786      17.19325016
Ni      11.00178644      12.44456607      13.80730742
Ni      17.41932765      12.67688362      13.71379475
Ni      13.00344774      11.04186699      13.84283470
Ni      14.23658524      12.83384370      17.15216573
Ni      15.49066615      11.01361448      13.87553247
Ni      16.23840631      12.13545081      15.86643940
Ni      15.89779035      16.72102021      14.58907630
Ni      14.53520229      14.63055497      11.04368218
Ni      12.22565659      16.61848760      14.68307868
Ni      12.15659385      15.73513201      12.49913971
Ni      15.31007390      13.15629961      12.74010213
Ni      16.05541628      14.33800695      14.80925624
Ni      12.24017508      14.26623414      14.79270434
Ni      14.16218236      12.90540429      14.79695730
Ni      14.12367976      15.20531756      15.93957161
Ni      12.95374147      13.33132424      12.63124859
Ni      14.17903144      15.19493664      13.54815716
43
Properties=species:S:1:pos:R:3 config_type=qcd gap_pre_relax_energy=-190.36160437754668 gap_pred_energy=-190.50321016653035 gap_fmax_final=0.0009343598419302384 gap_converged=1 pbc="F F F"
Ni      13.73918463      12.94599233      10.14704600
Ni      13.97634610      14.21640491      12.06730466
Ni      14.33847963      10.73176204       9.80031407
Ni      15.57391927       9.51874043      11.39869919
Ni      12.48775049      14.17625836       8.52346241
Ni      14.76950082      11.82212057      12.17470928
Ni      12.88695227      11.84224910       8.23702882
Ni      13.55148625      13.10854509      14.02760333
Ni      11.99388837      14.58057634      10.75568656
Ni      12.41995473      12.27490452      12.03762747
Ni      13.01958419       9.50202346       8.10570140
Ni      13.67859295       8.45057571      10.08126460
Ni      11.96884151      10.32418626      10.12902112
Ni      11.79929931      14.40137883      13.05484190
Ni      10.10625316      14.40094253       9.21884133
Ni      14.19231680       7.77267653      12.31693162
Ni      11.18482264      12.49503542       9.86046174
Ni      14.85162789       9.64595384      13.67809525
Ni      13.37105985       9.95970199      11.94644472
Ni      10.92484503      12.90486008       7.40658941
Ni      10.86393928      10.54955228       8.01655310
Ni      12.87984030      10.90898709      14.11547626
Ni       9.80795665      14.87810545      11.61372278
Ni      11.05808255      10.24982320      12.39290940
Ni      11.14315860       8.40187876       9.20521871
Ni       9.13663510      12.05732604       8.54803589
Ni      10.06174035      12.65354804      12.22903773
Ni      11.20880092      12.48785445      14.38194468
Ni      12.53606824       8.66058664      13.81167069
Ni       9.48408911      10.92334643      10.70546407
Ni       8.45589062      13.23665328      10.46501669
Ni       9.69997285      14.27879363      14.04059332
Ni      11.89964857       8.04198707      11.55154918
Ni       9.67856163       8.53605702      11.07568450
Ni       7.29106635      11.26277856       9.65698276
Ni      10.56782307      10.19470926      14.63351512
Ni       8.78524024       9.83718711      13.00093544
Ni       7.90607618      13.77182803      12.70739958
Ni       8.95998934       9.52275590       8.97318455
Ni      10.32287222       8.11250649      13.35804155
Ni       8.88563431      11.93335771      14.09547312
Ni       7.58889106      11.58856141      12.01346892
Ni       7.52256024       9.41617154      11.01969078
43
Properties=species:S:1:pos:R:3 config_type=qcd gap_pre_relax_energy=-190.05855249309363 gap_pred_energy=-190.35676926661887 gap_fmax_final=0.0009266039166761042 gap_converged=1 pbc="F F F"
Ni      14.33329417      13.90365371      15.08053399
Ni      14.16077892      13.81448916      17.37313078
Ni      15.44276212      12.06234592      16.13497713
Ni      12.96075172      12.15592498      16.09030470
Ni      12.73438166      15.37101122      15.85951738
Ni      14.85566164      16.05640736      16.51984281
Ni      16.40748929      14.29914666      16.20804396
Ni      13.55733615      12.01954410      13.75854934
Ni      12.27616325      14.00523788      13.84430460
Ni      13.72243138      15.91013083      13.79239098
Ni      16.00459308      15.04865898      13.90924697
Ni      15.87490665      12.61811411      13.80588646
Ni      14.33264504      13.95312360      12.52618211
Ni      12.86816426      15.62727508      18.15648567
Ni      11.51883413      13.84914750      16.95884372
Ni      10.91653357      16.36696058      16.88738065
Ni      12.98053956      17.58067680      16.80707887
Ni      16.62353376      10.54921042      14.70068307
Ni      14.27547360      10.23526409      14.93621074
Ni      11.87024184      10.57389726      14.65160153
Ni      10.79715128      12.66597495      14.96049682
Ni      10.50134226      15.11897330      14.90452172
Ni      11.82307585      17.23349016      14.71230702
Ni      14.33142051      17.84110686      14.88849326
Ni      16.55319118      16.90646139      15.05896811
Ni      18.19152617      15.04429701      14.80063847
Ni      17.78481535      12.69417070      15.00097884
Ni      15.31270490      10.66842015      12.63360234
Ni      13.01690948      10.03351912      12.64434879
Ni      11.50254761      11.95220302      12.63860882
Ni      10.19130499      13.94871716      12.81777885
Ni      11.53900033      15.96655590      12.67787731
Ni      13.07055618      17.88068103      12.73541235
Ni      15.42031429      17.17078082      12.78255600
Ni      17.65495201      16.31397317      12.83153060
Ni      17.68471896      13.87886083      12.72493308
Ni      17.60379274      11.48537057      12.72286510
Ni      13.66568893      11.95017380      11.32480917
Ni      12.19677729      13.95109517      11.39952095
Ni      13.66306914      15.98160274      11.37804033
Ni      16.02797693      15.21711565      11.42263452
Ni      16.02659018      12.70904784      11.35180711
Ni      14.32261817      13.98574890      10.18463549
44
Properties=species:S:1:pos:R:3 config_type=qcd gap_pre_relax_energy=-194.68282507085524 gap_pred_energy=-195.3359753403476 gap_fmax_final=0.000696738285672427 gap_converged=1 pbc="F F F"
Ni      14.36113778      13.88825217      15.11866259
Ni      14.66138743      13.61664445      17.35315527
Ni      16.42426396      12.29876063      16.40476754
Ni      12.47187877      12.95153682      16.29754530
Ni      12.44639174      15.32798603      15.72001435
Ni      14.73005577      15.92985723      16.35639136
Ni      16.61910595      14.57131274      16.08418458
Ni      13.71793870      11.98347179      13.75900541
Ni      12.26305877      13.93464758      13.83952807
Ni      13.77415529      15.92754871      13.87904759
Ni      16.04696385      15.05491566      13.81917508
Ni      15.99022603      12.67649041      13.92740476
Ni      14.31792328      13.97153059      12.56140580
Ni      12.81020637      15.00952661      17.86562531
Ni      14.29513452      11.50631243      16.02419911
Ni      10.58986006      14.27547682      16.79003105
Ni      10.69198491      16.64028591      16.61797499
Ni      12.93759408      17.37196419      16.85134977
Ni      16.38791413      10.58507502      14.74896024
Ni      14.18324453       9.73377817      14.48612969
Ni      12.03762928      10.98139488      14.88798908
Ni      10.49300656      12.86960116      14.84401095
Ni      10.32638638      15.35788821      14.62691560
Ni      11.86582742      17.38808851      14.66710550
Ni      14.30194478      17.89344326      14.94350842
Ni      16.53619573      16.91417258      15.00496900
Ni      18.32444763      15.19522490      14.59315743
Ni      18.09539567      12.83686864      14.79303390
Ni      15.29257632      10.71113068      12.53561410
Ni      12.90090758      10.11852532      12.55792849
Ni      11.50460014      12.02783494      12.67756189
Ni      10.20025315      14.03230032      12.66575802
Ni      11.62774283      16.00882261      12.68374983
Ni      13.14514955      17.91626356      12.74265034
Ni      15.42687238      17.20069868      12.77967210
Ni      17.64429719      16.37427473      12.68081865
Ni      17.71992759      13.91268601      12.59823412
Ni      17.57974875      11.49468004      12.73377339
Ni      13.58451966      12.02484810      11.30505274
Ni      12.20928288      14.03528858      11.36673660
Ni      13.70954391      16.01408109      11.40584017
Ni      16.01751561      15.23382730      11.36788821
Ni      15.98015819      12.73370238      11.40112783
Ni      14.31054429      14.02387898      10.18724518
44
Properties=species:S:1:pos:R:3 config_type=qcd gap_pre_relax_energy=-195.1518452492429 gap_pred_energy=-195.24227394911074 gap_fmax_final=0.0009049168129638877 gap_converged=1 pbc="F F F"
Ni      17.10151684      15.00997822      10.35888862
Ni       9.91068678      11.98702362      13.45209301
Ni       9.92017122      12.62230645      15.67660020
Ni      18.32696696      15.62314202      12.22305922
Ni      17.92184506      12.54429606      15.79784127
Ni      11.60614320      16.99622590      16.34532611
Ni      13.91697849      13.23665543      18.10376328
Ni      16.27799023      16.97838749      16.24919091
Ni      17.76247826      11.71540836      13.63174743
Ni      10.50769478      16.55323079      14.34492171
Ni      11.93295260      11.04041787      12.90762028
Ni      14.96542369      15.84158120      10.52689485
Ni      12.72216615      17.55015443      14.16980124
Ni      15.95448683      11.12961189      15.15380268
Ni      16.33237774      17.10345237      12.09464926
Ni      11.77243269      10.99847163      15.33454101
Ni      13.14879852      14.49019913      11.02460338
Ni      13.51331296      12.15323496      11.62823099
Ni      10.00354121      14.31226138      13.79277111
Ni      17.55851423      13.24067029      11.83942016
Ni      15.19276463      17.71728208      14.15176837
Ni      13.88092945      11.36384785      16.48694647
Ni      11.42994221      13.24445482      12.07189263
Ni      15.30770076      13.47578906      10.83218303
Ni      18.19971198      14.09660800      13.99580073
Ni      10.69402407      14.80258711      16.04585670
Ni      15.88364014      12.81668730      16.90426352
Ni      13.93712354      17.02002458      16.20892464
Ni      11.93556733      12.87916080      16.87342143
Ni      17.27184815      16.33732246      14.20737372
Ni      15.66669917      11.88751749      12.58225765
Ni      17.13514067      14.76547104      16.05998818
Ni      12.75106810      15.13723593      17.26974400
Ni      11.77252820      15.54060382      12.64266543
Ni      15.11629096      15.12649055      17.23877172
Ni      14.00313498      16.32601956      12.58714661
Ni      13.87318785      11.54434084      14.08572695
Ni      12.64289395      15.36020996      14.81719876
Ni      16.01140745      13.29635637      14.43046633
Ni      16.05840475      14.89508077      12.57686642
Ni      11.90677064      13.06517303      14.38771525
Ni      15.07276808      15.48036528      14.75861449
Ni      13.94394964      13.54282076      15.69037651
Ni      13.88926274      13.88507888      13.17150157
45
Properties=species:S:1:pos:R:3 config_type=qcd gap_pre_relax_energy=-199.7878595247642 gap_pred_energy=-199.96548535313454 gap_fmax_final=0.000999215529515557 gap_converged=1 pbc="F F F"
Ni      14.34512439      13.28825405      12.72523473
Ni      14.34938363      13.31868504      15.18685654
Ni      16.63959673      14.04526126      12.76827688
Ni      16.71303035      14.02949084      15.28089750
Ni      15.03995677      15.31567764      14.02934263
Ni      14.92646428      15.31519041      11.62899669
Ni      12.86605144      15.17110391      12.84700884
Ni      16.62176591      16.53484974      12.76795270
Ni      14.16316646      17.22031704      12.90814578
Ni      12.93626661      15.31224082      15.29787255
Ni      16.72892137      16.54706787      15.31352688
Ni      14.37508307      17.28751106      15.40845833
Ni      14.13885802      13.38891319      17.68721486
Ni      16.60727248      14.04359106      17.82663734
Ni      15.04009993      15.28171110      16.56567891
Ni      14.92736558      15.28400642      18.96590530
Ni      12.86840106      15.45453488      17.74861200
Ni      16.65634505      16.53221411      17.82590398
Ni      14.37185747      17.31815383      17.86987838
Ni      18.31821047      15.27787664      16.63150333
Ni      18.31731410      15.27879390      13.96199203
Ni      16.06496867      18.54780128      16.61387307
Ni      15.92309022      18.46269568      14.00064321
Ni      16.02276080      12.03766750      13.98084489
Ni      15.88300238      12.12513070      16.59457771
Ni      12.31420540      17.49342146      16.51921232
Ni      12.07261161      17.13416351      14.15736461
Ni      12.04902945      13.50186682      16.43852894
Ni      12.28579422      13.13944141      14.07663688
Ni      18.30793015      12.79887651      14.07027426
Ni      18.26315895      12.82579179      16.55728784
Ni      18.29348098      17.73162784      14.03649650
Ni      18.34005104      17.75746519      16.52317311
Ni      13.47861738      19.08671851      14.33083043
Ni      13.79051663      19.30934580      16.69831620
Ni      13.73861186      11.30476526      13.89713454
Ni      13.42982966      11.53157712      16.26491301
Ni      10.88711720      15.01734328      14.16895694
Ni      10.89128889      15.63389111      16.42702038
Ni      19.85424903      14.07000307      15.30781909
Ni      19.86952379      16.46708844      15.28455520
Ni      17.60035461      19.63357984      15.21575601
Ni      15.29709593      20.35420360      15.23374438
Ni      17.54458831      10.93292833      15.37880990
Ni      15.23220462      10.24177802      15.36195134
45
Properties=species:S:1:pos:R:3 config_type=qcd gap_pre_relax_energy=-199.78238424393098 gap_pred_energy=-199.90137140813133 gap_fmax_final=0.000901350922590964 gap_converged=1 pbc="F F F"
Ni      14.34742528      12.99623919      12.62822249
Ni      14.28474191      13.01048833      15.14219379
Ni      16.64691136      13.75274821      12.48900497
Ni      16.64886478      13.74678177      14.97733516
Ni      14.96366611      14.98964281      13.78222388
Ni      14.93002649      14.96558242      11.37487338
Ni      12.87838919      15.05859395      12.62815576
Ni      16.65203591      16.19209893      12.53371181
Ni      14.34481428      16.98460115      12.48880758
Ni      12.87145884      14.99465079      15.14219174
Ni      16.70226940      16.22787927      15.02114080
Ni      14.33990444      16.98828478      14.97730197
Ni      14.25100703      13.00309179      17.59682675
Ni      16.56617806      13.65133228      17.49664015
Ni      15.00044993      15.01559774      16.31830412
Ni      14.95121675      14.98026778      18.72410415
Ni      12.85360609      14.96486227      17.59682705
Ni      16.63410157      16.17889445      17.56229059
Ni      14.22277054      16.94088559      17.49682188
Ni      18.27121236      14.89646261      16.34428011
Ni      18.35619387      14.96553894      13.72792631
Ni      15.95674229      18.14532427      16.34459471
Ni      16.04976019      18.20338806      13.72781790
Ni      16.07385592      11.77031666      13.84104816
Ni      15.85157027      11.67417885      16.25982491
Ni      12.12071902      16.91213047      16.25983359
Ni      12.28411050      17.09085809      13.84099547
Ni      12.14972209      12.98500347      16.36618836
Ni      12.24988915      13.05653800      13.80729349
Ni      18.31664992      12.55016397      13.68424567
Ni      18.12067665      12.39239779      16.08018112
Ni      18.35656682      17.40621973      13.83192120
Ni      18.30354071      17.36813131      16.29948272
Ni      13.75418905      18.95559709      13.68438730
Ni      13.54129789      18.82182876      16.08057683
Ni      13.79077384      11.07585438      14.02617937
Ni      13.55574873      11.04998529      16.40549703
Ni      10.88157894      15.16015155      14.02633058
Ni      10.78048249      14.94631451      16.40562817
Ni      19.84711241      13.68570781      15.07441195
Ni      19.89197562      16.09930047      15.10432009
Ni      17.62306923      19.28403820      15.10475060
Ni      15.32765771      20.03062020      15.07454235
Ni      10.21772234      13.10245427      15.00633423
Ni      11.62919788      11.12082563      15.00628360
46
Properties=species:S:1:pos:R:3 config_type=qcd gap_pre_relax_energy=-204.89116231953372 gap_pred_energy=-205.01531061325878 gap_fmax_final=0.000921993365865176 gap_converged=1 pbc="F F F"
Ni      14.47221243      14.00181788      14.76464616
Ni      14.45891341      14.00182288      17.12711938
Ni      15.14550287      11.96589730      15.85883718
Ni      12.73687611      12.75819783      15.67569517
Ni      12.73687604      15.24544179      15.67568982
Ni      15.14550258      16.03774319      15.85882860
Ni      16.59016486      14.00182034      15.81183352
Ni      13.73805240      12.03821269      13.57400059
Ni      12.30064494      14.00181530      13.57704814
Ni      13.73805235      15.96541794      13.57399219
Ni      16.06595962      15.24519469      13.62364182
Ni      16.06595961      12.75843616      13.62364712
Ni      14.38613590      14.00181258      12.29124685
Ni      12.52163637      12.80548826      17.93624956
Ni      12.52163640      15.19816104      17.93624439
Ni      13.18501519      10.69532927      16.57697717
Ni      10.90775204      11.57317111      16.54374735
Ni      10.85302120      14.00182166      16.56103149
Ni      10.90775192      16.43047214      16.54373694
Ni      13.18501497      17.30831429      16.57696301
Ni      16.66911035      10.69636459      14.42907050
Ni      14.35427977      10.05523664      14.57365906
Ni      11.92457815      10.76757413      14.49709838
Ni      10.49519807      12.74999395      14.50168692
Ni      10.49519802      15.25364054      14.50168155
Ni      11.92457802      17.23606040      14.49708451
Ni      14.35427964      17.94839829      14.57364218
Ni      16.66911023      17.30726960      14.42905648
Ni      18.18414413      15.19763006      14.44328596
Ni      18.18414397      12.80600433      14.44329123
Ni      15.37684148      10.76767769      12.36850780
Ni      13.05002228      10.09341209      12.45860983
Ni      11.57524647      12.00099393      12.40332681
Ni      10.21988644      14.00181286      12.45528516
Ni      11.57524642      16.00263162      12.40331825
Ni      13.05002217      17.91021373      12.45859310
Ni      15.37684141      17.23594780      12.36849401
Ni      17.66196118      16.43060101      12.37811185
Ni      17.70192337      14.00181270      12.33601237
Ni      17.66196123      11.57302458      12.37812223
Ni      13.66245411      12.00103643      11.11606328
Ni      12.22945280      14.00181005      11.12815914
Ni      13.66245405      16.00258368      11.11605472
Ni      16.02226426      15.25387169      11.09291731
Ni      16.02226429      12.74974838      11.09292266
Ni      14.31740305      14.00180752       9.92831487
46
Properties=species:S:1:pos:R:3 config_type=qcd gap_pre_relax_energy=-204.48790126178147 gap_pred_energy=-204.84886693372943 gap_fmax_final=0.0008361715855632571 gap_converged=1 pbc="F F F"
Ni      15.07458048      11.89332540      13.26562682
Ni      15.17342085       9.46860167      12.89527361
Ni      15.40335666      13.26460104      11.25547919
Ni      14.08671800      10.17107517      14.82913552
Ni      14.82171539      10.94417021      11.04416403
Ni      13.92670588      13.93363521      13.11216722
Ni      13.10382467      12.27325081      14.73361023
Ni      14.26618474      14.28221948       9.14328407
Ni      14.01581090      15.35417348      11.22200461
Ni      13.57692865       8.80351622      11.28962051
Ni      13.01329645       8.46866726      13.52889217
Ni      13.13335805      10.73905550      12.69430618
Ni      14.04430760       9.63130885       9.16805551
Ni      11.84228729      14.99719707      12.19049109
Ni      11.66213633      10.26221055      14.44204543
Ni      11.94086161      12.70525320      12.72785731
Ni      11.94501583      14.31665817      14.49807645
Ni      12.05591425      15.03250023       9.87223858
Ni      14.20813024      11.93022278       9.02854808
Ni      11.94516139       8.65603943       9.64262722
Ni      10.63850873      12.33104212      14.85060747
Ni      13.19420129      13.13432328      10.85130483
Ni      10.13397772      11.41531620      12.67444849
Ni       9.30300407      10.02415752      14.34961672
Ni      12.16833806      10.63019358       8.17582302
Ni      12.23784461      13.03815855       8.53910490
Ni      11.69853223       7.28044508      11.82149479
Ni      10.78539618      12.90002314      10.51567917
Ni      12.27212883      10.97112263      10.46742794
Ni      10.22864830      14.30896850       8.61198409
Ni      10.73303314       8.11925171      13.94438734
Ni      11.15527938       9.46490401      11.93362993
Ni       9.92509357      13.95815559      13.20006504
Ni       9.70501234      14.85067012      10.93302799
Ni       8.39471027      12.24434035      14.07591966
Ni      10.20447993      11.89161437       8.24063858
Ni      10.04226792       9.52591504       8.64698650
Ni       7.91930083      10.55965245      12.40831266
Ni       8.42119677      12.88658837      11.77035691
Ni       9.53466104      10.93744806      10.45381729
Ni       9.89556648       7.86908761      10.35157773
Ni       8.50100515      13.01443678       9.46211341
Ni       9.04078595       8.51690508      12.40196058
Ni       8.08773046      10.83324736       8.47441004
Ni       7.04044892      11.43812516      10.44458902
Ni       8.00412736       9.23322043      10.32220687
47
Properties=species:S:1:pos:R:3 config_type=qcd gap_pre_relax_energy=-209.53792578133877 gap_pred_energy=-209.76869776436413 gap_fmax_final=0.0009697996766667698 gap_converged=1 pbc="F F F"
Ni      14.52686343      14.06835885      14.83652190
Ni      14.45701866      13.83380537      17.17423390
Ni      15.37877003      12.00531049      15.80349044
Ni      12.70370610      12.91816869      15.71215068
Ni      12.73285514      15.34355556      15.66306475
Ni      15.05229662      16.09230062      16.07964084
Ni      16.63384074      14.07023448      15.93962087
Ni      13.79342670      12.10222653      13.65462260
Ni      12.35398621      14.06865298      13.59297004
Ni      13.81122616      16.03885861      13.64616344
Ni      16.16900992      15.31141476      13.81515322
Ni      16.08143829      12.80148679      13.60795915
Ni      14.45541731      14.09593309      12.36503279
Ni      12.42049302      12.90727924      18.03744048
Ni      12.66563490      15.30345584      17.90464274
Ni      13.38607697      10.99270222      16.67072579
Ni      10.94200192      11.65436472      16.59759111
Ni      10.83523721      14.09088563      16.62608034
Ni      10.88441657      16.49199260      16.56644992
Ni      13.09679370      17.42655999      16.64597555
Ni      17.42597972      16.22126648      16.32119331
Ni      16.73974762      10.64977845      14.36086592
Ni      14.41710409      10.10500971      14.62286188
Ni      12.01626878      10.84043369      14.59653579
Ni      10.52775958      12.80355090      14.53609265
Ni      10.50258476      15.28502935      14.53317086
Ni      11.90757012      17.30739926      14.52261400
Ni      14.28704380      18.03479839      14.67102985
Ni      16.58324040      17.44034080      14.53340266
Ni      18.35284665      15.09841938      14.49002201
Ni      18.10030113      12.71290943      14.58885075
Ni      15.40785714      10.81657164      12.36387793
Ni      13.09474909      10.16326355      12.52947053
Ni      11.62747263      12.05797114      12.46620019
Ni      10.26736905      14.04963905      12.47899067
Ni      11.61814823      16.06336792      12.45677793
Ni      13.08503560      17.97453125      12.51772258
Ni      15.41745783      17.29747289      12.45684614
Ni      17.71141733      16.48149892      12.53273874
Ni      17.75457345      14.04038505      12.41426185
Ni      17.70138875      11.61835723      12.37437610
Ni      13.71210588      12.09365042      11.18771019
Ni      12.28403533      14.07217630      11.16675574
Ni      13.70704555      16.07567460      11.18367783
Ni      16.08911735      15.33011553      11.21714070
Ni      16.07412672      12.82608184      11.11644765
Ni      14.38259548      14.09821137       9.99628667
47
Properties=species:S:1:pos:R:3 config_type=qcd gap_pre_relax_energy=-209.47640313393535 gap_pred_energy=-209.59957840412832 gap_fmax_final=0.0009463071782590184 gap_converged=1 pbc="F F F"
Ni      14.38579757      13.24362374      12.88085135
Ni      14.50803795      13.22092082      15.38313552
Ni      16.77750408      13.91406135      12.79253827
Ni      16.86072932      13.92587429      15.31742777
Ni      15.19535259      15.20357712      14.02987337
Ni      15.13118723      15.17015125      11.61978071
Ni      13.04745927      15.23670274      12.74757394
Ni      16.83398633      16.40282242      12.76756824
Ni      14.49831098      17.17153463      12.78970420
Ni      13.07746348      15.22725442      15.21256940
Ni      16.88983834      16.43331472      15.29795849
Ni      14.50996234      17.22157151      15.27834116
Ni      14.50705745      13.18975253      17.84835371
Ni      16.80928170      13.93145765      17.80660179
Ni      15.17611374      15.23057217      16.56592201
Ni      15.12283994      15.18158826      18.97601603
Ni      13.05879214      15.10448710      17.71454257
Ni      16.84253906      16.39065514      17.82842508
Ni      14.47120908      17.14691772      17.80263712
Ni      18.51900777      15.14498513      16.61299645
Ni      18.49005928      15.14332563      13.97474195
Ni      16.19107365      18.36666178      16.62104447
Ni      16.20221438      18.39368305      13.98311375
Ni      16.08235437      11.96822916      14.03052955
Ni      16.18047288      11.92258487      16.60862790
Ni      12.40480142      17.12394012      16.56481874
Ni      12.39388867      17.23159967      13.98740782
Ni      12.43827820      13.09517080      16.49705689
Ni      12.28401329      13.31151456      14.09862941
Ni      18.42818461      12.68870038      14.06588021
Ni      18.47191302      12.68007394      16.51629289
Ni      18.51253138      17.59928121      14.05684403
Ni      18.52025929      17.58832595      16.53922286
Ni      13.85628842      19.15109913      14.07986098
Ni      13.84997175      19.10678337      16.52948861
Ni      13.66635916      11.37965330      14.30328184
Ni      13.88287499      11.22341552      16.67439062
Ni      10.98492211      15.28706123      13.92123471
Ni      11.06211417      15.03145994      16.29205941
Ni      20.04700440      13.92691360      15.27478639
Ni      20.07704111      16.32410819      15.28065963
Ni      17.82427446      19.48296922      15.31545123
Ni      15.54785920      20.23499092      15.32125747
Ni      17.72969633      10.78314033      15.25852085
Ni      15.41645164      10.09070092      15.28550052
Ni      11.82057800      19.06755779      15.33711315
Ni      10.41267150      17.10585275      15.30998896
48
Properties=species:S:1:pos:R:3 config_type=qcd gap_pre_relax_energy=-214.4306446237218 gap_pred_energy=-214.74946176931505 gap_fmax_final=0.0008593909269894105 gap_converged=1 pbc="F F F"
Ni      14.51188218      14.00929772      14.81627662
Ni      14.41745811      13.44884964      17.18938704
Ni      15.51714693      11.97161069      15.69631025
Ni      12.61648575      12.92496029      15.65917111
Ni      12.73577928      15.32750770      15.56902733
Ni      15.13866140      16.24549990      15.56390432
Ni      16.48739219      14.18990032      16.06127678
Ni      13.75228291      12.06431534      13.63637689
Ni      12.33208809      14.03563640      13.52966736
Ni      13.77479642      16.02818931      13.53474552
Ni      16.09392007      15.22213201      13.57490649
Ni      16.00417913      12.74028588      13.46795386
Ni      14.38327443      14.04703487      12.27731258
Ni      12.29978782      12.76640915      18.01786738
Ni      12.73187394      15.11551129      17.84065280
Ni      15.09608849      15.61340788      17.70012396
Ni      13.46067406      11.05916475      16.59720864
Ni      10.88521565      11.60836855      16.51507851
Ni      10.80110748      14.08097000      16.58922697
Ni      10.98652157      16.48149161      16.55746130
Ni      13.32264836      17.27762388      16.65299775
Ni      17.24764631      16.36084845      16.48217070
Ni      16.78778103      10.59834934      14.25753195
Ni      14.45762120      10.09124975      14.56645685
Ni      12.00897111      10.80821184      14.56263993
Ni      10.48704567      12.78058823      14.46813789
Ni      10.52372218      15.28916032      14.49566015
Ni      11.95747212      17.31909239      14.47671180
Ni      14.29738259      18.14565645      14.44817221
Ni      16.74121259      17.41731925      14.33191528
Ni      18.13314594      15.24418075      14.57401595
Ni      17.89038346      12.80591669      14.66806037
Ni      15.39848738      10.75867520      12.28918093
Ni      13.08411187      10.12527266      12.49921463
Ni      11.60977895      12.02816429      12.41189474
Ni      10.24226348      14.03487850      12.43016178
Ni      11.59833446      16.03730971      12.38756029
Ni      13.05160442      17.94762446      12.37622376
Ni      15.41113198      17.26983314      12.33707641
Ni      17.71621259      16.41332780      12.37470857
Ni      17.77181451      14.00737887      12.41609867
Ni      17.70709550      11.61772555      12.32076504
Ni      13.69913581      12.04194344      11.14373459
Ni      12.24154994      14.03435779      11.09503025
Ni      13.68279705      16.02919744      11.07728271
Ni      16.06062577      15.26675098      11.08807425
Ni      16.07365013      12.80599805      11.03434813
Ni      14.33866634      14.03173012       9.90914733
48
Properties=species:S:1:pos:R:3 config_type=qcd gap_pre_relax_energy=-213.98754084991538 gap_pred_energy=-214.38113200196537 gap_fmax_final=0.0009597037804118907 gap_converged=1 pbc="F F F"
Ni      12.41876761      13.32460474      11.23930343
Ni      12.40785684      13.32398869      13.76955449
Ni      14.78740203      14.04117078      11.16312642
Ni      14.70204132      14.07206744      13.59151931
Ni      13.01832248      15.29411227      12.39959765
Ni      13.09339674      15.25429102      10.00721368
Ni      11.02346456      15.50960685      11.35301879
Ni      14.83678150      16.44191403      11.19360620
Ni      12.61728092      17.31703828      11.08769757
Ni      10.81491017      15.34906957      13.76341834
Ni      14.62087771      16.55058878      13.64774705
Ni      12.15885586      17.28883368      13.40765063
Ni      12.27673198      13.25972985      16.33889910
Ni      14.54319709      14.14871043      16.12221585
Ni      12.91928321      15.32842740      14.88828927
Ni      12.79797271      15.37915306      17.34577996
Ni      10.79060581      15.06838474      16.09799465
Ni      14.40874782      16.75078399      16.20477592
Ni      11.93859789      17.14953249      15.82151522
Ni      16.20113248      15.36613476      14.98226357
Ni      16.50750953      15.26358055      12.46670275
Ni      13.66253546      18.47523921      14.80928718
Ni      14.19191069      18.47693861      12.46449762
Ni      14.09349180      12.05864831      12.35822603
Ni      14.07693092      12.07824606      14.92881899
Ni      10.37739760      13.07627709      14.80877501
Ni      10.37909672      13.45149739      12.41175005
Ni      16.44381843      12.84836348      12.41861410
Ni      16.32139978      12.89420143      14.91015286
Ni      16.46254023      17.63927900      12.51316147
Ni      16.05555435      17.93641234      14.86015694
Ni      11.70922886      11.43634091      12.71093425
Ni      11.93042373      11.18126783      15.12003706
Ni      18.05635448      14.08442123      13.83407315
Ni      17.90194740      16.56579011      14.06579601
Ni      15.77542141      10.87240593      13.60880938
Ni      13.47862380      10.13576585      13.61239989
Ni      18.04542207      11.69887684      13.75689246
Ni      18.43895943      15.09463146      15.92787047
Ni      18.28620686      12.69867474      16.01606723
Ni      16.77222890      16.61548254      16.82000352
Ni      16.68436477      14.10242298      17.17467343
Ni      15.05386437      15.51941767      18.10340018
Ni      14.00529205      13.37038054      18.18479682
Ni      15.60751387      11.97966103      17.00482424
Ni      13.32963123      11.32486754      17.13010253
Ni      17.02007402      10.66662793      15.63619690
Ni      14.72274137      10.00284940      15.68450326
49
Properties=species:S:1:pos:R:3 config_type=qcd gap_pre_relax_energy=-219.67967373047455 gap_pred_energy=-219.89525722673332 gap_fmax_final=0.000905041996266069 gap_converged=1 pbc="F F F"
Ni       9.04868320      13.57925759      13.65080319
Ni      11.55026323       8.50654337      13.65414637
Ni      10.82767418      10.72054814      13.10079964
Ni       9.90465936       9.69041124      15.00353706
Ni      10.59900332      15.37085955      12.80555664
Ni      10.28472040       9.97605671      10.84851646
Ni      10.91813458       7.74977511      11.43835335
Ni       8.68002813       8.31030333      10.56804272
Ni       8.53487742      11.17791061      13.65141464
Ni       9.22296650       8.95265204      12.80987956
Ni       7.94311943      10.48366189      11.32607236
Ni       9.52438875      12.19972913      11.65034875
Ni      10.95552557      13.93752617      10.84597506
Ni       7.31400125      12.67483276      12.20253912
Ni       8.14677421      12.55065920       9.85382875
Ni      10.59840401       8.40831443       9.12280458
Ni       8.99510705      10.37061942       9.05057338
Ni       9.44200050      14.44793765       9.11871713
Ni      10.31536527      16.15984632      10.56270113
Ni       8.71035600      14.50277790      11.43378672
Ni      11.94313421      14.85515820       9.04758910
Ni      10.44595685      12.27780419       9.10875906
Ni      11.76383827      11.76332141      11.05177130
Ni      11.97581713      10.36282927       9.10998803
Ni      11.32775539      13.09745656      13.09917033
Ni      10.36987481      12.05541637      15.08385616
Ni      10.89601016      14.41390547      15.00033634
Ni      12.56563181      15.71207588      11.32245138
Ni      15.25082553      12.42968945       9.12015140
Ni      14.25496030      14.50090448       9.85232708
Ni      13.26116818      13.48510267      11.64923441
Ni      14.69257415      13.20933748      13.65085615
Ni      15.66296517      13.03839510      11.43470532
Ni      12.71152794      12.82858611      15.08338276
Ni      12.86982672      14.85496303      13.64881035
Ni      15.46951802      10.97011101      12.80861452
Ni      14.77745036      15.16237120      12.20061678
Ni      13.13605121      11.47596866      13.10034304
Ni      14.35289193      10.06020244       9.05085796
Ni      14.05117166      11.37601667      10.84790697
Ni      14.49090023      11.19362319      15.00251625
Ni      14.78247885       9.09481835      11.32691544
Ni      16.29596544      10.81889592      10.56640904
Ni      12.50584467       9.60639913      11.65187015
Ni      13.88685241       9.26235001      13.65259086
Ni      12.88963559       8.23596179       9.85651540
Ni      13.19990547       7.45512732      12.20579971
Ni      12.86946936      12.64521799       9.10850562
Ni      12.21024381      10.41406608      15.08505047
49
Properties=species:S:1:pos:R:3 config_type=qcd gap_pre_relax_energy=-218.65144454366046 gap_pred_energy=-218.9667002180981 gap_fmax_final=0.0009214402005701038 gap_converged=1 pbc="F F F"
Ni      12.60377740      13.15643145      11.24204955
Ni      12.42706044      13.26734650      13.69160145
Ni      14.85978752      13.98412058      11.22474576
Ni      14.75514409      14.03707292      13.62359991
Ni      13.02615786      15.26517231      12.45993381
Ni      13.16797500      15.15852052      10.05401294
Ni      11.04160629      15.01988799      11.21137191
Ni      14.77673511      16.42421648      11.31515950
Ni      12.38847229      17.11369897      11.23052207
Ni      10.79832809      15.26633117      13.56810211
Ni      14.69861903      16.42456359      13.85379568
Ni      12.18066086      17.27039958      13.72478341
Ni      12.16332394      13.33233993      16.23054787
Ni      14.61554013      14.11924979      16.13092401
Ni      12.93381688      15.28927984      14.93146162
Ni      12.88420088      15.31872041      17.39876506
Ni      10.90352110      15.46271217      15.96447954
Ni      14.68545871      16.54405619      16.40552758
Ni      12.46277421      17.30590106      16.10755928
Ni      16.44495008      15.27171316      15.00364358
Ni      16.51530052      15.27526286      12.45803665
Ni      14.20979718      18.39810343      14.89782606
Ni      13.97757354      18.31378283      12.50807928
Ni      14.29429666      11.93132497      12.47958960
Ni      14.08029432      12.13187938      14.98329218
Ni      10.27362049      13.38862715      14.86649220
Ni      10.48370994      13.03029270      12.47999099
Ni      16.54193329      12.81715402      12.46753856
Ni      16.42780037      12.89130161      14.92578852
Ni      16.28548458      17.71223092      12.82904790
Ni      16.54061860      17.59010212      15.23026010
Ni      12.04961402      11.17887151      12.50739737
Ni      11.63848553      11.38600494      14.85026719
Ni      18.18975277      14.09410294      13.69740576
Ni      18.10223772      16.50321729      13.74472328
Ni      15.92690502      10.84851033      13.83706597
Ni      13.54906291      10.13404721      14.03235654
Ni      18.16263802      11.68131431      13.79617783
Ni      18.60993795      15.35032485      15.79800976
Ni      18.77089571      12.96149600      15.70441569
Ni      16.86445665      16.20213024      17.21740488
Ni      17.03314824      13.83430832      17.04241630
Ni      15.17693155      14.84308479      18.21303412
Ni      13.51851504      13.13685124      18.13211973
Ni      15.39891379      12.11075007      17.17700029
Ni      13.09716350      11.15277737      16.81723498
Ni      17.27278199      11.10075108      16.03217719
Ni      15.09277752      10.11637427      15.91640820
Ni      10.30655249      17.06239648      12.19496604
50
Properties=species:S:1:pos:R:3 config_type=qcd gap_pre_relax_energy=-224.31837505643404 gap_pred_energy=-224.52750335118762 gap_fmax_final=0.0006694239613017753 gap_converged=1 pbc="F F F"
Ni      15.52633668      11.95285909      13.39176621
Ni      14.34182478      11.95312394      15.51017880
Ni      13.19168576      11.95327768      13.43927117
Ni      13.06464582      13.92953193      12.04518008
Ni      14.10695196      15.89858917      12.76966881
Ni      14.26350435      13.97317194      14.20312054
Ni      15.42557478      13.96684012      12.05552607
Ni      13.89981737      15.28041366      10.39247048
Ni      10.91613837      13.97382441      10.91863716
Ni       9.60014776      14.03080746       9.08215564
Ni      11.72851348      15.48524532       9.37585467
Ni       9.72490030      15.97739768      10.62640911
Ni      11.90936355      16.04093873      11.72598857
Ni      12.15156250      15.19689991      13.98719527
Ni      11.08166212      13.17108975      13.25839241
Ni       9.90867191      15.21176924      12.87075668
Ni       8.49508526      13.98700899      11.27651147
Ni      10.17772467      14.35166078      15.10016397
Ni      10.13853449      11.95371347      15.16360311
Ni      12.26605763      10.73477223      15.38555919
Ni      12.26639608      13.17202703      15.38548042
Ni       8.68989574      10.73214190      13.58666336
Ni       8.69026059      13.17555300      13.58674131
Ni       7.36545417      11.95401852      11.97967781
Ni       9.68154253      11.95372130      11.67794341
Ni      13.06424905       9.97698527      12.04532926
Ni      12.00156658      11.95339838      11.28872452
Ni      13.89875577       8.62569224      10.39268950
Ni      11.72759196       8.42112490       9.37606749
Ni       8.49469905       9.92089909      11.27611314
Ni       9.60130654       9.87742904       9.08201442
Ni      15.31475587      13.46331390       9.72892236
Ni      12.79683269      10.60341374       9.42759404
Ni      14.27251829      11.95302594      11.09068470
Ni      10.76970284      11.95436384       9.24091582
Ni      12.79785672      13.30305796       9.42766368
Ni       9.72384679       7.93008877      10.62645271
Ni       9.90762146       8.69566305      12.87084819
Ni      11.90823691       7.86566428      11.72625516
Ni       8.44040037      11.95399026       9.73443231
Ni      15.42508573       9.93883449      12.05565343
Ni      15.31407399      10.44226441       9.72905470
Ni      14.32677864      11.95287531       8.25637613
Ni      16.57890712      11.95263484      11.26138484
Ni      11.08132159      10.73609597      13.25854587
Ni      10.17698819       9.55575778      15.10024357
Ni      10.91589357       9.93306131      10.91923442
Ni      12.15055819       8.70992068      13.98726763
Ni      14.10583899       8.00756670      12.76991065
Ni      14.26291049       9.93303055      14.20325574
50
Properties=species:S:1:pos:R:3 config_type=qcd gap_pre_relax_energy=-223.73693174591904 gap_pred_energy=-223.82642807540725 gap_fmax_final=0.000853915176435193 gap_converged=1 pbc="F F F"
Ni      14.81614035      15.62267754      13.81279943
Ni      14.77951047      17.99999049      13.86176145
Ni      12.37257719      15.61052019      13.74415995
Ni      10.00431159      15.57557506      13.65512720
Ni      12.38013010      17.97943825      13.71510941
Ni      12.37257720      13.15455417      13.74415995
Ni      10.00431158      13.18949930      13.65512720
Ni      12.38013010      10.78563611      13.71510941
Ni      14.81614035      13.14239682      13.81279943
Ni      14.77951047      10.76508387      13.86176145
Ni      13.51489194      14.38253718      15.52307674
Ni      11.02163262      14.38253718      15.49776109
Ni      13.46849396      16.99583654      15.58359730
Ni      13.46849396      11.76923782      15.58359730
Ni      11.11222077      16.77167956      15.37973936
Ni      11.11222076      11.99339480      15.37973936
Ni      13.66092761      14.38253718      12.05058113
Ni      16.21021414      14.38253718      11.98069111
Ni      11.14253328      14.38253718      11.91621250
Ni      13.67739702      16.91321688      12.00927975
Ni      13.67739702      11.85185748      12.00927975
Ni      16.08171968      16.75847171      12.15004401
Ni      11.26206857      16.77419716      12.00341105
Ni      11.26206857      11.99087720      12.00341106
Ni      16.08171968      12.00660265      12.15004401
Ni      12.28559204      15.62417589      17.13651538
Ni      12.28559204      13.14089847      17.13651538
Ni      14.88573498      15.59054399      10.42182724
Ni      12.51332237      15.58121976      10.35839340
Ni      12.51332237      13.18385460      10.35839340
Ni      14.88573498      13.17453038      10.42182724
Ni      14.20228020      14.38253718      17.91871126
Ni      15.53382158      15.61068097      16.14975733
Ni      15.53382158      13.15439339      16.14975733
Ni      16.82221307      14.38253718      14.45665715
Ni      16.85813486      16.91336684      14.43029367
Ni      16.85813486      11.85170752      14.43029367
Ni      14.29140357      11.99397095      17.80033440
Ni      15.55963851      10.78603555      16.13598696
Ni      14.29140357      16.77110341      17.80033440
Ni      15.55963851      17.97903881      16.13598696
Ni      18.06571454      13.17458215      12.84221255
Ni      18.06571454      15.59049221      12.84221255
Ni      16.24959027      15.57580356      18.40842564
Ni      16.24959027      13.18927080      18.40842564
Ni      17.62303304      14.38253718      16.84851198
Ni      17.50793962      16.77414569      16.75661822
Ni      17.50793962      11.99092867      16.75661822
Ni      18.75910451      13.18398557      15.11193434
Ni      18.75910451      15.58108879      15.11193434
51
Properties=species:S:1:pos:R:3 config_type=qcd gap_pre_relax_energy=-228.99432548117562 gap_pred_energy=-229.0955492929824 gap_fmax_final=0.0009565716697497322 gap_converged=1 pbc="F F F"
Ni      14.38333483      14.12725803      14.54158614
Ni      14.13779088      14.12726304      16.93719052
Ni      15.02472373      12.07417617      15.57895046
Ni      12.59263704      12.88980630      15.44592360
Ni      12.59263708      15.36471369      15.44591827
Ni      15.02472354      16.18034441      15.57894162
Ni      16.63611079      14.12726015      15.39273003
Ni      13.66574977      12.15512227      13.38077249
Ni      12.21999093      14.12725542      13.35597084
Ni      13.66574969      16.09938872      13.38076393
Ni      15.99274938      15.36465902      13.34375517
Ni      15.99274943      12.88985181      13.34376067
Ni      14.28976418      14.12725266      12.07631120
Ni      14.81941211      12.10378981      17.84621317
Ni      12.37884972      12.84207018      17.79276610
Ni      12.37884974      15.41245984      17.79276047
Ni      14.81941180      16.15074041      17.84620437
Ni      16.30649620      14.12726481      17.65246780
Ni      17.14462262      12.10382663      16.40879559
Ni      13.13869862      10.87388535      16.43540221
Ni      10.79136040      11.68338055      16.33188801
Ni      10.75850743      14.12726203      16.41161003
Ni      10.79136034      16.57114316      16.33187741
Ni      13.13869842      17.38063907      16.43538805
Ni      17.14462243      16.15069790      16.40878710
Ni      16.63388077      10.87403084      14.27457622
Ni      14.26568040      10.15167797      14.35101303
Ni      11.84721821      10.87857570      14.30615847
Ni      10.40191654      12.88359845      14.30182027
Ni      10.40191654      15.37091640      14.30181490
Ni      11.84721807      17.37593925      14.30614433
Ni      14.26568026      18.10283725      14.35099576
Ni      16.63388065      17.38048393      14.27456221
Ni      18.18761064      15.41236728      14.20157001
Ni      18.18761059      12.84214758      14.20157563
Ni      15.30642222      10.87864564      12.16752665
Ni      12.96967059      10.21681441      12.25476835
Ni      11.49864458      12.12552736      12.21080964
Ni      10.13586255      14.12725298      12.24778971
Ni      11.49864451      16.12897847      12.21080093
Ni      12.96967046      18.03769166      12.25475136
Ni      15.30642212      17.37586014      12.16751258
Ni      17.59044479      16.57104863      12.12847028
Ni      17.67643964      14.12725286      12.13463024
Ni      17.59044488      11.68345707      12.12848094
Ni      13.58778659      12.12553067      10.91922363
Ni      12.14269680      14.12725012      10.91722343
Ni      13.58778654      16.12896961      10.91921494
Ni      15.94851897      15.37089198      10.87264515
Ni      15.94851903      12.88360824      10.87265062
Ni      14.22992536      14.12724754       9.71664896
52
Properties=species:S:1:pos:R:3 config_type=qcd gap_pre_relax_energy=-234.45916169952645 gap_pred_energy=-234.59795936509568 gap_fmax_final=0.0006630205380656345 gap_converged=1 pbc="F F F"
Ni      14.32829914      14.08957341      14.47581086
Ni      14.45829790      14.08957869      16.94482728
Ni      14.92330753      12.09072194      15.43867688
Ni      12.57550678      12.85475979      15.38926479
Ni      12.57550674      15.32439088      15.38925950
Ni      14.92330747      16.08842902      15.43866830
Ni      16.47840357      14.08957606      15.69643397
Ni      13.59789251      12.10433899      13.29392555
Ni      12.16739692      14.08957086      13.30101847
Ni      13.59789245      16.07480274      13.29391705
Ni      15.92924735      15.32438613      13.31669513
Ni      15.92924739      12.85475577      13.31670042
Ni      14.24404210      14.08956814      12.01765273
Ni      14.74424181      11.80850942      17.68933258
Ni      12.54284455      12.84668099      17.68186927
Ni      12.54284452      15.33247950      17.68186394
Ni      14.74424175      16.37065116      17.68932280
Ni      17.01635212      11.80849933      16.28521387
Ni      15.41694752       9.95119005      16.23751807
Ni      13.09204531      10.71581556      16.29789958
Ni      10.83343969      11.63849856      16.32151969
Ni      10.77646443      14.08957745      16.38894669
Ni      10.83343962      16.54065605      16.32150919
Ni      13.09204521      17.46333902      16.29788513
Ni      15.41694739      18.22796435      16.23750034
Ni      17.01635206      16.37065534      16.28520409
Ni      16.51085308      10.71580896      14.18512416
Ni      14.16564838      10.00691922      14.21267429
Ni      11.78850263      10.83278164      14.23170644
Ni      10.37548560      12.84285039      14.28371927
Ni      10.37548556      15.33629548      14.28371393
Ni      11.78850253      17.34636404      14.23169249
Ni      14.16564825      18.17222646      14.21265681
Ni      16.51085297      17.46333669      14.18510970
Ni      17.99433644      15.33248557      14.31292696
Ni      17.99433648      12.84666067      14.31293229
Ni      15.24589838      10.83279945      12.09504493
Ni      12.90000615      10.16901791      12.16466718
Ni      11.43675120      12.09039856      12.14660908
Ni      10.08240644      14.08956851      12.22055645
Ni      11.43675114      16.08873818      12.14660052
Ni      12.90000602      18.01011896      12.16465038
Ni      15.24589827      17.34633720      12.09503098
Ni      17.54219293      16.54064469      12.17554598
Ni      17.62798618      14.08956849      12.15474479
Ni      17.54219301      11.63849238      12.17555648
Ni      13.53825505      12.09041402      10.84784997
Ni      12.09602506      14.08956564      10.86377679
Ni      13.53825499      16.08871723      10.84784140
Ni      15.92439559      15.33629080      10.85449896
Ni      15.92439563      12.84284055      10.85450430
Ni      14.21015219      14.08956311       9.66960331
52
Properties=species:S:1:pos:R:3 config_type=qcd gap_pre_relax_energy=-234.26197696238756 gap_pred_energy=-234.35041902862045 gap_fmax_final=0.0009111851470824177 gap_converged=1 pbc="F F F"
Ni      14.32473915      13.98325378      14.44679376
Ni      14.34016056      14.05666399      16.85335103
Ni      14.92015862      11.91906194      15.53412415
Ni      12.55736067      12.78306372      15.36706284
Ni      12.57250086      15.24185991      15.40276771
Ni      14.88122811      16.03614151      15.38963879
Ni      16.50666717      13.94733757      15.46423071
Ni      13.63275161      12.03672757      13.30602909
Ni      12.17536403      14.03786022      13.29253258
Ni      13.61074458      16.01012319      13.29034307
Ni      15.95592676      15.26081883      13.31806461
Ni      15.96363263      12.81933012      13.27549278
Ni      14.24938814      14.03564668      12.00822160
Ni      14.88330567      12.02491268      17.80833842
Ni      12.49889906      12.80744721      17.67094376
Ni      12.50525320      15.31673860      17.71015112
Ni      14.85937262      16.17316245      17.73055959
Ni      16.42518448      14.05721837      17.76960531
Ni      17.04192858      11.96324265      16.44558090
Ni      13.07760962      10.73953820      16.39148049
Ni      10.77215057      11.61913194      16.30108340
Ni      10.75054301      14.05310648      16.37784808
Ni      10.84566796      16.50233469      16.32697934
Ni      13.13711632      17.36941362      16.37862741
Ni      15.46813390      18.09397680      16.30356231
Ni      16.96082293      16.08469122      16.38253189
Ni      16.58685046      10.82602773      14.25095785
Ni      14.20996730      10.02155091      14.27551772
Ni      11.80190411      10.78906504      14.24798077
Ni      10.36221792      12.81687972      14.26640000
Ni      10.39459611      15.31107771      14.27410517
Ni      11.85010126      17.30212854      14.27694004
Ni      14.21264626      18.11267690      14.26260885
Ni      16.57377726      17.36199562      14.26089370
Ni      18.06116978      15.30335054      14.26664101
Ni      18.11902087      12.79999729      14.19757131
Ni      15.28395799      10.80010383      12.11016769
Ni      12.92722453      10.12735172      12.17395223
Ni      11.46145799      12.05134746      12.15788426
Ni      10.09565270      14.06463045      12.20858252
Ni      11.45779827      16.06482753      12.16240314
Ni      12.93839483      17.97931647      12.20836794
Ni      15.27498906      17.31061130      12.15292254
Ni      17.55592769      16.51429432      12.18058570
Ni      17.65476251      14.06715985      12.09959195
Ni      17.57491190      11.62633389      12.09432131
Ni      13.55475043      12.05069893      10.85347364
Ni      12.10764141      14.06636501      10.86247110
Ni      13.55935726      16.06588788      10.86249823
Ni      15.92309492      15.31146358      10.86232586
Ni      15.92942609      12.81398952      10.81989402
Ni      14.21018897      14.06646295       9.66339539
53
Properties=species:S:1:pos:R:3 config_type=qcd gap_pre_relax_energy=-239.5099123863913 gap_pred_energy=-239.58992281998525 gap_fmax_final=0.000763055347123796 gap_converged=1 pbc="F F F"
Ni      14.28092388      14.12622886      14.37685592
Ni      14.31302094      14.12623414      16.81223288
Ni      14.86958778      12.09723803      15.33005102
Ni      12.54103793      12.90251332      15.35425916
Ni      12.54103789      15.34994858      15.35425386
Ni      14.86958771      16.15522385      15.33004224
Ni      16.44265608      14.12623132      15.49881118
Ni      13.57617852      12.13858679      13.23498824
Ni      12.14140707      14.12622638      13.24404427
Ni      13.57617845      16.11386597      13.23497963
Ni      15.93472748      15.34989406      13.25989361
Ni      15.93472752      12.90255889      13.25989890
Ni      14.22790037      14.12622362      11.95650732
Ni      14.85821338      12.01909170      17.66141205
Ni      12.48257967      12.87097855      17.66047752
Ni      12.48257963      15.38149333      17.66047209
Ni      14.85821330      16.23338028      17.66140293
Ni      16.38585048      14.12623629      17.78957475
Ni      16.95794972      12.01882954      16.36637522
Ni      15.43737936      10.04701975      16.25078759
Ni      13.11225520      10.79703738      16.33311566
Ni      10.81368966      11.66793962      16.28644007
Ni      10.73002342      14.12623306      16.34492048
Ni      10.81368958      16.58452626      16.28642943
Ni      13.11225508      17.45542878      16.33310124
Ni      15.43737922      18.20544614      16.25076993
Ni      16.95794964      16.23363689      16.36636610
Ni      16.55378554      10.79677365      14.20957365
Ni      14.17658128      10.04148564      14.20779794
Ni      11.81213478      10.86260963      14.22551443
Ni      10.36526159      12.87218699      14.23747252
Ni      10.36526154      15.38027000      14.23746709
Ni      11.81213466      17.38984736      14.22550031
Ni      14.17658114      18.21097136      14.20778026
Ni      16.55378543      17.45568343      14.20955924
Ni      18.02161339      15.38146135      14.24281528
Ni      18.02161344      12.87099592      14.24282071
Ni      15.25285571      10.86264648      12.10257867
Ni      12.90498849      10.18842663      12.14711032
Ni      11.42726674      12.11440504      12.11255654
Ni      10.06691049      14.12622402      12.17247095
Ni      11.42726667      16.13804279      12.11254783
Ni      12.90498835      18.06402140      12.14709328
Ni      15.25285560      17.38980144      12.10256454
Ni      17.54281974      16.58446307      12.13444297
Ni      17.63272976      14.12622396      12.08605202
Ni      17.54281982      11.66798507      12.13445361
Ni      13.53708699      12.11438808      10.81087052
Ni      12.08668596      14.12622113      10.82079806
Ni      13.53708692      16.13805418      10.81086181
Ni      15.91264790      15.38017515      10.81456939
Ni      15.91264794      12.87226721      10.81457482
Ni      14.20071209      14.12621857       9.62179087
54
Properties=species:S:1:pos:R:3 config_type=qcd gap_pre_relax_energy=-244.8128829102072 gap_pred_energy=-244.87533001562818 gap_fmax_final=0.0008337483803797552 gap_converged=1 pbc="F F F"
Ni      14.26957512      14.26922716      14.44329341
Ni      14.27129751      14.26923252      16.91743007
Ni      14.92055854      12.27227018      15.45658486
Ni      12.57302392      13.03477518      15.46126585
Ni      12.57302388      15.50368349      15.46126050
Ni      14.92055847      16.26618856      15.45657620
Ni      16.37033975      14.26922939      15.45502228
Ni      13.61996956      12.27522433      13.33502712
Ni      12.17143746      14.26922472      13.33752796
Ni      13.61996949      16.26322516      13.33501847
Ni      15.96405651      15.50151874      13.33117857
Ni      15.96405656      13.03693082      13.33118391
Ni      14.26583469      14.26922194      12.03909081
Ni      14.94696719      12.19825665      17.78171743
Ni      12.51180066      12.98871650      17.78707544
Ni      12.51180062      15.54975226      17.78706989
Ni      14.94696711      16.34021218      17.78170845
Ni      16.45094530      14.26923444      17.77961432
Ni      17.09185989      12.22087564      16.45119855
Ni      15.57453729      10.26289399      16.38657593
Ni      13.19615615      10.95515780      16.45734583
Ni      10.86482452      11.79292840      16.39408357
Ni      10.78886039      14.26923147      16.46128642
Ni      10.86482443      16.74553426      16.39407283
Ni      13.19615603      17.58330522      16.45733146
Ni      15.57453714      18.27556881      16.38655855
Ni      17.09185981      16.31758749      16.45118966
Ni      18.48437827      14.26923145      16.38264359
Ni      16.64677821      10.98478297      14.33263036
Ni      14.27671540      10.21490755      14.33658119
Ni      11.88065949      10.99350439      14.34033953
Ni      10.41636191      13.00946962      14.34288244
Ni      10.41636186      15.52898412      14.34287698
Ni      11.88065937      17.54494939      14.34032532
Ni      14.27671525      18.32354631      14.33656360
Ni      16.64677809      17.55367096      14.33261611
Ni      18.12714497      15.51502876      14.33065964
Ni      18.12714501      13.02342521      14.33066505
Ni      15.32789980      11.00129857      12.21059438
Ni      12.98265948      10.31899734      12.26610866
Ni      11.48628010      12.24955336      12.21666454
Ni      10.11282834      14.26922237      12.27098991
Ni      11.48628002      16.28889119      12.21665578
Ni      12.98265934      18.21944749      12.26609152
Ni      15.32789968      17.53714610      12.21058020
Ni      17.62638051      16.71050344      12.25863429
Ni      17.70200512      14.26922237      12.20651892
Ni      17.62638060      11.82794152      12.25864488
Ni      13.60737229      12.24842437      10.91596173
Ni      12.13920052      14.26921947      10.91843460
Ni      13.60737222      16.29001462      10.91595296
Ni      15.98283072      15.51817557      10.91202876
Ni      15.98283077      13.02026348      10.91203418
Ni      14.26187093      14.26921690       9.71627871
54
Properties=species:S:1:pos:R:3 config_type=qcd gap_pre_relax_energy=-242.93875725396907 gap_pred_energy=-243.48439431249918 gap_fmax_final=0.0007837588926970241 gap_converged=1 pbc="F F F"
Ni      13.86189858      14.98434730      14.98287438
Ni      13.86545401      14.92950957      17.44130580
Ni      14.56134010      12.98752919      16.30531667
Ni      12.11232879      13.65210790      16.39620048
Ni      11.95359583      15.97474225      15.93373131
Ni      14.43638503      16.92866676      16.15478332
Ni      16.00815623      15.00448499      16.23323114
Ni      16.00859175      14.95855783      13.73279863
Ni      14.56756765      16.97931638      13.66067803
Ni      12.11674262      16.32129845      13.56938412
Ni      11.95098630      13.99918154      14.03194152
Ni      14.43068587      13.03842488      13.81107197
Ni      13.86655304      15.03924258      12.52451141
Ni      14.66588391      12.97609513      18.75557296
Ni      12.35253835      13.39655257      18.71938437
Ni      11.96264417      15.73580944      18.34994031
Ni      14.30147246      16.93858819      18.63267571
Ni      15.92191945      15.06528167      18.70355670
Ni      16.74373402      13.08935450      17.56293755
Ni      15.43453409      11.08537332      17.51505750
Ni      13.08156734      11.56942676      17.34050534
Ni      12.51361619      17.81888144      17.36383649
Ni      14.68469905      18.91412043      17.20210497
Ni      16.44892795      17.07710989      17.51832908
Ni      18.01881653      15.18462866      17.39689350
Ni      16.55161103      13.00315654      15.01301854
Ni      14.97469507      10.93780535      15.18541393
Ni      12.76138980      11.84803189      14.94899023
Ni      12.77037093      18.12356054      15.01679298
Ni      14.98617297      19.02786987      14.78049272
Ni      16.55781451      16.95835997      14.95335540
Ni      18.20253473      14.97876673      14.98291386
Ni      18.01871313      14.77339763      12.56881297
Ni      16.74941804      16.87179414      12.40306809
Ni      15.44565399      18.87920077      12.45073475
Ni      13.09160335      18.40152686      12.62554535
Ni      12.50577341      12.15361091      12.60171976
Ni      14.67386678      11.05240239      12.76365132
Ni      16.44303432      12.88506034      12.44778248
Ni      15.92233708      14.89822264      11.26212854
Ni      14.67195096      16.99068129      11.21013679
Ni      12.35765219      16.57672447      11.24631166
Ni      11.96116514      14.23858836      11.61616400
Ni      14.29627358      13.02899700      11.33307923
Ni      13.79914326      15.02668975      10.13910261
Ni      18.67444819      13.11414302      16.26358597
Ni      18.49310080      17.17203403      16.13671547
Ni      18.48643668      12.78491906      13.82952099
Ni      18.68005283      16.84205551      13.70238458
Ni      17.31378930      11.12707084      16.09295832
Ni      16.85387090      19.00851581      16.23433864
Ni      16.84261340      10.95251873      13.73184864
Ni      17.32446911      18.83249794      13.87312070
Ni      13.79850489      14.94226572      19.82678792
55
Properties=species:S:1:pos:R:3 config_type=qcd gap_pre_relax_energy=-250.22608567160927 gap_pred_energy=-250.25584247451917 gap_fmax_final=0.0008634887046870536 gap_converged=1 pbc="F F F"
Ni      14.77036025      14.77036025      14.77036025
Ni      14.77116274      14.77036536      17.12766880
Ni      15.42221050      12.76536700      15.82439990
Ni      13.06497871      13.53121055      15.82506885
Ni      13.06497867      16.00951447      15.82506347
Ni      15.42221044      16.77535809      15.82439120
Ni      16.87902472      14.77036257      15.82394308
Ni      14.11851005      12.76536241      13.71632929
Ni      12.66169577      14.77035793      13.71677741
Ni      14.11850999      16.77535349      13.71632059
Ni      16.47574178      16.00950995      13.71565164
Ni      16.47574182      13.53120603      13.71565702
Ni      14.76955775      14.77035513      12.41305169
Ni      14.77157311      14.77037036      19.43230542
Ni      15.43059659      12.74161872      18.22167328
Ni      13.04562308      13.51654283      18.22223272
Ni      13.04562305      16.02419258      18.22222728
Ni      15.43059653      16.79911676      18.22166448
Ni      16.90454121      14.77036777      18.22133069
Ni      17.56329015      12.74176510      16.90273955
Ni      16.05961036      10.80474061      16.85466656
Ni      13.70451807      11.48790643      16.90368788
Ni      11.39762475      12.31931841      16.85600985
Ni      11.31941363      14.77036482      16.90447366
Ni      11.39762467      17.22141103      16.85599922
Ni      13.70451797      18.05282329      16.90367364
Ni      16.05961023      18.73598897      16.85464935
Ni      17.56329009      16.79896474      16.90273075
Ni      18.94077568      14.77036484      16.85386944
Ni      17.15533322      11.48802624      14.76975560
Ni      14.77036031      10.71310125      14.77036905
Ni      12.38538738      11.48802616      14.77097914
Ni      10.91145849      13.51661148      14.77154608
Ni      10.91145845      16.02410890      14.77154064
Ni      12.38538728      18.05269426      14.77096490
Ni      14.77036018      18.82761925      14.77035145
Ni      17.15533311      18.05269433      14.76974136
Ni      18.62926200      16.02410901      14.76917441
Ni      18.62926204      13.51661160      14.76917985
Ni      15.83620253      11.48789721      12.63704685
Ni      13.48111026      10.80473152      12.68607114
Ni      11.97743040      12.74175576      12.63798974
Ni      10.59994481      14.77035566      12.68685105
Ni      11.97743034      16.79895540      12.63798094
Ni      13.48111013      18.73597989      12.68605393
Ni      15.83620242      18.05281407      12.63703261
Ni      18.14309575      17.22140209      12.68471064
Ni      18.22130686      14.77035567      12.63624683
Ni      18.14309583      12.31930946      12.68472128
Ni      14.11012396      12.74160373      11.31905601
Ni      12.63617928      14.77035273      11.31938980
Ni      14.11012390      16.79910177      11.31904721
Ni      16.49509741      16.02417766      11.31848777
Ni      16.49509745      13.51652791      11.31849321
Ni      14.76914739      14.77035013      10.10841507
55
Properties=species:S:1:pos:R:3 config_type=qcd gap_pre_relax_energy=-248.87510103298874 gap_pred_energy=-249.16776665544026 gap_fmax_final=0.0009671927823688881 gap_converged=1 pbc="F F F"
Ni       8.56671610      11.10172155      10.27549249
Ni      16.24484195      13.42045096      11.73798543
Ni      13.98343029      10.34416020      13.71090638
Ni      11.01181419       8.52334306      12.24250383
Ni      14.68630082      13.16438118      13.66026901
Ni      10.99760024      10.64018105      15.80773834
Ni      12.61213309      12.28993563      10.00516699
Ni      12.08029534      14.45436410      15.93266574
Ni      15.00045979       9.42683165      11.73129558
Ni      10.67982232      11.61267547      11.32500074
Ni      10.37834965      11.80181383       8.93247085
Ni      11.41987344      10.53881699      13.39593741
Ni       8.44807936      13.54743997      14.32651235
Ni       8.46098115      12.33548242      12.29630431
Ni       9.12983388      11.23705595      14.38763714
Ni      12.61139056      15.79481434      10.49776529
Ni      10.13336912      15.70382889      10.40451307
Ni      15.56247420      13.55016804       9.54225526
Ni      11.20781125      16.12241689      12.47099550
Ni      13.25297597       8.23314345      12.67554069
Ni      13.90419339      13.91476660      11.36045700
Ni      12.31998435       8.91195622      14.76874972
Ni       9.91913909       8.99622652      14.36216862
Ni      12.51052269      14.33585477      13.50291784
Ni      15.99218924      11.23297920      12.85084817
Ni      14.87184974      11.62958621      10.85788011
Ni      10.28429330      15.05830287      14.47546517
Ni      12.52357911      12.26431706      14.77130777
Ni      12.88451804      12.15416349      12.42966972
Ni      13.48816035      10.63941016      16.06559393
Ni      10.22918161      12.94087415      15.77316141
Ni      10.58651016      12.86729718      13.39828414
Ni      17.13685829      12.99607513      13.83051544
Ni      15.83649143      15.17916079      13.24471754
Ni      15.23103528      15.62512107      10.82149986
Ni      14.09100054      13.17838932      16.24850198
Ni      14.14323084      15.28096921      14.96508953
Ni      13.70834780      16.14712211      12.65050630
Ni      11.13369572      14.12675682       8.98343288
Ni      12.77268996      10.16027364      11.30404336
Ni      12.18243632      16.47867207      14.57969407
Ni      12.22599550      10.30274980       8.76586359
Ni       9.16731898      10.01795146      12.31572506
Ni      15.54774790      11.64761676      15.19609088
Ni      14.32413195       9.67348282       9.50851386
Ni      13.47478055      14.24545615       8.89819849
Ni      12.06511325      12.33687355      17.12595908
Ni      12.23005976      12.50953613       7.64980330
Ni      11.41639017      13.93205265      11.35941024
Ni      16.07644157      14.13207800      15.48413378
Ni      14.32036945      11.82510457       8.49023468
Ni       9.23984360      14.66500895      12.35701040
Ni      10.45317597       9.58342682      10.17813513
Ni      12.48051617       8.22100128      10.24549279
Ni       9.24027651      13.42698209      10.30258906
