3
Properties=species:S:1:pos:R:3 config_type=qcd gap_pre_relax_energy=-17.059374822089072 gap_pred_energy=-17.840549921644463 gap_fmax_final=0.0007481287350575302 gap_converged=1 pbc="F F F"
Os       6.63773975       8.84013165       8.89778930
Os       8.70856017       8.42814788       8.33208365
Os      10.77734156       8.85536198       8.89376857
4
Properties=species:S:1:pos:R:3 config_type=qcd gap_pre_relax_energy=-27.868259236572467 gap_pred_energy=-27.92991908570433 gap_fmax_final=0.0007400149467180649 gap_converged=1 pbc="F F F"
Os       7.85882316       8.16547378       6.06208287
Os       5.98638775       8.25557129       7.37814830
Os       8.50393401       6.23476284       7.11223744
Os       6.63112709       6.32446410       8.42780341
5
Properties=species:S:1:pos:R:3 config_type=qcd gap_pre_relax_energy=-36.48157023365245 gap_pred_energy=-36.55907970980703 gap_fmax_final=0.0009383140971339226 gap_converged=1 pbc="F F F"
Os      10.71248132       8.72933189       9.75809340
Os       8.52697226       8.02194310      10.24208568
Os       9.86156501      10.68008889       8.76725112
Os       7.67604556       9.97268891       9.25121986
Os       9.11253748       8.48554883       7.87095157
6
Properties=species:S:1:pos:R:3 config_type=qcd gap_pre_relax_energy=-46.25045897103648 gap_pred_energy=-46.304608380298504 gap_fmax_final=0.0005801176150223119 gap_converged=1 pbc="F F F"
Os       5.97652314       6.48667066       6.06328829
Os       8.39373797       6.48748847       6.06323598
Os       7.18440753       8.58043322       6.06314670
Os       5.97655034       6.48684366       8.30669062
Os       8.39376567       6.48754123       8.30660816
Os       7.18453835       8.58054575       8.30655326
7
Properties=species:S:1:pos:R:3 config_type=qcd gap_pre_relax_energy=-54.83570323249752 gap_pred_energy=-54.927865065072204 gap_fmax_final=0.000849083866141081 gap_converged=1 pbc="F F F"
Os       7.58475866       9.53124299       7.73503012
Os       6.06260168       8.13668500       6.67623088
Os       9.35833654       8.33688642       6.83462659
Os       7.83663239       6.60421870       6.19386759
Os       7.57707701       8.17068821       9.61427819
Os       6.45235429       6.47501656       8.35409750
Os       9.01353942       6.63056213       8.47716914
8
Properties=species:S:1:pos:R:3 config_type=qcd gap_pre_relax_energy=-65.47641144533071 gap_pred_energy=-65.55335661301723 gap_fmax_final=0.0008183393889793082 gap_converged=1 pbc="F F F"
Os       6.00709289       5.99691567       5.99129360
Os       5.99229231       5.99743476       8.36033223
Os       8.37605293       5.99939388       6.00606575
Os       8.36126293       5.99993152       8.37511822
Os       6.00458845       8.36591966       5.99073142
Os       5.98979572       8.36645498       8.35978401
Os       8.37355915       8.36841420       6.00551811
Os       8.35875561       8.36893533       8.37455666
9
Properties=species:S:1:pos:R:3 config_type=qcd gap_pre_relax_energy=-72.24358237172488 gap_pred_energy=-72.42934654330223 gap_fmax_final=0.0009863575786901175 gap_converged=1 pbc="F F F"
Os       6.86827720       7.61308666       7.40405873
Os       7.60257253       7.62583490       9.72805207
Os       9.25756185       7.61893389       7.83220850
Os      10.01597399       7.59861582      10.18708570
Os       6.85305627       9.89142470       7.40857924
Os       7.58751676       9.87931352       9.73251985
Os       9.24220362       9.91583068       7.83674696
Os      10.00038890       9.93698640      10.19162235
Os      11.43286989       8.78039442       8.53954758
10
Properties=species:S:1:pos:R:3 config_type=qcd gap_pre_relax_energy=-82.63543728747223 gap_pred_energy=-82.6879593179547 gap_fmax_final=0.0006689352286418372 gap_converged=1 pbc="F F F"
Os       7.55864114       6.88853971       7.57044398
Os       9.93298760       6.88839766       7.57067992
Os       7.51122678       9.27494914       7.58274501
Os       9.98068668       9.27480129       7.58299119
Os       8.74608081      11.40207777       7.61215847
Os       7.55841701       6.88864669       9.92106446
Os       9.93274337       6.88850295       9.92130024
Os       7.51099922       9.27505842       9.90861726
Os       9.98045142       9.27490937       9.90886334
Os       8.74585599      11.40220700       9.87922614
10
Properties=species:S:1:pos:R:3 config_type=qcd gap_pre_relax_energy=-81.49396958801805 gap_pred_energy=-82.68795921783216 gap_fmax_final=0.0008294734605053787 gap_converged=1 pbc="F F F"
Os       8.77961600       7.72359858       8.72764546
Os      11.08996366       8.08188264       8.48393558
Os       8.41900206      10.08202684       8.65548785
Os      10.70499795      10.43654966       8.41438831
Os      10.47249243      12.56543609       9.62460083
Os       9.01933702       7.78450721      11.08903465
Os      11.32971073       8.14279188      10.84525958
Os       8.66821614      10.14538688      11.11153157
Os      10.95420038      10.49986088      10.87034789
Os       8.24425586      12.21975159       9.85956054
11
Properties=species:S:1:pos:R:3 config_type=qcd gap_pre_relax_energy=-90.60189582438306 gap_pred_energy=-90.76371858698138 gap_fmax_final=0.000780695862365936 gap_converged=1 pbc="F F F"
Os       8.00925704       9.94620969       7.82669829
Os       5.90927300       9.67856156       9.09939713
Os      10.19146819       9.63646814       9.09331963
Os       5.87510393       7.45899354       8.57078585
Os      10.15636689       7.37385479       8.55432309
Os       7.97503691       7.73251385       7.29929050
Os       7.96102903       7.11913010       9.76618276
Os       7.99588701       9.38172640      10.30520084
Os       9.99486666       7.98815731      11.01201398
Os      10.20853009      10.17753537       6.72627904
Os      10.17429625       7.95796425       6.19762390
11
Properties=species:S:1:pos:R:3 config_type=qcd gap_pre_relax_energy=-89.51045413208303 gap_pred_energy=-89.63912622004045 gap_fmax_final=0.0006367952514774707 gap_converged=1 pbc="F F F"
Os       9.91065990       9.91149479       7.76444755
Os       9.90759612      11.09120358      11.79971607
Os       9.90672005       8.72163630      11.79669967
Os       9.91144718      12.29990007       7.87415870
Os       9.90979486       7.52282840       7.86815916
Os      11.17185520      11.13944562       9.68014861
Os      11.17100409       8.67787043       9.67705576
Os       8.64701242      11.14034568       9.67799325
Os       8.64614208       8.67878122       9.67485946
Os      12.18620833       9.90589085      11.59379864
Os       7.62847522       9.90751854      11.58987861
12
Properties=species:S:1:pos:R:3 config_type=qcd gap_pre_relax_energy=-100.96823762163787 gap_pred_energy=-102.11148317525904 gap_fmax_final=0.0008589848400086945 gap_converged=1 pbc="F F F"
Os       7.25939887       7.26216890       5.98778695
Os       7.26404064       7.26131821       8.44381707
Os       7.27177729       7.26368429      10.89983725
Os       9.61185562       7.26488535       5.98183407
Os       9.61972806       7.26403578       8.43787919
Os       9.62423389       7.26639918      10.89393283
Os       7.25669783       9.61459547       5.98706962
Os       7.26133774       9.61695578       8.44309758
Os       7.26907708       9.61610980      10.89911781
Os       9.60915514       9.61727706       5.98111628
Os       9.61702557       9.61964080       8.43715977
Os       9.62153428       9.61879137      10.89321357
12
Properties=species:S:1:pos:R:3 config_type=qcd gap_pre_relax_energy=-98.98026303473578 gap_pred_energy=-99.85006238534889 gap_fmax_final=0.0006679664119871476 gap_converged=1 pbc="F F F"
Os       8.89887963       9.65589263       7.63539366
Os      12.10452691      10.47234919       8.22078922
Os      11.72048793      10.24956020      10.64477279
Os       8.71050255      10.32083322      12.23270613
Os       9.90417311       8.19955714      12.55957547
Os      10.96429076       8.48785283       7.85101765
Os      10.57350156       8.25317491      10.27283575
Os      10.08871132      11.72658098       8.02115379
Os       7.71812743      11.47096848       9.11856747
Os       9.75702693      11.58078111      10.44850516
Os      11.06141100      10.21355753      12.93485846
Os       8.46976971       9.34030061      10.03123326
13
Properties=species:S:1:pos:R:3 config_type=qcd gap_pre_relax_energy=-109.26567453237143 gap_pred_energy=-110.26696150017531 gap_fmax_final=0.0008161695370638516 gap_converged=1 pbc="F F F"
Os       7.08670523       7.45889578       6.21417690
Os       7.26304435       7.46384610       8.63711480
Os       7.33906228       7.47500139      11.07715552
Os       9.41524153       7.44959573       6.01772363
Os       9.62357314       7.41077897       8.43210070
Os       9.71504927       7.42119367      10.98379291
Os       7.08827852       9.82658790       6.21274062
Os       7.26460572       9.82433673       8.63568102
Os       7.34061134       9.81605556      11.07573342
Os       9.41682549       9.83255465       6.01628084
Os       9.62520357       9.87402541       8.43060623
Os       9.71667070       9.86659236      10.98231450
Os      11.46652736       8.64193428       9.64597742
13
Properties=species:S:1:pos:R:3 config_type=qcd gap_pre_relax_energy=-108.98331943384724 gap_pred_energy=-109.07006764004288 gap_fmax_final=0.0006815654955031943 gap_converged=1 pbc="F F F"
Os       8.49716405       9.04942886       7.37047738
Os       8.83112822       9.04235646       9.82268567
Os       9.18090292       9.04312776      12.30261093
Os      10.75748139       9.02968624       8.20431113
Os      11.23636755       9.01501116      10.76239168
Os      11.42603598       9.04721252      13.19678936
Os       8.48357441      11.33162453       7.37466135
Os       8.81746763      11.33367327       9.82688360
Os       9.16726011      11.32801570      12.30677068
Os      10.74351379      11.37523239       8.20860447
Os      11.22224348      11.38625362      10.76669259
Os      11.41230110      11.34751271      13.20095430
Os      12.76628920      10.21259462       9.19789669
14
Properties=species:S:1:pos:R:3 config_type=qcd gap_pre_relax_energy=-117.91266346454174 gap_pred_energy=-118.38061399868579 gap_fmax_final=0.0008595250469007215 gap_converged=1 pbc="F F F"
Os      11.10628516       7.74516126       9.44733760
Os      11.21172588      10.01378207       8.53856576
Os      10.90091688      13.01175383       9.87040825
Os      12.11673290      11.03746997      10.52188001
Os      12.01322210       8.65374873      11.42934515
Os      10.04960210      11.95894571       7.96517421
Os      13.53705435      10.31145444      12.48764753
Os      11.61196840       9.56983964      13.70745173
Os       9.20556658       9.24113254       9.80992309
Os      10.47732774      13.81235843      12.14265770
Os      11.67508672      11.91472872      12.87809999
Os      10.05607544      10.24362345      11.82781870
Os       8.89482827      12.23884369      11.14167416
Os       8.10736629      11.21091632       9.19577491
14
Properties=species:S:1:pos:R:3 config_type=qcd gap_pre_relax_energy=-117.78259149678101 gap_pred_energy=-118.21489585883869 gap_fmax_final=0.000693303894428574 gap_converged=1 pbc="F F F"
Os       6.78994377       7.75062091       6.05432998
Os       6.80571595      10.03773866       6.04540104
Os       7.25399795       7.75306978       8.48101979
Os       7.26982948      10.04784528       8.47205995
Os       7.80238188       7.75731509      10.93420215
Os       7.81824503      10.05519182      10.92523251
Os       9.08424097       7.71184819       6.75550693
Os       9.10036827      10.05034267       6.74637844
Os       9.70539036       7.65085108       9.27502512
Os       9.72244525      10.12242475       9.26537914
Os      10.07788410       7.71784143      11.79683575
Os      10.09412314      10.06997295      11.78765897
Os      11.69661272       8.87662927      10.21178038
Os      11.25050412       8.86999112       7.72087289
15
Properties=species:S:1:pos:R:3 config_type=qcd gap_pre_relax_energy=-127.3815502845653 gap_pred_energy=-127.51033788179919 gap_fmax_final=0.0008467736718316543 gap_converged=1 pbc="F F F"
Os      11.56275094       7.67246988       9.19929237
Os       8.64653797      11.52067277       8.14996397
Os      10.60407566       8.84595896       7.19834119
Os       7.66260771       7.71764358      11.12573066
Os       8.14133524       9.46685866       7.16618405
Os      11.10884148      10.89987921       8.18211726
Os       9.10936105       8.21345367       9.13696087
Os      12.05956363       9.69357524      10.16718816
Os       8.15607814       9.72482049      12.08715191
Os       6.69192594       8.90063401       9.13546059
Os      10.09875199       7.10334809      11.15770461
Os       9.64142007      10.37742286      10.17364018
Os       9.83581406      10.93143770       5.99813343
Os       7.18896969      10.92169369      10.10331739
Os      10.59229392       9.11045871      12.11914085
15
Properties=species:S:1:pos:R:3 config_type=qcd gap_pre_relax_energy=-126.3647930359714 gap_pred_energy=-127.19808430459824 gap_fmax_final=0.000990143147414351 gap_converged=1 pbc="F F F"
Os      11.06261264       6.88287690       8.68429283
Os       7.69310019      11.43889594       7.60398367
Os      10.18991062       8.18176880       6.74082530
Os       7.20591823       7.27926055      10.70256891
Os       7.82308710       9.09134338       6.94542959
Os      10.82995916      10.14816434       7.97137311
Os       8.59182447       7.45486207       8.62117597
Os      11.95561338       8.84001760       9.58826603
Os       7.70152225       9.42739409      11.40882284
Os       6.09070402       8.15641202       8.63656742
Os       9.64487002       6.76159026      10.76401333
Os       8.83863232       9.96939874       9.24873608
Os       9.42149872      10.67277202       5.99619636
Os       6.35807654      10.29990756       9.53458113
Os      10.19299787       8.99566322      11.15349495
16
Properties=species:S:1:pos:R:3 config_type=qcd gap_pre_relax_energy=-135.84690102559665 gap_pred_energy=-136.50829404024313 gap_fmax_final=0.0008281083794976376 gap_converged=1 pbc="F F F"
Os      11.36790061       7.50827550      10.66658146
Os      12.47094843       9.21725671      12.16264961
Os       8.95036547       7.86834991       9.97667867
Os      10.01913600       9.44496706      11.57987074
Os       8.60663315      11.09628081      12.86807644
Os      12.03921292       8.81404061       8.84286185
Os      13.05821948      10.39202513      10.22436319
Os       7.50230022       9.38543125      11.37080278
Os      11.12083544      11.23093138      12.91970020
Os       9.77047686       9.91697125       8.98689499
Os      11.31254919      10.65446928       7.28184097
Os      10.92876416      11.71143266      10.55728454
Os       8.64308059      12.55885595      11.05285421
Os      12.32951263      12.22827169       8.66025430
Os       7.59940775      10.94210039       9.63788566
Os       9.61365758      12.36334089       8.54440086
17
Properties=species:S:1:pos:R:3 config_type=qcd gap_pre_relax_energy=-144.84954967953163 gap_pred_energy=-145.69364695448252 gap_fmax_final=0.0006859166782805428 gap_converged=1 pbc="F F F"
Os      12.44020420       6.93235910      11.40689854
Os      10.51990866      10.69050589      12.32640022
Os      10.89026158      13.04207269      13.30400179
Os       7.63720186      12.37632142       9.72044149
Os      12.60135287       9.15927747      12.21201327
Os      12.55962738      13.50812005      11.68083674
Os      12.26475914      11.17764227      10.62989620
Os       9.26163436      12.82994427       8.14105235
Os      10.47688090      10.86095272       8.76480187
Os      12.82534296      11.46110234      13.10334643
Os      12.07530914       8.66628640       9.71944280
Os      10.39375593       8.59202012       8.01901154
Os      10.33575695       8.18064872      11.41077554
Os       9.28070843      12.75953682      11.51531562
Os       8.70260743       8.11989947       9.66326430
Os       8.79424003      10.39115527      10.40090593
Os      10.89983257      13.21153938       9.94097975
18
Properties=species:S:1:pos:R:3 config_type=qcd gap_pre_relax_energy=-154.70909211294938 gap_pred_energy=-155.38584138870877 gap_fmax_final=0.0009346394086812466 gap_converged=1 pbc="F F F"
Os       9.83320671       9.53163749       8.93489673
Os      10.69618113      11.03847572      10.85076013
Os      10.59045041      13.60523426      10.73792591
Os      10.94473632       8.47457119      10.98401769
Os       9.31109860       9.66901521      12.55128935
Os      11.83109603       9.95497080      12.89783760
Os       8.46395839       8.19333894      10.63654812
Os      11.61134069      12.50233522      12.77566981
Os      13.44399108       8.76941519      11.33365920
Os      13.23745970      11.29863072      11.20766785
Os      12.35133186       9.81803408       9.29398714
Os       9.11184093      12.19293066      12.51487910
Os      11.25985775      10.86391735       7.27652999
Os       9.65882543      12.04894448       8.72588862
Os      10.22557545      11.13621269      14.44120359
Os       8.18032475      10.63655406      10.50281252
Os      13.02133863      13.80689363      11.08110515
Os      12.13334729      12.36484949       9.15928264
19
Properties=species:S:1:pos:R:3 config_type=qcd gap_pre_relax_energy=-163.64756237914034 gap_pred_energy=-164.12881086910528 gap_fmax_final=0.0008733080494948894 gap_converged=1 pbc="F F F"
Os       8.25294189       9.21723110       8.40092556
Os      10.53616871       8.70595513       9.24377153
Os      12.83833252       9.91707324      11.73907084
Os      13.85418401       8.59908149       9.91141420
Os       8.23925223      11.34033490       9.79500878
Os      11.64068417      11.32283718      13.42208075
Os      12.14554559       7.09410646       9.98756473
Os      12.36901923      12.40185752      10.66760844
Os      12.42089559      10.36624507       9.16044452
Os       8.60138912       9.08337467      10.83483994
Os      10.49470337      10.75087256      11.12800261
Os      10.15646978      10.98643755       8.19469698
Os      11.05800584       8.34916597      11.81803787
Os      12.15823185      12.65644410       8.22752811
Os      10.12591223      13.00180254       9.71120192
Os       9.89901439       9.78891567      13.49941529
Os      10.22183346      12.98804677      12.26167294
Os       8.36848645      11.35557320      12.34393280
Os       8.05883875      13.51455408      11.09269138
20
Properties=species:S:1:pos:R:3 config_type=qcd gap_pre_relax_energy=-172.58327386373762 gap_pred_energy=-173.48673643963895 gap_fmax_final=0.0006878299142048273 gap_converged=1 pbc="F F F"
Os      10.52379331      11.71906129       7.96325725
Os       9.15433901       8.81740769       8.42899739
Os      11.46823933       9.46774293       8.45485033
Os      11.57893684      13.89732573       8.50548472
Os      12.83962850      11.79910343       9.17947383
Os      10.68854834      11.06892135      10.41505756
Os      12.80365722       9.64787356      10.87913883
Os       8.43074388      10.96681629       9.31694474
Os       9.56069170      13.26226730       9.80001635
Os      10.44773667       8.45723359      10.61324640
Os       7.98925675       8.92669295      10.79956569
Os       9.50183830      12.61863428      12.20508546
Os      11.91314682      13.28370209      10.94638821
Os      13.94555150      11.78467270      11.52156171
Os      11.61267666       8.67887196      12.90766607
Os       7.52728014      11.42447488      11.53197700
Os       9.36267823       7.59189378      12.64127364
Os      11.83007765      11.20778661      12.73583780
Os       9.45783242      10.04346429      12.50118841
Os      13.83492799       9.80763458      13.12456984
21
Properties=species:S:1:pos:R:3 config_type=qcd gap_pre_relax_energy=-182.35390218922595 gap_pred_energy=-183.76423509215255 gap_fmax_final=0.0009389927326877508 gap_converged=1 pbc="F F F"
Os       7.40101481       8.71367766      12.00148387
Os      10.20250999       8.36992091      11.74665926
Os       8.53366771       9.02950309       9.87626814
Os      12.30698830       9.97992553      12.34319708
Os       8.93899839      11.25640204       8.69393269
Os      14.35902641      11.00404476      11.27299475
Os       8.17313169      11.06782940      11.28406871
Os      10.83567665      14.48516770      11.17398482
Os      12.49499130       7.65561034      11.28439211
Os      12.34602913      12.47979670      11.23120710
Os      11.01566866      11.05905205      14.08524786
Os      12.99824814       9.61071710       9.77678975
Os      10.88535819       8.35204137       9.24760963
Os      10.06433051      12.46368005      12.32792767
Os      10.91131210      12.87916598       9.14770579
Os      13.40366064      11.95910542       9.03609109
Os       9.09703721       9.86395084      13.23947539
Os       8.76842676      13.42618704      10.29497499
Os      11.31166502      10.57578772       8.06035829
Os      10.60492559      10.61109690      10.47073580
Os       9.35725167       9.16725624       7.41481405
22
Properties=species:S:1:pos:R:3 config_type=qcd gap_pre_relax_energy=-193.09262283488778 gap_pred_energy=-193.34767680344174 gap_fmax_final=0.0009019381532246099 gap_converged=1 pbc="F F F"
Os       9.96740985       8.96877998      12.29451784
Os      12.64726657      11.34741990      14.93076903
Os      10.36389822      10.39286378      14.41801847
Os      12.32158039       9.92101345      12.92034238
Os      11.91324428       8.39142271      10.64492669
Os       9.60158175       7.53735051      10.17046801
Os      11.50664220       7.07493482       8.57512793
Os      13.36844576      10.56442050      10.61148980
Os      13.74611358      11.97963880      12.74428993
Os       8.94710157      11.31993367      12.46151772
Os      11.28304191      12.31398280      13.09034362
Os      12.98390762       9.12426426       8.49665561
Os      10.86158838      10.86151118      10.86160456
Os       9.77344429      13.32178803      10.99514910
Os      10.48960061       9.34176838       8.66906693
Os       8.56877468       9.90259407      10.35316317
Os       7.54578898      12.27415956      10.50689344
Os      12.34798499      12.91551421      10.77856987
Os      11.96961336      11.49816679       8.67023830
Os       8.43071987      14.16231874       9.07861230
Os       9.38834635      11.87929494       8.84930735
Os      10.92811342      13.86106754       8.83313657
23
Properties=species:S:1:pos:R:3 config_type=qcd gap_pre_relax_energy=-200.69615841259335 gap_pred_energy=-202.97928847683954 gap_fmax_final=0.0008578869434786941 gap_converged=1 pbc="F F F"
Os      12.95749973      12.02098847      11.84937743
Os      14.19059579      11.26607828       9.49960910
Os      12.47344247      12.96500941       9.58661615
Os       9.10004348      12.69356137      13.39204580
Os      10.64560454      13.35265349      11.56053446
Os      13.11693400       9.62682965      11.07741636
Os      11.54223893      12.59120508      13.82482722
Os      11.87650980      12.02652401       7.38074059
Os      12.39796876       8.02418435      12.83583314
Os       9.99442224      12.65412371       9.04601646
Os       8.47010028      10.70876907       9.55683858
Os      12.20473907       9.92702651       8.64862870
Os       7.85630086       8.98516384       7.78059794
Os       8.27208214      12.89283496      10.95963758
Os      11.36134201      10.25716262      13.10598138
Os      11.08781448       8.25165270      10.42196270
Os      10.98961519      10.96448966      10.63929344
Os       8.88009857      10.65781333      12.11619086
Os       9.90907547      10.50096136       7.57188750
Os      10.21137765       8.15869266       8.06707194
Os       8.56880621       8.30864207       9.98199396
Os       9.97324337       8.23155856      12.58674520
Os       7.60498709       8.61891697      12.19499565
24
Properties=species:S:1:pos:R:3 config_type=qcd gap_pre_relax_energy=-211.0050053827136 gap_pred_energy=-211.43802391478178 gap_fmax_final=0.0006523183824131871 gap_converged=1 pbc="F F F"
Os      11.21889189      10.69633741      13.01515847
Os      13.70533644      10.81097879      13.01715689
Os       8.54082530      10.66813122      12.85170063
Os      12.45482638      13.09185306      12.84989005
Os       9.89370036      13.02372901      12.85176629
Os      12.37283764       8.49090603      13.01717174
Os       9.77257776       8.42159258      12.84989530
Os      11.21889384      10.69634089       8.75877083
Os      13.70533842      10.81098225       8.75677492
Os       8.54082714      10.66813446       8.92222614
Os      12.45482823      13.09185629       8.92404431
Os       9.89370216      13.02373226       8.92216560
Os      12.37283958       8.49090950       8.75675502
Os       9.77257959       8.42159585       8.92402894
Os      12.64006721       9.88011755      10.88696465
Os       9.91455130       9.90377994      10.88696339
Os       7.23936674       9.80992854      10.88696207
Os      11.28272755       7.63896573      10.88696219
Os       8.36325411       7.74647552      10.88696091
Os      11.24604760      12.22234317      10.88696599
Os      13.89182195      12.18192491      10.88696711
Os       8.48442225      12.26687719      10.88696467
Os       9.97910636      14.58027798      10.88696729
Os      12.32778203      14.64938166      10.88696845
25
Properties=species:S:1:pos:R:3 config_type=qcd gap_pre_relax_energy=-218.2117473638653 gap_pred_energy=-220.68622887366345 gap_fmax_final=0.000748344359734944 gap_converged=1 pbc="F F F"
Os      12.47436551      11.36543720       9.77070624
Os      12.93591510      10.97305163      13.39653042
Os      12.56450625       9.21174155      11.58700911
Os       8.91113224       9.67295134      11.62587775
Os      10.19996287      11.97188652      11.25767817
Os      12.62371725      12.81945278      11.77121460
Os      14.37408518      10.81669360      11.26677360
Os      10.52736906       8.17514357      10.56159186
Os       9.25068642       8.48995451       8.63788979
Os       8.77215392      10.72696903       9.44274871
Os       8.13048436      12.98992254      10.44591835
Os      11.15883578      14.38535967      10.63436707
Os      14.37101240      10.19013342       8.75592740
Os      12.52867176      13.61374799       8.68544752
Os      10.24011298      12.72050696       8.85944379
Os      10.90434599      10.23543133       8.11833239
Os      12.51771007       8.75143389       9.12853837
Os      12.82903645      11.54827877       7.29417167
Os      10.42879995      10.86664517      13.61872548
Os       8.15709841      11.86669901      12.76010526
Os       8.40469573       9.56223764      14.00104294
Os      11.60168799       8.71921978      13.71427152
Os       9.72303497       7.65803128      12.85284510
Os       9.51413721      14.03319924      12.48034690
Os      11.36051742      13.13994686      13.83657125
26
Properties=species:S:1:pos:R:3 config_type=qcd gap_pre_relax_energy=-230.41022033711147 gap_pred_energy=-231.19865810488645 gap_fmax_final=0.0009285408657017715 gap_converged=1 pbc="F F F"
Os      13.45375336       9.83781399      10.48984057
Os      13.73791934      10.54871097      12.93772152
Os      13.98163776      12.40145637      10.88784298
Os      11.33717528      10.38731118      13.68891269
Os      12.22016638      12.55254569      12.82822335
Os      13.80723254      14.00781889       8.92399151
Os      11.37293281       8.60704144       9.66523025
Os      12.27338496       8.54392283      12.22556000
Os       9.76981141       8.04170756      13.19197850
Os      13.38003393      11.57929695       8.55841676
Os      12.10204970      14.16047098      10.75684554
Os      11.64159367      11.71551035      10.43509196
Os      10.49584751      14.54415970      12.58295476
Os      10.18800675       9.90246135      11.50206570
Os      13.12462977       9.14644454       8.03477440
Os       9.21260881       7.66915203      10.82661692
Os       9.73991410      12.24142523      12.60226590
Os      11.43231954      13.20849595       8.45843545
Os       8.26053452      10.03435664      13.05807582
Os       9.63062084      13.35465170      10.34686154
Os       7.40628367       7.72928248      13.29352644
Os       8.99384323       9.63505722       9.14774357
Os      10.98756265      10.62936794       8.13213801
Os       7.13795424       8.86584280      11.18841320
Os       8.17205550      11.34858347      10.70378446
Os       8.92155142      12.08853543       8.31411188
27
Properties=species:S:1:pos:R:3 config_type=qcd gap_pre_relax_energy=-241.80278748814283 gap_pred_energy=-242.60543441240577 gap_fmax_final=0.0005853031546953994 gap_converged=1 pbc="F F F"
Os       7.93459115      11.62298569      13.83773396
Os      10.41887446      11.54234993      13.88118676
Os      13.17357101      11.46461942      13.83786470
Os      15.65586106      11.40511153      13.71632014
Os       9.09985978      11.86496895      11.66672045
Os      11.76794876      11.80239532      11.52519545
Os      14.43844743      11.71432637      11.58276745
Os      10.47122121      12.12768215       9.28456388
Os      13.00990497      12.05604546       9.24463592
Os       9.22487492      13.67080401      13.39337907
Os       9.10422976       9.67936453      12.88373605
Os      11.85115864      13.74133045      13.33703029
Os      11.72203033       9.46929609      12.79156163
Os      14.46975737      13.52280664      13.31089629
Os      14.34911199       9.53136536      12.80125620
Os      10.54297484      14.09445141      11.16395595
Os      10.41170521       9.75141078      10.60941942
Os      13.10823874      14.02205609      11.12360617
Os      12.97696978       9.67903744      10.56907544
Os      11.79651416      14.25415448       8.94276705
Os      11.67035373      10.08023803       8.40982608
Os      10.64219097      15.89489196      12.91368607
Os      10.39047029       7.56675729      11.85031390
Os      13.16573579      15.82367398      12.87399474
Os      12.91401600       7.49556320      11.81063779
Os      11.88004176      16.19737443      10.76640621
Os      11.62442345       7.74001655       9.68654053
28
Properties=species:S:1:pos:R:3 config_type=qcd gap_pre_relax_energy=-252.2788985829604 gap_pred_energy=-253.12261682386588 gap_fmax_final=0.0008692925407795726 gap_converged=1 pbc="F F F"
Os       8.44275898      12.50739915      14.30161248
Os      10.42522980      10.70716740      14.56696380
Os      12.24914017       9.05542240      14.79060140
Os      10.80559146       9.00684577      12.78164173
Os       8.83797680      10.82466308      12.48523450
Os       7.00929997      12.52261258      12.24089589
Os       9.23186729       9.02352656      10.51934758
Os       7.43758297      10.73886378      10.27202613
Os       7.85087475       9.10210241       8.46787290
Os       8.64480238      14.38343138      12.64593202
Os      13.26518253       8.64436383      12.57619261
Os      10.50962623      12.72663930      12.89922294
Os      12.50034875      10.93507680      13.20131146
Os      11.88924391       8.60837044      10.34633179
Os      14.35759787       8.21114928      10.15536604
Os      10.84631104      14.61720016      11.11619324
Os       9.04448640      12.74217836      10.79294549
Os       9.44123180      10.96754597       8.80366815
Os      10.27749621       8.67609303       8.28128121
Os      10.98962076      10.98964030      10.98963375
Os      13.56094840      10.51030869      10.76027653
Os      12.92410353       8.22637650       8.09468108
Os      12.09575840      10.52588130       8.65403721
Os      12.72215420      12.99460164      11.38368591
Os      12.86904474      14.81153500       9.71057182
Os      14.55964248      10.08718214       8.49968874
Os      11.23675228      13.01038546       9.24832341
Os      13.68627388      12.55438522       9.12540821
29
Properties=species:S:1:pos:R:3 config_type=qcd gap_pre_relax_energy=-259.8331764617873 gap_pred_energy=-260.16528469439385 gap_fmax_final=0.0009115394443735702 gap_converged=1 pbc="F F F"
Os      11.64985895       7.52602119      10.88398205
Os      13.15952617       8.86491348       9.09690305
Os      11.23291847       8.50010454      13.21895784
Os      12.84765957       9.80129867      11.56765742
Os      14.19654628      11.12826698       9.71092406
Os      12.20841584       9.96947664       7.02520452
Os      12.36634243      10.83617765      13.88946945
Os      13.81696513      12.12258125      12.17226795
Os       9.14225209       7.25064913      10.65411434
Os      10.65505747       8.50500042       8.74442114
Os       9.89706483      10.72550327       7.73411264
Os      10.23222939       9.56412986      11.20350721
Os      11.73487988      10.89674995       9.42496159
Os       8.75296570       8.15978883      12.82908492
Os      13.17245372      12.07911792       7.59782558
Os      11.31123111      11.95274855      11.88144265
Os       7.96656585      10.36220866      11.85505652
Os      13.37689197      13.11911978      14.50029934
Os      10.93054357      12.99075930       8.34658343
Os       9.33701648      11.80295731      10.10130263
Os       8.38696290       9.38680867       9.52127707
Os      12.80312906      13.27343089      10.11238773
Os       9.81839658      10.62644823      13.64547508
Os      10.44200320      14.04681572      10.76257929
Os      10.87410783      12.94185745      14.27793566
Os       8.99122579      12.76017553      12.47981943
Os      12.37784401      14.27543060      12.49792988
Os      10.04950133      15.01597823      13.11052693
Os      11.92240779      15.16844468      14.80695395
30
Properties=species:S:1:pos:R:3 config_type=qcd gap_pre_relax_energy=-271.115127215357 gap_pred_energy=-271.79966364988945 gap_fmax_final=0.0008169368283550513 gap_converged=1 pbc="F F F"
Os      10.66602348       9.35543550       7.32805013
Os      12.58704215       9.78500507       9.02450513
Os      10.41879558      11.31234637       8.73622894
Os       8.49662224      12.96900882       9.08315338
Os      14.86948791      10.62876111       8.61329179
Os      12.91938844      12.22443207       8.54967233
Os      10.86254113      13.80864531       8.51503444
Os       8.33002660       8.63529989       7.88386707
Os      10.05831284       8.74929163       9.65413685
Os       8.14507803      10.45802384       9.53568411
Os      14.28702100       9.95987983      10.93787798
Os      12.30882018      11.56548224      10.93029533
Os      10.22258488      13.25774703      10.89340894
Os      14.64820623      12.44094322      10.41031492
Os      12.66374194      14.03980490      10.39459711
Os       7.73241805       8.02537311      10.27980977
Os      14.38247614      14.20955371      12.21599419
Os       7.87948181      12.29109023      11.51025172
Os       9.84926721      10.66972889      11.51653945
Os      11.95412512       9.00514215      11.62135110
Os      12.11238916      13.39501116      12.74896246
Os      14.04673196      11.78047991      12.78382178
Os       9.51327725       8.21079676      12.14780430
Os       7.51037033       9.86166296      12.07837093
Os       9.57497237      12.47460142      13.33613416
Os      13.69078541       9.27142213      13.39015216
Os      11.70113349      10.81353193      13.42258361
Os       7.30867553      11.63882407      13.86260704
Os       9.24491224      10.04394164      13.91191387
Os      11.29582773       8.39926955      13.96412144
31
Properties=species:S:1:pos:R:3 config_type=qcd gap_pre_relax_energy=-280.512655693183 gap_pred_energy=-281.27142035518096 gap_fmax_final=0.0008142038476815748 gap_converged=1 pbc="F F F"
Os      13.50340143      13.25032057      14.23975813
Os      12.06343892      13.33276135      16.29880923
Os      14.24021668      11.17748927      12.71998131
Os      13.14476957      15.64324734      13.41786682
Os      11.22076321      14.16981822      13.88841704
Os      12.69689368      11.15187006      15.11236716
Os      14.65405470      13.67667141      12.06667250
Os      15.74079783      11.79738951      10.85258637
Os      10.42533021      12.08470345      15.10602929
Os      14.72245981       8.97761945      11.60525016
Os      12.22874939      12.78367266      11.87509479
Os      13.24033492       9.10266170      13.62063012
Os      10.45795984      14.66326251      11.52363295
Os       9.65904773      12.50043397      12.63613182
Os      12.83290466      15.18364892      11.12003184
Os      11.16531646      10.46188229      13.26494358
Os       8.70542644      10.41540192      13.67254522
Os      13.51991451      10.70582580      10.27632525
Os      13.93037123      13.17528597       9.71679538
Os      11.40997568      13.29895446       9.45561889
Os      12.19086650       8.76172271      11.29887691
Os      10.67555867      11.01162622      10.70470770
Os       8.97725403      12.92199377      10.09770552
Os       9.65066166       8.88491513      11.78611703
Os       8.14346901      10.85715305      11.20940031
Os      12.69579620      11.69103313       8.02733423
Os      11.61724049       9.49796875       8.91400259
Os       9.11345525       9.42004958       9.36026190
Os      10.60194741       7.42173707       9.97755250
Os      10.05936825      11.52126794       8.28500255
Os       7.59906699      11.34442323       8.75636229
32
Properties=species:S:1:pos:R:3 config_type=qcd gap_pre_relax_energy=-289.47521574079866 gap_pred_energy=-290.02579902747937 gap_fmax_final=0.0007156738115644391 gap_converged=1 pbc="F F F"
Os      13.56769357      14.54022589      11.50763344
Os      13.97065802      12.01692502      12.58362048
Os       9.97480524      13.91098687       8.20438021
Os      13.53857056      11.85221604      15.23789601
Os      13.98567945      14.53106429       8.91562656
Os      13.72862696      14.09014423      14.11802053
Os      14.14877954      12.26926594      10.03191273
Os      12.09327733      14.97558500       7.24475758
Os      11.85583818      12.68637653      10.98591992
Os      14.46650536       7.63733070      12.39545150
Os      11.66002254      12.56735162      13.67733079
Os      12.22590501      12.77723744       8.37647555
Os      11.66258479      14.99217542       9.70680111
Os      12.36696034      10.44325324       9.63360201
Os       9.57020272      13.79675178      10.73843902
Os      14.32344579       9.82205765      11.22995878
Os      12.46011594       8.04194367      10.94061339
Os      14.02194028       9.68602060      13.75099039
Os      11.17677054      15.05313293      12.27861779
Os      10.30945979       7.15729289      11.91984209
Os      12.04615332      10.24348316      12.25355468
Os      13.10939303      16.26962578      13.24138888
Os      10.11182285      11.68355629       9.44497848
Os      11.42051393      14.79594483      14.82454286
Os      12.16335851       7.94263679      13.46968471
Os      10.24837833       9.34132111      10.72312104
Os       9.74812338      11.57536740      12.05795420
Os       9.95010520       9.22076598      13.25115132
Os       9.39713479      13.73538797      13.45400882
Os      11.32525948      12.68641805      16.16520543
Os       9.61100121      11.49841453      14.70344045
Os      11.72296262      10.12178889      14.89512783
33
Properties=species:S:1:pos:R:3 config_type=qcd gap_pre_relax_energy=-299.67229333032907 gap_pred_energy=-300.1772332374412 gap_fmax_final=0.0008886218761782957 gap_converged=1 pbc="F F F"
Os      10.88529288      13.55028425      16.36223328
Os       8.73689499      14.62415244      15.49159222
Os      12.91759673      13.23257638      14.81270333
Os      15.02306706      12.94800812      13.20756281
Os      11.57111324      11.16564565      15.57372952
Os      15.74192944      10.65741545      12.40235027
Os      10.76518222      14.40596663      14.01826174
Os       9.35818211      12.32803127      14.80687111
Os      13.58517036      10.79792631      14.01849804
Os      12.88118164      14.08608549      12.42299833
Os      12.23172581       8.84563925      14.81500319
Os      11.43220802      11.97629908      13.20946006
Os      10.12821537       9.81810489      13.91898546
Os      17.04309187      12.68859839      11.72408664
Os      13.62476818      11.64651768      11.53305931
Os       8.41431727      13.99472993      13.15200571
Os      12.21129625       9.40249660      12.38928893
Os      14.20125203       9.25796780      10.69559720
Os       8.99733724      11.65542138      12.24589788
Os      15.72035325      11.45832001       9.98990753
Os      10.35046184      13.70079132      11.50708138
Os       8.05223609      13.30903145      10.62004693
Os      14.98595836      13.75398334      10.79982551
Os      11.08106275      11.30887010      10.61711223
Os      12.53123942      13.37627690       9.84020783
Os      11.82864671       8.89207629       9.89141194
Os      10.06848783      12.96986981       9.01847390
Os      14.51392236      13.05094028       8.35764901
Os       8.68267156      10.97419124       9.77723613
Os       9.78535230       9.26007151      11.38890999
Os      13.20180617      11.00508783       9.04988851
Os      12.07138863      12.64094237       7.47025244
Os      10.74587480      10.58696534       8.24109639
34
Properties=species:S:1:pos:R:3 config_type=qcd gap_pre_relax_energy=-308.9332245053581 gap_pred_energy=-309.90505730365606 gap_fmax_final=0.0009216997941094068 gap_converged=1 pbc="F F F"
Os      12.55277241       8.65747788      11.35903154
Os      14.52073554      10.43500256      12.09632858
Os      14.50176593       9.47662520       9.68582011
Os      12.69674953      11.13489690      10.34463080
Os      14.52074797      12.81937016      11.15815979
Os      10.55255524       7.95749052      13.06964433
Os      10.03197379       8.49378371      10.63331252
Os      14.50040700      11.88375775       8.73702843
Os      12.60658423       9.65232118      13.85499241
Os      16.24220495      12.11245902      12.89067389
Os      12.69668271      12.11945986      12.90976888
Os      14.50165265      13.77774705      13.56866731
Os      14.50026866      11.37061449      14.51745879
Os      11.98676270       9.14425887       8.95114999
Os      16.24227054      11.14192883      10.36389816
Os      11.93884241      11.66216386       7.94956654
Os      10.09617574      10.83018925       9.52220491
Os      10.79738646      12.89010628      11.11964489
Os      10.79737254      10.36423408      12.13466213
Os       7.95614560      13.39010776      12.84919681
Os      12.60667560      13.60203486       9.39940277
Os      10.09123005      13.29171015       8.74893923
Os      12.55273352      14.59687749      11.89536113
Os      10.55259376      15.29684775      10.18465084
Os       8.23367122      14.98918701      10.81686521
Os      10.09606625      12.42414479      13.73206817
Os       8.35638243      12.55725684      10.58916028
Os       8.35633987      10.69706200      12.66502757
Os       7.95622066       9.86420776      10.40497175
Os      10.09110402       9.96262406      14.50533354
Os       8.23366081       8.26513102      12.43731671
Os      11.98661054      14.11009166      14.30321510
Os      11.93866350      11.59218619      15.30479619
Os      10.03189790      14.76054988      12.62095735
35
Properties=species:S:1:pos:R:3 config_type=qcd gap_pre_relax_energy=-318.5086294033804 gap_pred_energy=-319.30371141456374 gap_fmax_final=0.0006378571848111295 gap_converged=1 pbc="F F F"
Os      14.27802075      10.57575680      10.52125773
Os      14.91694822      11.71983543       8.34972950
Os      13.55452304      13.81949397       8.92940548
Os      13.80064414       9.30782711       8.36242359
Os      14.63654923      11.83604758      12.85395105
Os      12.48613461      11.39948359       8.88668374
Os      15.34764087      12.94206204      10.52744528
Os      12.12629143      15.88193437       9.48333246
Os      13.90051097      15.10045656      11.11533332
Os      13.16603917       8.24000042      10.54557051
Os      11.37061041       9.06734156       8.91153238
Os      10.97649451      13.65090234       9.49999820
Os      11.75323485      10.27658086      11.11837716
Os      12.91876167      12.78986322      11.14467375
Os      13.61187197       9.48715039      12.88078656
Os       9.82105114      11.15877173       9.50780853
Os       9.57874769       9.03514213      10.84691210
Os      14.03452312      10.85545107      15.19079438
Os      11.44908901       8.21265224      12.54066147
Os      13.19329871      13.98857067      13.44030665
Os      12.20820239      11.65958604      13.54510424
Os      11.37811265      14.90104131      11.69934931
Os      10.22273229      12.55914564      11.74018508
Os       8.47278482      13.38942879      10.08911259
Os      11.85643200       9.49789248      14.77804056
Os       9.54896152      15.64896999      10.08965097
Os       8.17397913      11.12998929      11.41761519
Os       9.96719055      10.27344301      13.11790820
Os      14.27006094      12.01955064      17.29841081
Os      12.64387805      12.92970930      15.75590656
Os      12.23277218      10.73812281      16.98869589
Os      10.71236601      13.81156912      14.05852296
Os       8.87273524      14.64419455      12.29020582
Os      10.45708914      11.58499314      15.34642809
Os       8.62269318      12.42801536      13.68885545
36
Properties=species:S:1:pos:R:3 config_type=qcd gap_pre_relax_energy=-327.59460641248245 gap_pred_energy=-329.4946196723627 gap_fmax_final=0.0008598938473234094 gap_converged=1 pbc="F F F"
Os      10.11229369       9.16362003      15.34557772
Os      11.22578844      11.77460652      14.63835669
Os       8.89862474      10.83157734      14.03914769
Os       9.76127553      13.00025692      12.93052416
Os      12.53584817       9.56118796      14.83374013
Os      12.22952949      13.98890565      13.69845313
Os       9.69641379       7.52879471      13.63947289
Os      13.73585939      11.93371918      14.15639085
Os       8.49150524       9.20455021      12.08711707
Os      13.55759737       9.78757263      12.44228275
Os       7.65289135      11.71264935      11.83971722
Os       9.94359167      11.20153035      10.92940786
Os       6.69897192       9.87433454      10.43049815
Os      12.13959709      11.96331850      12.22669720
Os      12.19938943       7.62999380      13.12289954
Os      10.91327152      14.89041571      11.53766821
Os      10.88439365       9.70766365      12.89734363
Os      14.71000855      14.09127909      13.44407954
Os      13.36483787      14.21550724      11.30638928
Os       8.08499830      11.55300305       9.28063415
Os      14.71690358      12.13146996      11.82172195
Os      11.54867482      13.05560437       9.87500616
Os      13.99108429      12.22721056       9.30936191
Os      12.42141223      10.32919912      10.10515158
Os      14.87690330      10.10129967      10.29125248
Os       9.02888919       9.20075277       9.60090643
Os      10.80168901      15.47332892       9.19314140
Os      10.63634840       7.82692916      11.06083326
Os      10.54956494      10.97618324       8.39728520
Os       8.93501559      13.57988245      10.58198060
Os      13.08737043       7.95266559      10.71612674
Os      12.18914516      12.92691809       7.49053180
Os      13.08976130      14.86470384       8.87372866
Os      12.95943484      10.55623973       7.69045055
Os       9.73586743      13.45499682       8.15007279
Os      11.36924661       8.50212762       8.79004897
37
Properties=species:S:1:pos:R:3 config_type=qcd gap_pre_relax_energy=-339.68557661732035 gap_pred_energy=-340.47986927177465 gap_fmax_final=0.0007030973182481364 gap_converged=1 pbc="F F F"
Os      12.43210600       9.37716405       9.76491187
Os      12.84407305       7.30423400      11.30191465
Os      11.97878185      11.43393711       8.16133873
Os      14.23937568       9.43731121      11.58509335
Os      11.53603891      13.59704416       6.78393282
Os       9.65334195      12.37808853       7.78464207
Os      13.87665380      11.46484340      10.03433343
Os      13.09503771      13.60742289       8.70858969
Os      10.64322106      14.36032793       9.02293455
Os      12.85666232       8.40475353      13.59223113
Os      15.64796941      11.69619522      11.92823212
Os      15.02147339      13.72961282      10.54525707
Os      11.55752748      12.52180955      10.50017918
Os      10.11434772      10.44995696       9.48585658
Os      16.86839817      13.87507444      12.20760655
Os      13.43576144      12.80117243      12.33471258
Os      14.66198061      15.10304102      12.61621231
Os      10.58697672       8.45289892      11.15586095
Os      11.98472422      10.36894858      12.26144905
Os       9.03737606      12.64672821      10.26750232
Os      15.39818823      13.09804882      14.05562464
Os      11.14432927       6.65777580      12.95437741
Os      10.22118470      14.49902371      11.59299869
Os      14.07531404      10.70516660      13.82432901
Os      12.63264382      14.87772655      10.87708446
Os       9.44245191      10.72355248      11.92433795
Os      14.15614394      15.07662286      15.05533195
Os      10.91569446      12.57598681      13.27790932
Os      10.30970190       8.89697266      13.60568468
Os      12.95791614      12.88973749      14.89619791
Os      11.73843567      10.58541584      14.85033470
Os       8.46890228      12.94969463      12.86749204
Os       9.69447370      14.62954707      14.24334577
Os       9.15663807      11.14804154      14.47517012
Os      12.23427828      14.83485401      13.43881945
Os      10.46430468      12.76581897      15.79047501
Os       8.04598555      13.20386342      15.35611001
38
Properties=species:S:1:pos:R:3 config_type=qcd gap_pre_relax_energy=-349.1463812583304 gap_pred_energy=-349.9404348499892 gap_fmax_final=0.0006008697079133418 gap_converged=1 pbc="F F F"
Os      10.37338762       7.89689538       7.13309794
Os      12.19454430       9.33399248       8.01535791
Os      10.01418552      10.33607143       7.34180215
Os      11.95841590      11.95552542       8.27324224
Os      14.18421214      10.92832964       8.95958342
Os       8.79087771       8.69959797       8.86910343
Os      10.98206567       7.75308371       9.59235543
Os       9.49210640      12.50569132       8.92608648
Os      16.15091355      12.23891753       9.71618696
Os      14.01523420      13.43409232       9.37117087
Os      12.93322340       9.19979933      10.54757699
Os      10.64925154      10.24040245       9.77285998
Os       8.21070156      10.70172225      10.48378794
Os      11.38283821      14.01913332       9.63156144
Os       8.92643434      14.80766645       9.68720669
Os      14.92973088      13.05619436      11.71589186
Os      14.98430802      10.59592664      11.30012835
Os       9.31883282       8.58515289      11.40192909
Os      11.54663834       7.70223501      12.23327731
Os      10.16434113      12.16907541      11.38937608
Os      13.70907088       8.91470013      12.94295582
Os      12.78346114      11.89852468      10.88978732
Os      10.26511726      14.71209179      11.78414776
Os       8.87929509      10.54991367      12.98691982
Os      12.86448794      14.54162660      11.62314250
Os      11.52245663      10.19900281      12.54296529
Os       7.95103365      13.15237876      11.22897239
Os      13.70623704      11.40611737      13.40551200
Os       9.04252110      13.07600817      13.55940113
Os      10.12133268       8.67132632      14.10124432
Os      13.81943327      13.97164049      14.02271052
Os      11.61318872      12.99169872      13.33673434
Os      12.26959926       9.76555297      14.90603381
Os      10.28562381      11.34439638      14.97609542
Os      12.59769922      12.36429735      15.56547124
Os      11.79783906      15.42673902      13.93592977
Os      10.59617496      13.85216275      15.54340328
Os      12.80340286      14.83253448      16.11720848
39
Properties=species:S:1:pos:R:3 config_type=qcd gap_pre_relax_energy=-359.32200492925404 gap_pred_energy=-359.5270443263438 gap_fmax_final=0.0009674184801293121 gap_converged=1 pbc="F F F"
Os      13.37273391      13.37273973      11.85354381
Os      15.86904101      13.37200954      11.84260313
Os      13.37206795      15.86909114      11.84217036
Os      10.60346404      13.38028066      11.84996131
Os       8.07119337      13.23498183      11.86070966
Os      10.74899579      15.91259389      11.86016937
Os      10.61095666      10.61103528      11.85396044
Os       8.11464025      10.61195398      11.84306822
Os      10.61194287       8.11468957      11.84346998
Os      13.38043957      10.60330790      11.85043679
Os      15.91262037      10.74898993      11.86088630
Os      13.23497958       8.07113599      11.86142492
Os      11.99193252      11.99205356      13.79972154
Os      14.66475692      12.00222103      13.73261517
Os       9.31912781      11.98206188      13.73264179
Os      12.00208804      14.66488976      13.73216954
Os      11.98188495       9.31922415      13.73298638
Os      14.59657405      14.59689326      13.71849695
Os       9.38799640      14.59617419      13.66013776
Os       9.38720324       9.38756311      13.71938335
Os      14.59586433       9.38828762      13.66134549
Os      11.99196836      11.99163584       9.88706777
Os      14.67366447      11.98242132       9.94837381
Os       9.31013666      12.00076650       9.94849799
Os      11.98282053      14.67337426       9.94798920
Os      12.00115063       9.30982302       9.94889800
Os      14.56839479      14.56814215       9.94234122
Os       9.36196599      14.62157601      10.06877095
Os       9.41530609       9.41512785       9.94321109
Os      14.62179727       9.36172462      10.06915853
Os      13.24957007      13.25007031      15.59492565
Os      10.72067070      13.26370920      15.56343632
Os      10.73431433      10.73485240      15.59535768
Os      13.26314411      10.72123317      15.56393859
Os      13.23633205      13.23577409       8.12390010
Os      10.64916081      13.33405972       8.18841644
Os      10.74741438      10.74686947       8.12441358
Os      13.33459738      10.64862806       8.18860245
Os      11.99186221      11.99280851      17.32557291
40
Properties=species:S:1:pos:R:3 config_type=qcd gap_pre_relax_energy=-369.0821015939308 gap_pred_energy=-369.61638434152695 gap_fmax_final=0.0009152961603791216 gap_converged=1 pbc="F F F"
Os      13.59647423       9.05820221      10.74368724
Os      11.95762116      13.12763013       9.48964942
Os       7.63662501      12.89921427      10.87989050
Os      14.44716326      15.77915519      12.13216494
Os      13.78428840      11.26569727      14.74442645
Os       9.32660838       9.62614190      10.76925551
Os       7.37805772      10.66559094      12.10516199
Os      10.27869462      16.33373506      12.15645071
Os      11.35422816       8.59484259       9.41919030
Os      12.27137651      15.42637132      10.82691690
Os       9.94813036      14.17913877      13.44889281
Os      13.53792208       9.11804683       8.21089500
Os      11.98806989      13.24042030      12.10988116
Os       9.47263581       9.63078520      13.49135098
Os       9.60839303      11.84491984       9.47109783
Os       7.95827946      15.10219513      12.16208663
Os      11.98838262      13.12548412      14.76147397
Os      15.76435706       9.54994803      12.05525942
Os      14.21228588      13.64060473      10.83795960
Os      16.07377816      11.81763545      13.39030634
Os      11.67366971      10.81604325      13.48236929
Os       9.57494365      11.89658086      12.13384323
Os      13.96608857      11.31234638      12.10777179
Os      12.28545274      15.41709311      13.43512548
Os      11.36748900       8.57606977      12.08373718
Os       9.93129354      14.21003715      10.86307714
Os       7.68763777      12.93353760      13.43979946
Os      14.21780120      13.61092006      13.42385475
Os      11.65620906      10.80945786      10.67894395
Os      13.48840586       9.09651479      13.46741717
Os      16.36477824      13.98375930      12.11283245
Os      11.64547297      10.84254003       8.12875087
Os      13.88930906      11.27563925       9.44572024
Os       9.76878508      11.79997546      14.76814593
Os       9.36916717       9.67232026       8.23581206
Os       7.35785191      10.70429505       9.57400940
Os      15.76452873       9.58629855       9.52394865
Os      16.08442563      11.77548691      10.82998093
Os      11.67965758      10.74906192      16.02056963
Os      11.39424096       8.65684341      14.78887297
41
Properties=species:S:1:pos:R:3 config_type=qcd gap_pre_relax_energy=-378.8071559656681 gap_pred_energy=-379.5307119616833 gap_fmax_final=0.0007717386302897209 gap_converged=1 pbc="F F F"
Os       8.33723669      11.44859167      14.25019613
Os       8.79857562      13.92685922      14.80608824
Os       8.44454255      15.59623479      12.92135452
Os       8.13453342      13.11667653      12.38582165
Os      10.64258496      11.18582509      15.42087285
Os      11.20131919      13.58934585      15.78492859
Os       7.84904519      10.59882678      11.88897484
Os      12.79068396      10.78876143      16.68887916
Os      10.48022341      16.91651806      11.89023504
Os      10.79112780      15.28320813      13.81656314
Os      10.11226863      10.10880786      12.94364755
Os      10.42519689      12.69579781      13.35270924
Os      13.54710708      13.16789128      16.75421199
Os      10.15689701      14.47646963      11.43231856
Os      12.82767949      16.57991126      12.80581245
Os       9.89880621      11.73112199      10.96264233
Os      12.36309438       9.67942555      14.20837049
Os      12.86205789      12.22669265      14.50848051
Os      13.28243451      14.81178440      14.80365219
Os       9.70529362       9.23894185      10.62860987
Os      12.59009958      14.04105026      12.34483436
Os      15.20980054      13.05293996      14.76957582
Os      12.19145761      15.72082628      10.42251830
Os      12.27148316      11.30484683      11.96439310
Os      14.93521516      14.97863263      12.81767684
Os      14.63432460      10.55586025      15.08803446
Os      12.03121142       8.79579115      11.70450548
Os      11.96048192      13.06729327       9.98182771
Os      14.51948913      16.69542005      10.95040485
Os      14.32435534       9.71082249      12.65367463
Os      11.78341287      10.37529063       9.66983242
Os      14.74746795      12.37151529      12.22111973
Os      17.07818914      13.42873728      12.76645959
Os      14.32774128      14.23321707      10.42229749
Os      16.52961535      11.05367125      13.39554368
Os      13.98378093      11.60749585       9.84896476
Os      14.06927864       9.13800750      10.18653843
Os      16.64653239      15.24553551      10.96694255
Os      16.12465902      10.46188592      11.00218800
Os      16.50683167      12.80356856      10.32383083
Os      18.28147040      11.58750678      11.64207423
42
Properties=species:S:1:pos:R:3 config_type=qcd gap_pre_relax_energy=-389.27104768776536 gap_pred_energy=-389.73973554927665 gap_fmax_final=0.0009093301703542924 gap_converged=1 pbc="F F F"
Os       9.14746127      14.02372324      15.96099309
Os      10.80928682      12.25502328      16.95804729
Os       9.95925161      15.60738653      14.16416404
Os       8.26041690      13.79151731      13.55595001
Os      11.57472624      13.87004383      15.18737850
Os      13.23628571      12.07769740      16.16229430
Os       9.87182498      12.01997364      14.62896764
Os      11.50681924      10.20965543      15.61056568
Os       9.02918448      15.34274151      11.67150916
Os       7.35872412      13.50983937      11.15995093
Os      14.02225998      13.78330740      14.23676137
Os      12.44327170      15.56847254      13.17088764
Os      10.63962354      13.68490660      12.67935039
Os      13.96320916       9.63936900      16.05320868
Os       8.90842983      11.74914052      12.06143758
Os      12.32157445      11.81204161      13.78015364
Os      10.61535038       9.91485241      13.09007040
Os      11.56097830      15.31460694      10.80699304
Os      13.23901809      17.07726256      11.35491955
Os       9.70611659      13.34278283      10.20079039
Os      14.80255738      11.18647075      14.24747641
Os      15.55618394       8.79142034      14.14861772
Os      11.33378974      11.53257212      11.13752452
Os      13.10016135       9.32962607      13.71042395
Os      15.65802684      12.90058245      12.26664732
Os      13.92875832      10.93903626      11.72998370
Os      14.86380085      15.43080966      12.32492155
Os       9.66975796       9.65888060      10.61663245
Os       8.10169216      11.47441634       9.69246381
Os      13.19828785      13.57681967      11.74195981
Os      10.48236103      11.27933032       8.73092498
Os      12.12237743       9.09197959      11.12339647
Os      13.94859548      15.18228321       9.88714873
Os      12.21566794      13.22830244       9.31692529
Os      16.34185593      10.37928450      12.28142352
Os      17.14321739      12.00256454      10.44948293
Os      14.64614011       8.52174038      11.80454897
Os      12.90537054      10.67376795       9.30247083
Os      11.22856154       8.89473284       8.80615363
Os      15.47144896      10.18719677       9.88269324
Os      16.36559602      14.50131276      10.45685282
Os      14.75917602      12.65972467       9.86413221
43
Properties=species:S:1:pos:R:3 config_type=qcd gap_pre_relax_energy=-400.26610223238737 gap_pred_energy=-400.79827147793077 gap_fmax_final=0.0009928027366808182 gap_converged=1 pbc="F F F"
Os      13.85472109      11.70435435      14.48133943
Os      11.83629262       8.81502823      11.60077059
Os       7.57734920      10.34226517      11.54085278
Os      14.05267264       9.83406948       7.82582229
Os      13.98658103      14.22884942      10.68490882
Os       9.56078146      11.64987205      14.33824415
Os       7.50881864      12.48537040      12.92774468
Os       9.84735879       9.79786455       7.68313846
Os      11.67870762      10.84452740      15.69635570
Os      11.91674733       8.94481494       8.92493027
Os       9.73405705      11.92449717       9.02797694
Os      13.79906657       9.43197706      15.59670103
Os      11.74230831      15.71355862      10.63171239
Os      11.84964480      11.10728874      10.29421869
Os       9.57657713      14.10891259      13.08308920
Os       9.62669933       9.48779416      12.94522896
Os       7.66745744      10.47467766       8.97870223
Os      11.89688668      13.52503173       9.20652586
Os      15.97725036      12.59205363      13.20886282
Os      14.01489645       9.66759100      10.33228495
Os      16.06034085      12.72377018      10.66332480
Os      11.79035178      13.51567568      11.84242085
Os       9.62728320      11.82732141      11.68453891
Os      13.97372650      11.88475315      11.82933688
Os      11.93850774      11.25639849       7.73467846
Os      11.72516770      13.25293420      14.46656019
Os       9.71659480       9.63018121      10.19211519
Os       7.59194407      12.61708156      10.38063988
Os      14.02804134      11.97914310       9.17076005
Os      11.75693270      10.96032743      13.13474384
Os      13.90421259      14.09831878      13.20770664
Os      16.12184510      10.54972207       9.25826069
Os      11.74210370       8.66802378      14.27531089
Os      13.92489582       9.52493051      13.08930468
Os       9.65997491      14.24104721      10.52816032
Os       9.59351674       9.39557735      15.46127233
Os       7.50020607      10.20969834      14.10342683
Os      15.95457180      10.28451106      14.38326874
Os      16.04249846      10.42077766      11.82109794
Os      11.65625652      15.57722953      13.26748175
Os      16.00716732      14.81454059      12.04732057
Os       7.53540197      14.77573314      11.76870139
Os       9.68375904      16.35208050      11.92033319
44
Properties=species:S:1:pos:R:3 config_type=qcd gap_pre_relax_energy=-408.71973835781006 gap_pred_energy=-409.8276518110741 gap_fmax_final=0.0007778177199788843 gap_converged=1 pbc="F F F"
Os       9.05322839      11.83050743      13.99901021
Os       8.25037062       9.96246160      12.42607796
Os       6.87318077      12.01615451      12.72533436
Os       7.96197197      11.66158291      10.48509715
Os       8.20120751       9.13338351       9.98554884
Os      10.21640440      13.76655488      15.70896875
Os      10.58661564       9.73488886      13.71098131
Os      10.41199125       8.91335644      11.16508964
Os      11.35105641      11.57993759      15.31662166
Os       8.73501288      13.52765726      12.09671437
Os      10.19591396      11.45349621      11.71083438
Os      12.82870659       8.77062728      12.47059595
Os      10.96690472      13.37575266      13.35794943
Os       9.98036737      13.25291091       9.80445364
Os      10.08877854      10.60685917       9.25505725
Os      12.87329591       9.48122491      14.92537960
Os      10.33097488       8.13467676       8.78289643
Os       9.73051539      15.54014877      13.67610283
Os      12.63610208      13.48062772      16.41125496
Os      15.05021288       8.87579197      13.77608221
Os      12.64586785      11.28673916      13.08725572
Os      10.80617149      15.23348700      11.36852921
Os      13.58586165      11.23695484      16.59172295
Os      12.04023951      15.28465237      14.76250032
Os      12.42766454      10.50092966      10.49758788
Os      11.52988650      17.09709060      12.91146151
Os      14.82700699      11.46817294      14.44127129
Os      11.98694578      14.82150083       9.03107555
Os      12.15209755      12.27424507       8.54008019
Os      12.26284333       9.67667558       8.11362445
Os      12.37174125      13.17240752      10.99267778
Os      12.57356152       8.00949500      10.00959579
Os      15.42048768      12.82978300      16.46819475
Os      14.29450428      13.96334305      14.67597351
Os      14.73238933      10.43344781      11.87211769
Os      14.56618293      13.00077148      12.43026339
Os      13.13149380      15.16622090      12.50828716
Os      14.41011764      12.14412621       9.74237198
Os      12.69334506      16.70746045      10.58769214
Os      14.18366919      11.22513458       7.43607256
Os      14.02898230      13.79941690       7.86617241
Os      14.50956080       9.56529746       9.39550944
Os      14.85699395       7.94515265      11.31223789
Os      14.28146888      14.70078946      10.20956935
45
Properties=species:S:1:pos:R:3 config_type=qcd gap_pre_relax_energy=-417.82138243540254 gap_pred_energy=-419.14005531402313 gap_fmax_final=0.0008006622391655807 gap_converged=1 pbc="F F F"
Os       8.56332326      10.50530948      14.73870951
Os       8.97757971       8.51280421      12.98175545
Os      10.56290908      11.85273047      15.55067299
Os       8.73235525      12.93681610      13.98521535
Os       9.11024688      10.93256587      12.31653813
Os      10.86679395       9.85626011      13.94997945
Os      11.34138385       7.89919223      12.11562968
Os      12.42339456      12.53869873      17.21653539
Os       9.65578158       8.91850668      10.53939065
Os      10.64249117      14.46669091      14.92849710
Os      10.98900584      15.07753672      12.42157393
Os      12.99370256      10.71320450      15.17166151
Os      10.96555647      12.56423026      13.07725730
Os       9.28929399      13.46292200      11.39473498
Os      13.40540395       9.19921135      13.20294974
Os      11.46022601       7.38357741       9.67427416
Os      11.54654737      10.41575059      11.50005211
Os      14.21573877      13.96019895      18.11699498
Os      12.34735622      14.98272155      16.78269446
Os      12.68182851      15.88250274      14.19364875
Os       9.82686363      11.47372163       9.75290498
Os      12.88707663      13.30041240      14.85339954
Os      14.62753002      14.88227003      15.80039031
Os      11.66185357      13.10874965      10.67829586
Os      12.99237309      16.68321951      11.72272539
Os      13.56644828      11.71096172      12.73019981
Os      11.63308135       9.77735958       9.06247323
Os      14.74440447      12.39194683      16.26081197
Os      11.49073451      15.60977535       9.93533643
Os      13.30732308       8.78534062      10.66103654
Os      15.35019291      10.64685614      14.23083345
Os      15.45153035      13.30498574      13.87904190
Os      15.17322022      15.90367893      13.41614860
Os       9.95116529      13.88814837       8.89813138
Os      15.29778708      10.26378351      11.70149867
Os      13.50310116      14.30393979      12.30451265
Os      17.03998765      14.45719560      12.37726629
Os      11.89781223      12.37830591       8.31795556
Os      13.64195641      16.56164736       9.23563073
Os      13.53341832      11.32567971      10.10140764
Os      15.21650748      15.50465783      10.90430012
Os      17.10322853      11.77422660      12.71953435
Os      12.06074145      14.76520925       7.65524479
Os      15.40193633      12.84753082      11.25937166
Os      13.64162933      14.06178864       9.45560493
46
Properties=species:S:1:pos:R:3 config_type=qcd gap_pre_relax_energy=-428.12171499901285 gap_pred_energy=-430.1863890682394 gap_fmax_final=0.0009596174303545211 gap_converged=1 pbc="F F F"
Os      16.08039758      15.21083537      11.09565365
Os      16.16696810      15.32637296      13.74315664
Os      15.76168615      13.16291871      12.57849396
Os      15.23110733      12.73040854      10.10896991
Os      15.03252537      17.28322398      10.10923339
Os      14.35384927      15.07254928       9.22369231
Os      13.50963348      12.73582291       8.18537830
Os      14.31130461      10.50411122       9.10104178
Os      14.64997489      10.76464039      11.73162072
Os      12.73788518      10.65641487       7.10172157
Os      15.23560421      10.94823450      14.23635758
Os      13.66518609      14.35060867      11.53144529
Os      14.99771318      13.43631019      14.98611755
Os      14.40713263      16.55839268      12.49421604
Os      12.73189028      16.50509561      10.57019326
Os      12.71104802      11.94921805      10.49603209
Os      12.62579850       6.84236242      12.39055040
Os      11.84974861      14.22525406       9.63440982
Os      13.81176319       8.84636735      13.60463591
Os      13.32456082      12.43979957      13.24198697
Os      14.85957410       9.12517832      15.81714408
Os      11.12536835      11.97851927       8.52058836
Os      13.39619924       8.64713698      10.97015233
Os      11.89901846       9.71236178       9.22163808
Os      12.07279299      10.33574786      12.47895305
Os      13.94693825      11.42808678      16.30636378
Os      10.18257208      15.57888256      11.18256293
Os      13.76626777      15.58340702      14.75128229
Os      11.20106976      13.52280645      12.15740081
Os      10.84155150       8.40411603      11.35398942
Os      12.38395101       9.70344953      15.60062102
Os      10.22233041      10.98542485      10.77898528
Os      11.99311350      15.87738997      13.01889998
Os       9.48987321      13.33591429      10.20032464
Os      12.56739840      13.50477072      15.55390213
Os      10.91246855      11.83233335      14.30299978
Os       7.94191947      14.64296266      11.64410893
Os      11.29304777       8.28308719      13.85499253
Os       9.52912925       9.94410570      13.01836487
Os      11.28031704      11.65009785      16.77680496
Os       9.50666336      14.73729260      13.64502586
Os      11.24297396      15.57041465      15.33996599
Os       8.88179708      12.51072691      12.65405193
Os       9.82425311       9.92043586      15.55673401
Os       9.75566484      13.49668832      15.83755098
Os       8.32570536      11.77745757      14.92942122
47
Properties=species:S:1:pos:R:3 config_type=qcd gap_pre_relax_energy=-437.5553387615134 gap_pred_energy=-439.60382981804713 gap_fmax_final=0.0007683409300801381 gap_converged=1 pbc="F F F"
Os      13.19243590      10.42464138       8.89638309
Os      12.39654351      12.75690680       8.07564370
Os      14.87688520      10.17025226      10.84132657
Os      11.65600089      14.89501652       7.05955488
Os      10.26549632      13.76930646       8.80809833
Os      12.36409689       9.38409915      11.07442179
Os      16.94058725       9.84802845      12.39393343
Os      13.66251360      14.81308484       8.70079199
Os      14.33371795      12.46718707       9.87251595
Os      11.11545323      11.37152160       9.88569446
Os       9.09898292      12.72559709      11.12105407
Os      10.26133562      10.70946800      12.17550959
Os       9.76825369      15.14603048      10.89991529
Os      14.31196601       8.57784883      12.66441034
Os      11.54459968      15.95629799       9.29174108
Os      15.69722220      14.64582768      10.25688578
Os      16.43185044      12.18443352      11.28402492
Os      10.26280132      10.93391058      14.66954320
Os      12.68250394      11.66785467      12.04724235
Os       8.47286595      12.38120193      13.56484633
Os      12.18655475       9.55265611      13.65432820
Os      12.11631434      13.75590034      10.48928724
Os       7.72701671      14.45682333      12.37760745
Os      14.95673059      11.16714130      13.31913992
Os      11.54060058       9.28525354      16.08925794
Os      13.55642838      15.90040136      11.04584221
Os       8.26040431      14.40883235      14.94437822
Os      13.60446962       8.01821238      15.04983577
Os      14.34274029      13.68730789      12.17334373
Os       9.76263592      15.55193083      13.34846645
Os      10.81522481      13.13047935      13.02393662
Os      15.85464652       9.16683069      14.56958702
Os      11.28341905      16.94981544      11.72834042
Os      17.34682487      12.00180113      13.62808091
Os      11.72443698      11.87772715      16.55075144
Os      13.02821521      12.75845226      14.39595798
Os      12.33526528      15.29765223      13.24682571
Os      16.79928411      14.34236746      12.53410098
Os      13.65467108      10.47976035      15.58482517
Os      16.07848249      11.41012840      15.72899788
Os       9.33495355      12.58470702      16.26782474
Os      10.87591650      14.29953291      15.38470010
Os      14.83060018      15.83290965      13.36825983
Os      15.44847909      13.63396302      14.60526358
Os      12.07673843      14.17925367      17.50721755
Os      13.45374680      15.00213115      15.50864903
Os      14.06757306      12.83799943      16.69014285
48
Properties=species:S:1:pos:R:3 config_type=qcd gap_pre_relax_energy=-447.21330663748836 gap_pred_energy=-448.7154744626348 gap_fmax_final=0.0009041749408046644 gap_converged=1 pbc="F F F"
Os      14.17569669       8.95481145      11.45487624
Os      13.76207848      10.95781778       9.86516480
Os      16.33712330      12.03204316       9.82997399
Os      14.46488551       7.08960431      13.33903998
Os      11.92207087      12.87980180       9.10619603
Os      15.37414642      11.18345477      11.88462137
Os      14.42884347      13.42160111       8.98157142
Os      11.96181223       9.09106367      10.15972238
Os      15.40268460       9.33358926      13.72181543
Os      12.25678588       7.98520801      12.66450231
Os      10.53382018      10.88478388       8.94147681
Os      12.77828581      14.85878398       7.76451287
Os      17.35397401      12.76409603      12.10773994
Os      15.76033690      14.32074940      10.98086676
Os      10.05853157       9.08154746      11.87276209
Os      13.47828762      13.13846552      11.30259298
Os      16.63202116      11.60197617      14.23401084
Os      14.37898038      12.69181846      13.70738560
Os      13.06041595      10.32380225      13.35804639
Os      13.31644997       8.52316724      14.99951781
Os       9.45406771       8.78828144       9.54288600
Os      13.66819807      15.57614898      10.13629567
Os      11.45645823      11.21267327      11.37587210
Os      14.51371528      10.92003766      15.53124328
Os      16.14921079      14.53080229      13.48800674
Os      15.66823073      13.44825824      15.75640201
Os       8.94222924      11.12648345      10.80391249
Os      14.61595122      16.16922634      12.44951641
Os      12.75176432      14.78800641      13.43255920
Os      10.94674866      13.89959634      11.53839836
Os      11.20601092      15.35610540       9.49717366
Os      14.44004438      15.65867454      15.11624470
Os       9.50197477      11.21169208      13.31563565
Os      10.85711513       9.29170413      14.42164083
Os      11.74188881      12.49102170      13.71821403
Os      11.95266335      10.99721365      15.84778824
Os      13.05608059      13.45288480      15.78029849
Os       9.40833242      13.32107184       9.62911684
Os      11.88856824      16.46870172      11.72265430
Os      12.75016515      17.29812282      14.03890263
Os       8.54008721      13.31937541      12.02518572
Os      11.69759653      15.60167264      15.59469662
Os       8.33379284      12.95120875      14.63342291
Os       9.40841372      15.81734209      11.59152372
Os      10.52392270      13.09718022      15.91659099
Os       9.39644368      10.88543571      15.80594924
Os       9.94920688      14.66038978      13.89486728
Os      10.25936601      17.05798118      13.63408446
49
Properties=species:S:1:pos:R:3 config_type=qcd gap_pre_relax_energy=-458.7643783485156 gap_pred_energy=-459.8618140944459 gap_fmax_final=0.0009768433841345291 gap_converged=1 pbc="F F F"
Os      15.66340994      14.99716930      11.53828908
Os      16.60267016      12.45070567      11.79858339
Os      16.54656336      11.26597096       9.53594321
Os      14.79051720      17.36891810      11.25610421
Os      15.97933880      11.09479165      14.02686150
Os      14.87480003      13.10924998       9.90022187
Os      15.87380224       9.98035655      11.66506471
Os      15.18438126      13.57609651      13.65257548
Os      13.98460350      15.54712791       9.77688224
Os      14.18103680      16.06780111      13.26265505
Os      14.74423013      12.58106327      15.98346362
Os      15.01676110       8.66282176      13.71186078
Os      14.76591364      11.92775884       7.72031227
Os      14.09000017      10.66323997       9.79263168
Os      13.73518247      14.83897763      15.53059228
Os      14.12402578      11.64387409      12.24260919
Os      13.15645402      13.82138567       8.00880622
Os      12.01897723      12.02856982      10.79229567
Os      13.27033153      14.09680033      11.84207724
Os      12.45769497      16.47390370      11.51980674
Os      13.73211934      10.36884282      14.96474648
Os      13.41752771      13.91296566      17.75077944
Os      13.48673778       9.01716028      11.77548440
Os      12.78632227      12.78520996      14.33393879
Os      11.59253778      14.57808161       9.83406968
Os      12.14853954      11.56625861       8.24185629
Os      10.45093838      13.34922019       7.99094661
Os      12.51591435      11.85857944      16.81876493
Os      11.62040638       9.58459770       9.77545991
Os       9.64226334      10.72874571      11.13684887
Os      11.84857344      10.59869884      13.00050496
Os      12.41913319       8.33516814      14.03845044
Os       9.76080668      11.01302637       8.65706372
Os      11.38853705      14.03180001      16.12644451
Os      11.76865747      15.21174027      13.82890989
Os      10.55265219      12.88078899      12.83083942
Os      10.07209238      15.25556346      11.85534703
Os       9.48804324      13.10838712      10.32222068
Os      11.65060874       9.48225628      16.19748557
Os      10.77648021       8.45507712      11.91451529
Os       9.32155804       8.57451259       9.87012183
Os      10.56479031      11.48973329      15.14013485
Os       7.38645242      11.92575509      11.34958288
Os       9.15519265      13.59427542      14.95660610
Os       9.98080451       9.23735736      14.22081505
Os       8.22743206      13.81143438      12.62209531
Os       9.49711107      15.84274945      14.21993253
Os       8.49316532      11.29311500      13.45832490
Os       8.31778206       9.03619025      12.33394744
50
Properties=species:S:1:pos:R:3 config_type=qcd gap_pre_relax_energy=-468.28505220044406 gap_pred_energy=-468.7577531019281 gap_fmax_final=0.0008178375780508398 gap_converged=1 pbc="F F F"
Os      12.70226990      13.62288162      11.55665450
Os      12.70018066      16.20268102      11.64267375
Os      10.01298710      13.59220220      11.54427143
Os       7.44761844      13.41886623      11.44031222
Os      10.06225684      16.15503730      11.52940272
Os      10.01457105      10.82038843      11.54184292
Os       7.50759862      10.79809239      11.40720081
Os       9.99076575       8.31436709      11.48769118
Os      12.70218682      10.79118816      11.55676575
Os      12.61972071       8.21142200      11.58166303
Os      11.21701491      12.20717601      13.50788035
Os       8.65078033      12.17493412      13.38533354
Os      11.21790388      15.03652936      13.50689956
Os      11.21766773       9.37776222      13.50684067
Os       8.64869050      14.82032375      13.25151221
Os       8.68163183       9.57526888      13.34288702
Os      11.46762353      12.20872479       9.63339544
Os      14.18589573      12.20696138       9.60766846
Os       8.76582037      12.20715078       9.58786376
Os      11.44249108      14.90052737       9.71762398
Os      11.47619222       9.54579364       9.67328644
Os      14.03641963      14.85226984       9.72053336
Os       8.77626322      14.82555968       9.74071562
Os       8.87656338       9.63340194       9.56259164
Os      14.11651554       9.56157998       9.78183981
Os       9.84484793      13.55739293      15.22744082
Os       9.92492315      10.85693112      15.28839102
Os      12.73221108      13.48646584       7.88628512
Os      10.14779935      13.56939359       7.89295217
Os      10.25464421      10.99808173       7.79857467
Os      12.82328750      10.89101823       7.90206583
Os      12.01863456      12.23950624      15.94878621
Os      13.43210516      13.59390871      14.14310377
Os      13.43014233      10.82208120      14.14553885
Os      14.88506819      12.20530392      12.23445758
Os      14.84429057      14.86831052      12.23657491
Os      14.81036845       9.51352467      12.28121285
Os      12.14812942       9.59401709      15.91531995
Os      13.43153518       8.25923955      14.09420399
Os      12.05124981      14.83925348      15.90757155
Os      13.49083028      16.09993868      14.15170139
Os      16.23199452      10.92727902      10.55028831
Os      16.19275263      13.52284144      10.46662070
Os      14.22973924      13.61655604      16.52363526
Os      14.21369300      10.99579725      16.59056213
Os      15.64832435      12.20716883      14.82657431
Os      15.64306884      14.78102864      14.71279301
Os      15.49807831       9.58884315      14.85743151
Os      16.91395816      10.84468307      13.04333566
Os      16.97653697      13.41618789      12.91507120
51
Properties=species:S:1:pos:R:3 config_type=qcd gap_pre_relax_energy=-476.1966710803523 gap_pred_energy=-479.15462894458 gap_fmax_final=0.0009210248191662625 gap_converged=1 pbc="F F F"
Os       9.26500439      11.37820272      16.11339614
Os       8.89940158      13.61014141      15.10369375
Os      11.80908467      10.73429195      15.73364558
Os       8.90241818      15.13175089      13.08165471
Os       8.38694055      10.37001839      14.06657248
Os      11.31009759      13.25931672      16.03493306
Os       7.93774428      13.87282722      10.77470087
Os      14.36190757      10.32522581      15.23173543
Os       8.07731036      12.54109002      12.94796554
Os      13.23775007      14.81539709      15.86181012
Os      10.66166646      15.44345842      14.80683365
Os      10.92851818       9.41132210      13.73629173
Os      12.79970381       8.47489195      15.38464583
Os      10.40158204      11.93774013      13.92753821
Os      13.60394002      12.35173009      16.59578693
Os      10.66225676      16.88123759      12.74359888
Os      10.31803877      13.49322710      11.70894856
Os      15.40398928       8.52104212      13.50633837
Os       7.57142344      11.14912464      11.00144491
Os      12.94619274      11.12277923      13.28621632
Os       9.76444661      15.67585444      10.58459426
Os      12.95254663      16.25282537      13.80841917
Os      12.33337740      13.81716052      13.64682581
Os       9.07467414      14.37873560       8.45969729
Os       8.93008530       9.41203211      11.86245315
Os      15.29474101      15.39875497      14.67728301
Os      10.93410071      10.93900340      11.52412143
Os      12.91557974      12.73932736      11.27956142
Os      12.16764333      15.38264549      11.48332567
Os      15.60052286      10.95179780      13.07968441
Os      14.69228977      12.91874211      14.39562171
Os       9.27874544      12.12047106       9.55829058
Os      13.30595316      10.05253858      10.88266420
Os      11.40377401      14.14590930       9.32585988
Os      13.09938298       8.34903798      12.96005020
Os       9.88195896       9.68839083       9.45926456
Os      11.32999767       8.36571129      11.12352702
Os      14.54223810      14.65535982      12.50172522
Os      11.77192082      11.47590185       9.06195802
Os      10.54278892      12.62473012       7.19810414
Os      15.93299427      10.27468953      10.72563267
Os      15.54163945      12.76655465      11.30985465
Os      12.13322013       8.79660600       8.78136261
Os      14.02329342      14.29841868       9.70042613
Os      16.08568577       8.01189469      11.38036315
Os      10.72605594      10.14983068       7.06022377
Os      13.03122211      13.19253116       7.60334734
Os      13.19427355      10.59903788       7.20925150
Os      13.87955358       7.58698191      10.60389858
Os      14.44432651      11.83539858       9.22975784
Os      14.63748951       9.24980314       8.80659207
52
Properties=species:S:1:pos:R:3 config_type=qcd gap_pre_relax_energy=-487.1030524518026 gap_pred_energy=-489.2063973811047 gap_fmax_final=0.0009375890064786227 gap_converged=1 pbc="F F F"
Os      14.48804261      15.62793827      15.33292535
Os      15.98692585      14.80044311      13.15864415
Os      12.34608612      16.82642849      14.95083568
Os      12.98848212      16.32430332      17.27648607
Os      12.65365141      16.58791776      10.43182429
Os      11.68242442      17.63197570      12.60928066
Os      16.45453502      12.26130971      13.03549826
Os      17.07358933      13.72068022      11.07665165
Os      13.65238509      16.03679104      12.70565123
Os      14.98373286      15.16004569      10.75481083
Os      14.97216015      13.15828530      14.87566773
Os      14.95151550      12.73579675       9.96109821
Os      16.89703761      11.15176382      10.76728012
Os      12.55284703      14.28278164      14.33290545
Os      16.49816747       9.63446675      12.73911285
Os      14.09116905      13.41723204      12.43029880
Os      12.88323797      14.30176344       9.36238906
Os      11.02536602      15.70791595       8.55599534
Os      11.06939597      15.06201579      16.18100366
Os      13.25068666      13.96194378      16.79661779
Os      10.40480540      15.74299138      13.69221442
Os      10.19329133      16.29293497      10.99229271
Os      15.44797925      10.56611658      14.96058453
Os      15.14466830      10.23098823       9.23610551
Os      11.60583339      14.39902920      11.71618509
Os      14.52018013      10.83584255      11.69779864
Os       9.01951735      14.08431614      12.25480122
Os      13.89833149       8.81228093      16.02982576
Os      13.15260084      11.50622973      14.13053590
Os       9.56789959      14.12622017       9.80318330
Os      13.62018118      11.27266013      16.52149736
Os      14.92987481       8.42893404      11.06935366
Os      13.01980974      11.75350269       8.38094740
Os      12.46963933      12.13601181      10.80044813
Os      11.30684811      12.44792254      15.75836480
Os      11.84139054       9.98498252      12.42222042
Os       9.26345491      13.55333927      14.73099140
Os      10.93100994      12.36327726      13.13341639
Os      11.05823230      13.19228585       8.04713462
Os      14.10405904       8.95097961      13.51580056
Os      11.90276319       7.98197069      14.22161025
Os       7.83925462      12.48321722      10.72714867
Os      12.78392926       9.54627590      10.02371984
Os       9.48660739      10.91853216      14.61177541
Os       7.58681716      12.32442436      13.33889859
Os      11.66305527       9.91422455      15.67141152
Os      10.02422165      11.57701149       9.71231540
Os      12.52221690       7.69264819      11.72362402
Os      11.19211671      10.11499544       8.24489640
Os      10.38700359       9.10716732      10.59464313
Os       9.15403630      10.86698692      12.02110449
Os       9.81749908       8.76046790      13.24073960
53
Properties=species:S:1:pos:R:3 config_type=qcd gap_pre_relax_energy=-497.59627595548676 gap_pred_energy=-499.0834413840488 gap_fmax_final=0.0009386118626990405 gap_converged=1 pbc="F F F"
Os      13.06764791       8.22346354      13.11252792
Os      10.79849682       8.05354196      12.18987212
Os      11.28383499       7.66311997      14.71550560
Os      13.70333381      10.00176701      11.24616860
Os      15.15063624       9.82915395      13.30271885
Os      13.83341894       9.25565544      15.42935014
Os      15.66962717      11.02600886      15.56051800
Os      12.54967151      10.57857111      13.66456059
Os      16.96229059      12.34434648      13.65993408
Os      15.56682944      10.28564527       9.82867393
Os      16.99475904      10.53873136      11.92265235
Os      11.22004523      10.39561417      11.38444489
Os      10.13257120       9.75376982      13.79123625
Os      17.74256541      12.51723197      15.99716753
Os      14.62171414      12.40205258       8.87144528
Os      15.49447913      12.38666759      11.17991221
Os      16.70939414      14.48873872      12.20154212
Os      11.39521529       9.77520085      15.91933964
Os      18.53213453      14.18725368      14.01893201
Os      14.27636389      12.31153128      13.49843335
Os      13.29226288      11.78697466      16.00703238
Os      12.54915622      11.23605177       9.38257626
Os      15.38320127      13.21744230      16.71546373
Os      15.29682833      14.43426215      14.51472190
Os      10.45169470      12.51041047      10.25990093
Os       9.42465725      11.99562076      12.54871967
Os      11.17679712      12.17319870      17.27741935
Os      11.84264035      12.86943339      12.33960833
Os      17.23204387      14.94609889      15.99460443
Os      12.74444809      13.70295662       9.99086639
Os      13.99942278      14.47351175      12.19249298
Os      10.74824841      12.16548356      14.79315784
Os      12.92067258      14.01893149      17.09972522
Os      14.81599897      15.93362987      16.53637271
Os      17.09553822      16.32948126      13.81794365
Os      12.61749334      14.14703931      14.48968621
Os      15.14121595      14.63357416       9.98451195
Os       8.54047559      13.91478784      11.35439858
Os      13.81917588      16.54043929      14.09632447
Os      10.62280204      14.36390947      16.06269988
Os      10.75366961      14.93255550      11.00228029
Os       9.98953777      14.42899422      13.40487576
Os      15.37026648      16.69194126      11.85367629
Os      11.65970883      16.35797670      12.79424843
Os      16.57022551      17.54052656      15.94890831
Os      12.25594235      16.27360092      16.16087253
Os      13.12000933      16.26474530      10.62599092
Os      10.14484352      16.58793784      14.83208055
Os      13.42829252      18.28793650      12.34156988
Os      14.09958809      18.37502913      15.87998159
Os      15.52053574      18.42562870      13.78580067
Os      12.02865453      18.37411116      14.44013508
Os      13.71784677      20.12663719      14.05534170
54
Properties=species:S:1:pos:R:3 config_type=qcd gap_pre_relax_energy=-510.13291120722425 gap_pred_energy=-510.9064653708344 gap_fmax_final=0.0008640914003785017 gap_converged=1 pbc="F F F"
Os      15.82137901      11.19461248      13.20740620
Os      14.38653759      12.97436937      11.90117460
Os      14.18702584      12.61858398      17.19026129
Os       8.52506411      13.44648752      11.41223671
Os      15.37995547      14.58503004      16.21768769
Os      15.70367140      11.07036948      15.86426225
Os      12.94468184      14.81709735      13.39379366
Os      13.11267999      10.71200957      15.86449362
Os      11.44980408      16.40187023      14.86007930
Os      17.03949736      13.16212872      12.05313982
Os       9.58738250      11.77064429      15.43658582
Os      11.13118571      10.02311039      14.29930437
Os      10.34577117      14.71957414      13.12985534
Os      13.13688135      14.00910088       9.74292841
Os      16.95659077      15.65862446      11.49179700
Os      10.01349039      11.63312854      10.25584002
Os      13.24783260      10.96050181      10.46850851
Os      10.48526850      14.02064239       9.73579349
Os      14.38415276      12.86156326      14.63392961
Os      15.73661661      13.90460395      10.00693737
Os      11.88423314      12.21626528       8.45702226
Os      11.81734912      13.03599287      11.70862505
Os      10.09183851      14.32368032      15.68147753
Os       8.25341190      13.58539006      13.93494100
Os      14.87972775       9.28758268      11.77317532
Os      15.78522417      15.09294650      13.71766398
Os      16.94682517      13.06587860      14.88900900
Os      14.05527238      16.57003448      14.99087240
Os       9.74525096      11.75295156      12.78552339
Os      15.42404744      17.41100723      12.90623466
Os       8.63247942      16.11318782      14.36489571
Os      14.42607055      15.66000110      11.43779710
Os      18.26030362      14.69580380      13.46449881
Os      12.74520343      14.48056696      15.97386755
Os       9.09295524      15.82022137      11.09430849
Os      14.40645440      12.09475861       8.48647440
Os      11.47780420      12.46706111      16.99645131
Os      12.90882196      17.30391928      12.88427031
Os      14.70118629       9.14193334      14.36009535
Os      11.19812160       9.84485932      11.61307075
Os      15.84371206      11.32184946      10.50396648
Os      11.77348076      15.64693361      11.19371406
Os      10.25973439      17.25548633      12.79191644
Os      11.66208790      12.67519021      14.37732235
Os      13.22005120      10.87642658      13.03514024
Os      14.69970575       9.57943773       8.92818042
Os      10.87005148      10.00861747      16.78825042
Os      11.44865552       9.84195207       8.96072534
Os      12.94570146       8.39357246      10.40013490
Os      12.54728331       8.31655861      15.54995535
Os      12.75016515       8.36426304      13.01636906
Os      13.14781716      10.32181863       7.16961436
Os       7.13852164      15.40454241      12.56000547
Os      16.69561652      12.79589087      17.34905025
55
Properties=species:S:1:pos:R:3 config_type=qcd gap_pre_relax_energy=-521.0318436872979 gap_pred_energy=-522.1443513617209 gap_fmax_final=0.0007157090423060129 gap_converged=1 pbc="F F F"
Os      13.31985947      13.64397964      13.15594478
Os       9.05107000       9.60651082      12.21619063
Os      13.25824231       9.57961211      15.45857791
Os       8.95006364      13.51907014      14.53235772
Os      13.43111283      12.24536207      10.82598651
Os      13.19068185      12.25185444      15.53974528
Os      13.27562840      16.15620019      13.14466573
Os      13.37835378      14.91726278      10.90809915
Os      15.29881466      16.14833682      14.68626014
Os      13.32668428      10.85322253      13.16013653
Os      13.39142219       9.57349354      10.91612558
Os      10.94613274      13.50239987      16.13156928
Os       8.95632010      10.96089004      14.53620014
Os      15.49196634      13.52833971      10.18721447
Os       8.87582092      12.24300790      16.67611791
Os      13.29474197       8.34079302      13.15640449
Os      15.49822157      10.97056649      10.19105640
Os      15.36767470      10.87393944      14.79884937
Os      11.01335407      12.24404425      13.88557818
Os       9.06767714      13.61727577       9.91766727
Os      15.31785438       8.36318402      14.69795347
Os      11.06079214      14.90441857      13.81436424
Os       9.07444580      10.84939781       9.92182443
Os      13.24517113      14.92413922      15.45055085
Os      11.07380469       9.58373185      13.82235549
Os      11.23027241      12.23753848       9.20155684
Os      15.36091480      13.63816902      14.79469753
Os      15.47266100      12.25274146      12.41482694
Os      15.56215093      12.24632276       7.99616230
Os       9.20706988      12.23032275       7.69156286
Os      15.39789753      14.87791538      12.49160241
Os      11.17798050      14.90124158       9.25049243
Os       9.20385377      14.79815139       7.70816937
Os      15.41073792       9.62747588      12.49948863
Os       9.12227743      16.12466447      10.01068284
Os       9.21641285       9.66257048       7.71588317
Os      11.12273604      13.63940041      11.54469617
Os      11.19100892       9.57377109       9.25849415
Os      11.32056610      13.51550271       7.02519751
Os      11.14812963      16.14634002      11.54612109
Os       9.14130931       8.34259698      10.02237170
Os      11.32683137      10.95349943       7.02904564
Os      11.12957614      10.84221366      11.54889735
Os      13.46745127      13.52068298       8.53324710
Os      13.45329103      12.23873605       6.37927156
Os      11.16723217       8.33544407      11.55785313
Os      13.47370530      10.96335111       8.53708833
Os      15.23364713      12.25907999      17.02375351
Os       8.97727130      12.23666601      12.28861272
Os      10.95227231      10.99212790      16.13533957
Os      15.24414326      14.83636534      16.98776319
Os       9.03820504      14.86692077      12.20828946
Os      13.14183098      13.59580134      17.65999534
Os      15.25674977       9.68178045      16.99550485
Os      13.14838983      10.91406000      17.66402338
