3
Properties=species:S:1:pos:R:3 config_type=qcd gap_pre_relax_energy=-22.80483996250624 gap_pred_energy=-23.227423075670902 gap_fmax_final=0.0005021865574411285 gap_converged=1 pbc="F F F"
Re       6.06700446       6.30763492       7.09074400
Re       6.92442709       8.36885397       7.09074400
Re       8.28080044       6.59574310       7.09074400
4
Properties=species:S:1:pos:R:3 config_type=qcd gap_pre_relax_energy=-32.39791964728488 gap_pred_energy=-33.27387761270164 gap_fmax_final=0.0002307354802028343 gap_converged=1 pbc="F F F"
Re      16.01616840      14.97896228      16.01254548
Re      15.61587646      15.05839476      13.70555601
Re      14.16473366      16.15174696      15.18455036
Re      14.20322149      13.81089601      15.09734815
5
Properties=species:S:1:pos:R:3 config_type=qcd gap_pre_relax_energy=-42.64355223919367 gap_pred_energy=-43.08220599195673 gap_fmax_final=0.0006086314502141365 gap_converged=1 pbc="F F F"
Re       7.25774587       8.26195336       6.21596597
Re       8.44016393       8.14957162       8.35577379
Re       6.14645667       7.90976815       8.36795329
Re       6.32606669       6.11475193       6.93123420
Re       8.61983934       6.35422744       6.91934525
6
Properties=species:S:1:pos:R:3 config_type=qcd gap_pre_relax_energy=-54.0012149495388 gap_pred_energy=-54.011911113122004 gap_fmax_final=0.0009044070493394161 gap_converged=1 pbc="F F F"
Re      13.86993265      15.55408660      16.17006338
Re      15.99979204      16.36020542      15.32147170
Re      14.17741232      15.89215091      13.78321154
Re      16.13008467      14.44593854      13.82990777
Re      14.00020738      13.63976661      14.67854071
Re      15.82257095      14.10785191      16.21680491
7
Properties=species:S:1:pos:R:3 config_type=qcd gap_pre_relax_energy=-63.11682370111262 gap_pred_energy=-63.254370436421695 gap_fmax_final=0.0004546983334161607 gap_converged=1 pbc="F F F"
Re      14.61913647      16.83519611      14.79324035
Re      16.75780691      15.79679822      14.67758107
Re      15.61642964      15.41956043      16.73196084
Re      13.28154921      14.82514390      15.75642353
Re      15.06986609      13.26028316      15.89269179
Re      13.81135163      15.04658074      13.44648300
Re      15.84386005      13.81643744      13.70161942
7
Properties=species:S:1:pos:R:3 config_type=qcd gap_pre_relax_energy=-62.6651649569841 gap_pred_energy=-62.97796805958265 gap_fmax_final=0.0008629600134647395 gap_converged=1 pbc="F F F"
Re       9.13254975       9.53320027       9.47074096
Re       8.58982041       7.21853706       9.97999505
Re       8.16067672       6.69256177       7.60101089
Re       8.67020287       8.96594056       6.90588468
Re       7.45729804      10.58823573       8.15253155
Re       6.83600271       8.37314734       8.75468264
Re      10.28618050       7.76110828       8.26788523
8
Properties=species:S:1:pos:R:3 config_type=qcd gap_pre_relax_energy=-72.99931148949264 gap_pred_energy=-74.446005014932 gap_fmax_final=0.0008287896613865061 gap_converged=1 pbc="F F F"
Re      11.35150184       8.60317084       9.24955445
Re      10.57522348       9.76418031      11.20906915
Re       8.48123995       8.58596998      11.07759512
Re       9.25753364       7.42498869       9.11808861
Re      10.45546919      10.35072600       7.85917953
Re       9.67916802      11.51178650       9.81859293
Re       8.36149864       9.17256490       7.72765473
Re       7.58527353      10.33352106       9.68717378
8
Properties=species:S:1:pos:R:3 config_type=qcd gap_pre_relax_energy=-71.66459850889092 gap_pred_energy=-74.44600504351324 gap_fmax_final=0.0006597731489885391 gap_converged=1 pbc="F F F"
Re       6.96236524       7.44275752       9.72061540
Re       9.11320442       8.63279773       6.35494267
Re       8.25220045      10.11055468       8.04757158
Re       7.82336325       5.96499506       8.02799025
Re       7.01620669       7.45322898       6.31810773
Re       6.15521884       8.93100848       8.01071254
Re       9.05935200       8.62233812       9.75746390
Re       9.92032110       7.14455143       8.06482792
9
Properties=species:S:1:pos:R:3 config_type=qcd gap_pre_relax_energy=-81.9816628582371 gap_pred_energy=-82.74453639538004 gap_fmax_final=0.0009586215340944807 gap_converged=1 pbc="F F F"
Re      11.11841578       7.62792962       8.69487328
Re       9.47138888       9.47568566       8.70104557
Re       9.21574217       7.03043405       7.49138921
Re       7.63455216      11.10906196       8.99267002
Re       8.88236930       9.08388526       6.38976154
Re       7.67160087       7.61924679       9.34699566
Re       6.93122995       9.31318760       7.68664158
Re       7.97609229       9.63197426      10.77683914
Re       9.79977460       7.80976080      10.62095000
9
Properties=species:S:1:pos:R:3 config_type=qcd gap_pre_relax_energy=-82.68985341927674 gap_pred_energy=-82.84115508883433 gap_fmax_final=0.0008108166729606901 gap_converged=1 pbc="F F F"
Re      12.20437223       9.04514560      10.88664937
Re      11.82059390      11.46026450      10.92788866
Re      11.66239996      10.24414548       8.85429118
Re       9.50998413      11.06948301       9.86298893
Re       9.19260912       9.62468871       7.76114489
Re       9.94967886       8.56970404       9.83844090
Re      10.26044496       9.96720832      11.99671061
Re       7.83833040       9.35609253      10.80029486
Re       7.32047933      10.42216070       8.83048350
10
Properties=species:S:1:pos:R:3 config_type=qcd gap_pre_relax_energy=-92.68305871996235 gap_pred_energy=-93.33126795343665 gap_fmax_final=0.0009918241512302324 gap_converged=1 pbc="F F F"
Re      16.03537983      15.68833267      13.84063647
Re      16.35318202      16.50945412      16.19538969
Re      14.08020658      16.92095414      16.52953775
Re      13.86420316      16.90203245      14.20567803
Re      14.40211516      13.99262503      12.95886358
Re      16.42673442      14.36154535      17.10541074
Re      12.56777263      14.97007478      14.02047774
Re      14.46505261      14.64435621      15.59889037
Re      16.89115162      13.60015007      14.94862312
Re      14.91420197      12.41047519      14.59649253
10
Properties=species:S:1:pos:R:3 config_type=qcd gap_pre_relax_energy=-93.8447896869563 gap_pred_energy=-93.8975561295141 gap_fmax_final=0.0007549021996662236 gap_converged=1 pbc="F F F"
Re      11.55864792       8.89405192      10.04129935
Re      11.16940123      10.56784318       8.26162169
Re      10.78962803       8.23883810       7.87359788
Re       9.82362570      10.52816659      10.23827720
Re       9.12324769       8.10857231       9.80699107
Re       7.07407642       9.62480571       9.99004147
Re       8.74034365       9.75501869       8.05662298
Re       8.04002501       7.33547572       7.62531242
Re       6.30492875       8.96958820       7.82242203
Re       6.69418059       7.29574458       9.60191892
11
Properties=species:S:1:pos:R:3 config_type=qcd gap_pre_relax_energy=-103.14114044351919 gap_pred_energy=-103.7395902221742 gap_fmax_final=0.0008083003131902784 gap_converged=1 pbc="F F F"
Re      10.07351289      11.13246527      11.22628793
Re       8.84428512      10.05988272       8.95071298
Re      10.34950376      12.08275162       9.16090483
Re      11.43600583      10.01674491       8.67748298
Re      11.48387193       7.51413173       8.43998832
Re       8.98749316       7.46615402       8.73783297
Re      10.14062204       8.76902570       6.99052623
Re      10.32112286       8.67805131      10.46895320
Re       7.76973498      11.13522761      10.99410604
Re       7.87704663       8.84012850      11.28075172
Re       6.89032134       8.47895718       9.24597334
11
Properties=species:S:1:pos:R:3 config_type=qcd gap_pre_relax_energy=-103.4850657238586 gap_pred_energy=-103.73613633052679 gap_fmax_final=0.0006653942499426948 gap_converged=1 pbc="F F F"
Re       8.34287800      10.98654806       9.29741283
Re       9.74458502       8.87790928       9.27084308
Re      10.56867019      11.13345439       8.36516468
Re      10.05775330       9.23757130       6.85547369
Re       8.71049546      11.31452063       6.93029853
Re       9.11302960       6.71087774       7.76060231
Re       9.37935016       6.48324429      10.07936043
Re       7.41447204       8.30267598      10.16012730
Re       7.76784034       9.07076559       7.74447278
Re       6.78974701       6.73562273       8.07762717
Re       7.02838166       6.06401279      10.37581999
12
Properties=species:S:1:pos:R:3 config_type=qcd gap_pre_relax_energy=-113.0879859815574 gap_pred_energy=-113.70035398631892 gap_fmax_final=0.0009598839691314232 gap_converged=1 pbc="F F F"
Re       8.25364373       8.25347755       6.87664580
Re      10.71808029       8.81993060       6.48169238
Re       9.77312963       9.16319928       8.79223174
Re       7.35581762       9.56188410      11.41101963
Re       8.37522797       6.43931342      10.73120466
Re      10.07965890       6.67983433       6.27364973
Re       9.40323442       6.70724492       8.61800784
Re       8.66351591      10.68378692       6.99217537
Re       6.48322573       9.98690702       7.60553292
Re       7.91896228      10.77102565       9.41930672
Re       9.36896374       8.46366205      11.23879507
Re       7.38649379       8.24968818       9.33969216
12
Properties=species:S:1:pos:R:3 config_type=qcd gap_pre_relax_energy=-113.49464868823326 gap_pred_energy=-114.32744106736145 gap_fmax_final=0.0005093317004155853 gap_converged=1 pbc="F F F"
Re       9.53960838       8.04777219      10.71473154
Re      11.42742639      11.05095513      10.81954608
Re       8.54794748       9.66325978       9.03454796
Re       9.51085603       7.56629675       7.96519101
Re      10.26067909      11.49584559       8.55164794
Re      11.13902291       9.15968781       9.09556708
Re      10.55475368      13.19547491      10.09319986
Re       9.89160138       9.38433600       6.79592177
Re      11.81774846       8.64549131      11.47450356
Re       8.91076507      11.54008057      10.76034039
Re       7.61894075       9.46156879      11.37549782
Re       9.85264794       9.86122875      12.39130258
13
Properties=species:S:1:pos:R:3 config_type=qcd gap_pre_relax_energy=-124.89779597281641 gap_pred_energy=-125.26621384656582 gap_fmax_final=0.000651624773574046 gap_converged=1 pbc="F F F"
Re       7.50912724      11.12459517       9.02610785
Re       7.78558773       8.49839362       9.28911902
Re      10.00710901       7.46624803       8.50945057
Re       6.68404016       6.88322808       7.49450630
Re       9.60364800       7.53848898      10.96726083
Re       9.30300351       9.91645335      10.94121884
Re       8.39976644       8.54860634       6.79350471
Re       8.12779914      11.11571251       6.72584972
Re       8.17246916       5.88096299       9.08378858
Re       9.68228466      10.03396060       8.48135270
Re       6.32144900       9.74906428       7.46302817
Re       8.77582384       5.99379776       6.78212890
Re      11.33385663       8.95645279      10.14864832
13
Properties=species:S:1:pos:R:3 config_type=qcd gap_pre_relax_energy=-124.77845740750966 gap_pred_energy=-124.98919707153232 gap_fmax_final=0.0009619196831945588 gap_converged=1 pbc="F F F"
Re      15.09639578      16.03603697      13.08175400
Re      15.92065754      13.69345522      12.45897731
Re      14.07559004      17.96252842      14.11324551
Re      13.03444898      15.82939457      14.53943217
Re      13.53621829      14.05511702      12.79597234
Re      16.47705409      14.70206194      14.74508384
Re      15.34103682      16.74690763      15.72911367
Re      14.87636100      12.77102376      14.50943067
Re      17.56630870      15.91950578      16.76582551
Re      12.49494266      13.35005767      14.88135772
Re      16.56047479      13.71430562      17.02497553
Re      14.32149473      14.48639019      16.26913515
Re      15.69901660      15.73321524      18.08569659
14
Properties=species:S:1:pos:R:3 config_type=qcd gap_pre_relax_energy=-135.1993282897992 gap_pred_energy=-135.68214729518118 gap_fmax_final=0.000580532723248901 gap_converged=1 pbc="F F F"
Re       8.38522817       8.78350019       7.69548750
Re      11.25830337       8.80765627       7.83378075
Re       5.80696344       8.88476529       8.10413771
Re      10.01480918      10.86399402       7.91858322
Re       7.02820855      10.97987075       8.09432560
Re       9.78073209       6.27260030       7.84568897
Re       7.37900980       6.34185838       7.93974063
Re       8.57555313      10.17151296       9.86892751
Re      11.10004312      10.20019165       9.92118116
Re       5.97220452      10.20110549      10.06148880
Re       9.86585723       7.93009689       9.75063967
Re       7.28012737       7.94908575       9.87930449
Re      10.00831731       7.82991065       6.09948389
Re       8.49951873       5.73872739       9.94210612
14
Properties=species:S:1:pos:R:3 config_type=qcd gap_pre_relax_energy=-134.49439559302178 gap_pred_energy=-135.09604505779555 gap_fmax_final=0.0008092533374421901 gap_converged=1 pbc="F F F"
Re      10.71180255       7.00235534       8.84611932
Re      10.27841624       9.19389701       8.07397677
Re       7.92281139       8.84072002       8.00696891
Re      11.22925806      10.92266795       9.76443322
Re      11.42422175       8.52922656      10.57701183
Re      10.08077243      12.08650070       7.88877994
Re      12.93065589      10.30969490      11.62707733
Re      11.35584307       9.42969034      13.00567519
Re       8.75838357       7.78461839       9.87561893
Re       9.98654238      13.18325265      10.07341971
Re      10.84580416      11.73053491      12.08915014
Re       9.39728684       9.80026835      11.40893567
Re       8.37742507      12.18109706      11.40558143
Re       8.54890993      10.85360915       9.20538492
15
Properties=species:S:1:pos:R:3 config_type=qcd gap_pre_relax_energy=-145.77296392150774 gap_pred_energy=-146.25163712737722 gap_fmax_final=0.0009443574640313908 gap_converged=1 pbc="F F F"
Re       8.89244260       9.79983841       9.98726957
Re      10.83058682       9.48341595      11.54228220
Re       8.51647911       7.75052794      11.37783336
Re      10.82939845       7.11299673      11.04592468
Re       6.45699415       9.10254324      10.09982455
Re       9.25015091       7.30832338       8.99678245
Re      11.26605601       8.81839219       9.13985049
Re       7.85058210      11.35810609       8.21815048
Re      12.23458562      10.91195780      10.11692911
Re      10.22408972      11.92401630      10.36737585
Re      10.30680426      10.93380770       8.08992250
Re       8.57987616      10.58394028       6.14228415
Re       7.58805073       8.89739025       7.89682377
Re       9.91199543       8.73377309       6.87038271
Re       6.89041294       6.90947564       9.73686912
15
Properties=species:S:1:pos:R:3 config_type=qcd gap_pre_relax_energy=-144.50918307387226 gap_pred_energy=-145.46757933445832 gap_fmax_final=0.0008545482988870291 gap_converged=1 pbc="F F F"
Re       9.76541509       8.79484090      11.48880304
Re       7.92604099       7.79759147      12.64314831
Re       7.32200380       9.73955574      11.49085095
Re       7.92385586       7.50043783      10.27194780
Re       7.37226475       9.56257267       8.86974358
Re       9.24332085      10.87772463      10.10631885
Re      11.70885105      10.22388103       9.81081277
Re      11.49594588       7.81349984      10.17485663
Re       9.89586530       8.81177538       8.58295434
Re       9.27725982       9.24652035       6.13474661
Re       7.96218705       7.59050203       7.33482352
Re       9.47552771       6.39349229       8.83984706
Re       7.87401125      10.94798284       6.88315689
Re       9.57693924      12.14464243       8.00852529
Re      11.27763638      10.65210557       7.45658937
16
Properties=species:S:1:pos:R:3 config_type=qcd gap_pre_relax_energy=-155.32579191046673 gap_pred_energy=-156.67431245795495 gap_fmax_final=0.0008280078027980433 gap_converged=1 pbc="F F F"
Re      11.73134819      10.98363331      10.96859017
Re      10.85904137      10.95579170      14.04110485
Re      12.10628400       8.73500511      12.22598461
Re       9.77915426       9.59667905      12.26003927
Re       9.73399176      12.29520686      12.27298390
Re      12.03331608      13.22738460      12.25383526
Re      12.95414440      10.99024141      13.20928972
Re      10.50665497       7.46786285      10.95450571
Re       8.06057626      10.92541722      10.98271148
Re      10.39580553      14.45863638      10.99246312
Re      12.93650587      11.01533213       8.71855443
Re      12.02497774      13.24278411       9.70856305
Re       9.72622012      12.30766558       9.69234348
Re       9.76663453       9.60896171       9.67952337
Re      12.09452849       8.75039652       9.68072258
Re      10.83498030      10.98316531       7.90294887
17
Properties=species:S:1:pos:R:3 config_type=qcd gap_pre_relax_energy=-166.98084608253617 gap_pred_energy=-167.22801778525803 gap_fmax_final=0.0009218088130644194 gap_converged=1 pbc="F F F"
Re      11.01413650      10.95861422      10.81089562
Re      11.01709824      10.95760789      13.46963170
Re      11.70067403       8.76758167      12.08911819
Re       9.18502901       9.62877647      12.11213532
Re       9.14118791      12.28681567      12.08832824
Re      11.56230881      13.08418005      12.10471948
Re      13.20623234      10.82515243      12.10390925
Re      13.89166816       8.86528549      10.81169169
Re       9.86160662       7.60962201      10.80938041
Re       7.47295560      10.89469668      10.80813315
Re       9.90982994      14.34137439      10.81196985
Re      13.20669958      10.82594593       9.51956948
Re      11.56444231      13.08631466       9.52039252
Re       9.14287928      12.28830953       9.53174752
Re       9.18676866       9.62969783       9.50634320
Re      11.70182355       8.76841102       9.53257978
Re      11.01745901      10.96441360       8.15225414
18
Properties=species:S:1:pos:R:3 config_type=qcd gap_pre_relax_energy=-178.44271621408566 gap_pred_energy=-178.6262825791767 gap_fmax_final=0.000683789712224986 gap_converged=1 pbc="F F F"
Re      10.90692120      10.90695351      10.90696083
Re      10.90688526      10.90699494      13.55092403
Re      11.60634740       8.75401232      12.19719801
Re       9.07572428       9.57649209      12.19737508
Re       9.07587839      12.23768782      12.19733579
Re      11.60660031      13.05984103      12.19715254
Re      13.17044932      10.90682714      12.19728475
Re      13.75518813       8.83757110      10.90691806
Re       9.81867720       7.55862489      10.90701462
Re       7.38649143      10.90715868      10.90704945
Re       9.81911159      14.25543904      10.90694331
Re      13.75541677      12.97598733      10.90684710
Re      13.17038876      10.90678738       9.61650644
Re      11.60653262      13.05979951       9.61665954
Re       9.07582001      12.23765230       9.61664395
Re       9.07566740       9.57646551       9.61665987
Re      11.60629123       8.75398161       9.61672508
Re      10.90679441      10.90690952       8.26298726
19
Properties=species:S:1:pos:R:3 config_type=qcd gap_pre_relax_energy=-188.60994222953877 gap_pred_energy=-189.19401514701727 gap_fmax_final=0.0006693458839547836 gap_converged=1 pbc="F F F"
Re      11.02900225      10.71442102      10.84664177
Re      11.14700207      10.63013034      13.51052433
Re      11.73283716       8.55011522      12.14250918
Re       9.21769402       9.39292344      12.13491647
Re       9.18843970      12.04558099      12.19688370
Re      11.71653758      12.84933267      12.13360122
Re      13.30531720      10.72517222      12.14167939
Re      13.88485601       8.64973359      10.85124528
Re       9.92341288       7.37484790      10.84912143
Re       7.46660811      10.80942042      10.84362100
Re       7.47037660      13.28714917      10.84114527
Re       9.82206034      14.06745619      10.84236758
Re      13.85367454      12.81115235      10.84703501
Re      13.30763425      10.72250816       9.55554414
Re      11.71888227      12.84670981       9.55668661
Re       9.19084598      12.04281971       9.49084556
Re       9.21997554       9.39025904       9.55800341
Re      11.73513410       8.54746413       9.55637541
Re      11.15165377      10.62474799       8.18319762
20
Properties=species:S:1:pos:R:3 config_type=qcd gap_pre_relax_energy=-198.66176637494914 gap_pred_energy=-199.7235077283071 gap_fmax_final=0.000968651220686468 gap_converged=1 pbc="F F F"
Re      11.33472360      11.24895593      11.37581391
Re      11.29764212      11.12239652      14.05954815
Re      12.03078073       9.10119419      12.66724816
Re       9.51514883       9.91582621      12.67090094
Re       9.51429027      12.58378877      12.74608387
Re      12.02673487      13.37970160      12.64518978
Re      13.59570847      11.26190238      12.74017536
Re      14.29763412       9.27724823      11.37143721
Re      10.25122968       7.90311576      11.37787883
Re       7.77847938      11.38846216      11.38101586
Re       7.77389146      13.84659659      11.38069761
Re      10.12249335      14.60238185      11.37759783
Re      14.28264748      13.25507843      11.37152842
Re      15.74225692      11.26608482      11.36902236
Re      13.59149467      11.26206494      10.00483917
Re      12.02286332      13.37996706      10.10484043
Re       9.51032554      12.58359100      10.01075432
Re       9.51134702       9.91550850      10.08643951
Re      12.02690893       9.10080849      10.08280273
Re      11.28953391      11.12146120       8.69232018
21
Properties=species:S:1:pos:R:3 config_type=qcd gap_pre_relax_energy=-208.3959157354025 gap_pred_energy=-211.25134644687833 gap_fmax_final=0.0009494958385537354 gap_converged=1 pbc="F F F"
Re      11.46673189      11.25798827      11.42036312
Re      10.79930387      11.26341876      15.12785161
Re      12.14502029       8.43580061      13.52909851
Re      10.09338325       9.81294340      13.32998183
Re      10.19274808      12.71627689      13.29733778
Re      12.56824674      13.25810151      12.85611727
Re      12.66922374      10.84093746      13.72186827
Re      11.04176380       8.55698691      11.28529991
Re       8.76127978      11.31420678      11.64647157
Re      11.10603349      13.78474006      10.80364808
Re      14.11662215      11.92833974      11.46383341
Re      13.41207529       9.53339106      11.54726027
Re      12.80915219      12.37121739       9.34263416
Re      10.92840082      11.60022668       7.85971752
Re       8.59801023       8.80553071      11.50076621
Re       8.74261434      13.86609225      11.57127478
Re       9.74684626      10.12630083       9.68492772
Re      12.31133508       9.87595592       9.25045818
Re       9.27516722      12.64991503       9.42567343
Re      11.09388095      13.98825776       8.31664426
Re      14.65393623      10.54514766       9.55054780
22
Properties=species:S:1:pos:R:3 config_type=qcd gap_pre_relax_energy=-220.60261753331116 gap_pred_energy=-221.65776951821516 gap_fmax_final=0.0008924773883078215 gap_converged=1 pbc="F F F"
Re      11.65284319      11.07050362      10.64642969
Re      11.69594135      10.83238887      13.22476637
Re      12.66825825       8.87334236      11.74058656
Re       9.99246360       9.14638202      12.50114356
Re      10.27182321      12.75605333      12.42214598
Re      12.64315492      13.24288742      11.60507913
Re      13.99944164      11.07556639      11.79098064
Re      10.74397559       7.71674061      10.47423904
Re       8.48255584       8.48764408      10.59678308
Re       8.93339484      10.98159899      10.86490620
Re       8.47117176      13.45840631      10.82732094
Re      10.69771937      14.41870283      10.38902885
Re      14.02446518      11.10045235       9.32269629
Re      12.55069291      13.10756208       9.14059482
Re      10.14132480      12.44850114       8.98386901
Re      10.14706845       9.64790724       8.99002093
Re      12.62807034       9.03841804       9.18388314
Re      11.88812206      11.07186555       7.72222534
Re       9.37124222      11.14989849      14.26409474
Re       7.71521171      12.44084992      13.07597699
Re       7.66876869      10.04707905      12.85586034
Re      14.78684720       9.06180641      10.55192548
23
Properties=species:S:1:pos:R:3 config_type=qcd gap_pre_relax_energy=-230.8048725938079 gap_pred_energy=-231.44488346101224 gap_fmax_final=0.0009211554409664853 gap_converged=1 pbc="F F F"
Re      12.62861351      11.13007182      10.22006989
Re      12.60513422      10.99141441      13.02932046
Re      12.89297381       8.95363330      11.47266745
Re      10.47533299       9.51175325      11.94070840
Re      10.66436666      12.31525054      11.84515753
Re      13.01715535      13.43380067      11.52471482
Re      14.51227151      11.68760324      11.73657125
Re      11.00533175       7.68623589      10.24846827
Re       8.56477070       8.32407944      10.45657019
Re       8.66811653      11.00322873      10.59425762
Re       8.37043802      13.62545651      10.20647131
Re      10.54636381      14.46462504      10.59546175
Re      14.05124637      12.03751326       8.46261866
Re      12.57323401      13.73996416       9.15814139
Re      10.46784614      12.35573470       9.15610655
Re      10.36284045       9.75493626       9.05999753
Re      12.69536756       8.95663750       8.89768870
Re      12.18582838      11.04567877       7.56270686
Re       9.88582623      11.08079661      14.02677694
Re       8.28086135      12.76219342      12.40571598
Re       7.91946255      10.24283851      12.87677950
Re      11.36825401       9.32508207      14.24863015
Re       8.71266368       8.02577151      12.72869844
24
Properties=species:S:1:pos:R:3 config_type=qcd gap_pre_relax_energy=-241.98410510597253 gap_pred_energy=-242.95266002514808 gap_fmax_final=0.0009419537625387059 gap_converged=1 pbc="F F F"
Re      12.02274372      11.25133433      10.71991634
Re      12.22025589      11.39444462      13.44083741
Re      13.17473937       9.08150837      11.54062043
Re      10.32506247       9.72913147      12.27158137
Re      10.26881683      12.79587276      12.02478805
Re      12.88106689      13.54813004      11.62030950
Re      14.31391039      11.41555567      11.91539174
Re      11.22338310       7.77261967      10.57590613
Re       8.26661209       8.55714767      10.83996703
Re       8.37879341      11.45529557      10.69029038
Re       8.40536754      13.92035652      10.75324814
Re      10.86626098      14.52096892      10.26444927
Re      14.30406158      11.15755110       9.42637760
Re      12.84659270      13.18055689       9.10632007
Re      10.26987070      12.43324103       9.14533413
Re      10.10268735       9.79867134       9.55251389
Re      12.58898851       9.34292402       8.97870867
Re      11.91614275      11.28597283       7.72532196
Re       9.68360255      11.45386032      14.06201477
Re       7.82130836      12.62977447      12.86105466
Re       7.87315359      10.13177524      12.73431621
Re      12.20028693       9.07607792      13.67335001
Re       9.64626487       7.38147297      12.25605911
Re      15.01628164      13.30201049      10.43757734
25
Properties=species:S:1:pos:R:3 config_type=qcd gap_pre_relax_energy=-251.62721578264228 gap_pred_energy=-253.74760391118008 gap_fmax_final=0.0007159777518903282 gap_converged=1 pbc="F F F"
Re      11.80215154      10.69158642      12.88947264
Re      10.93008086      11.11878329      15.16496910
Re      12.63604980       8.32251547      12.94988352
Re      10.34735124       8.78004084      13.67938660
Re       9.70816346      12.36800489      13.51382802
Re      12.57067553      12.66848853      14.37410484
Re      14.19723931      11.07606943      13.75601378
Re      11.61251362       8.72963536      10.79338766
Re       9.08604625      10.41644063      11.95943871
Re       7.70848817      11.59207868      10.13014944
Re      11.47121115      13.41383096      11.97660330
Re      11.16796713      14.53914090       9.77088765
Re      13.84512047      12.57364080      11.76547699
Re      13.89086547      10.03520777      11.48043553
Re      11.77195439      11.26521046      10.25322306
Re      11.30497315      10.50382301       7.71297128
Re       7.40737448      12.16075043      12.56260140
Re       9.42700883       8.00235384      11.62040808
Re       9.04322580      13.37812334      11.16994979
Re      13.51208646      14.21212974       9.86096038
Re       9.63394731       9.94102450       9.52904034
Re      13.05124997       9.48310027       8.79553676
Re       9.77454857      12.47662135       8.96751933
Re      12.25364364      12.82313855       8.20920391
Re      14.12405495      11.70625216       9.39253949
26
Properties=species:S:1:pos:R:3 config_type=qcd gap_pre_relax_energy=-264.22684654460113 gap_pred_energy=-265.1583563474661 gap_fmax_final=0.0009282158673421455 gap_converged=1 pbc="F F F"
Re      12.26564885      12.01024885      10.64480260
Re      12.36430539      12.07733594      13.36103889
Re      13.07557331       9.80801552      12.11130608
Re      10.45742596      10.67636399      11.99256304
Re      10.40627282      13.43385454      12.11839371
Re      12.88535707      14.18871001      11.77438537
Re      14.53188977      11.95206082      11.77020950
Re      10.99979410       8.43991308      10.75466347
Re       8.47323245       9.21805248      10.81061139
Re       8.48087060      11.86222611      10.76158258
Re       8.40730508      14.38993494      10.88426990
Re      11.13821736      15.39279497      10.57640494
Re      14.34088005      11.79473811       9.19851039
Re      12.67367648      14.05966903       9.20292901
Re      10.23582367      13.32194885       9.47627290
Re      10.43952746      10.66834523       9.35413281
Re      12.91302890       9.68526580       9.46936651
Re      12.16420648      11.94109433       7.94227912
Re       9.83978078      11.81123775      14.16531242
Re       7.95310847      13.07196166      12.90058929
Re       8.05900295      10.51565810      12.93037168
Re      15.16070905       9.92948426      10.56578466
Re      13.39174328       7.61841712      10.87096809
Re      11.36159700       9.74379964      14.16115973
Re       9.59278714       8.43166605      12.92627167
Re      12.00200514       7.57097245      12.88958985
27
Properties=species:S:1:pos:R:3 config_type=qcd gap_pre_relax_energy=-273.6492755373062 gap_pred_energy=-274.8187478074345 gap_fmax_final=0.0007660234716906167 gap_converged=1 pbc="F F F"
Re      12.02578321      11.65047586      13.33806582
Re      12.28240699       8.89691244      13.00334781
Re       9.87632455      10.24629355      13.91855733
Re       9.83732332      13.00495734      13.27632968
Re      12.45521656      14.04863001      13.91153038
Re      12.02924707       7.99443564      10.11139191
Re       9.80855720       7.48035849       9.51478780
Re       9.08667589      11.06301546      11.40351763
Re       8.20032390      11.49813779       9.17665156
Re      11.69798427      13.72392258      11.39770215
Re       9.78703011      15.18467866      10.45371559
Re      13.87422854      12.24035490      11.57458795
Re      14.21278542       9.62834343      10.97040061
Re      11.77258246      10.65100216      10.96123221
Re      11.19806623      11.35915295       7.52869872
Re      10.34545913       7.94644513      14.03968715
Re      13.68236676       7.41052238      11.78148946
Re       7.92142339      11.51960165      13.50911977
Re      10.05873184       8.56125934      11.73472766
Re      10.48994564      15.31390007      12.85623246
Re       8.42534495      13.51595868      11.27946454
Re      13.90675488      14.53330903      12.25149548
Re      10.01525049       9.87569093       9.04759037
Re      12.92831728       9.99690193       8.71173971
Re      10.16681026      12.78179454       9.40839362
Re      12.77226399      12.42659782       9.24203751
Re      14.99126167      11.29581328       9.44597110
28
Properties=species:S:1:pos:R:3 config_type=qcd gap_pre_relax_energy=-285.4479748214362 gap_pred_energy=-286.9566778390802 gap_fmax_final=0.000908549450818123 gap_converged=1 pbc="F F F"
Re      12.31809552      11.84403371      10.65675481
Re      12.39018569      11.90671671      13.30436628
Re      13.08363702       9.48749899      11.97202340
Re      10.48655231      10.37347918      11.86467574
Re      10.32959101      13.12911516      12.29880358
Re      13.67340637      13.92307110      11.40034447
Re      14.62146989      11.60219921      11.84968876
Re      11.12819929       8.23428795      10.54663384
Re       8.51960463       8.98084747      10.62014827
Re       8.45734653      11.49037580      10.63937713
Re       8.23792605      14.30874839      10.74354562
Re      11.31687423      15.14513479      10.94116372
Re      14.44835211      11.71994204       9.31236354
Re      12.64297679      13.84560401       9.06707789
Re      10.24325767      13.19233786       9.62033674
Re      10.50880155      10.56911767       9.24704793
Re      12.98755959       9.60303866       9.31195224
Re      12.30356024      11.72851775       7.90169328
Re       9.78837256      11.30152962      14.12747180
Re       7.91483127      12.73472602      12.70113425
Re       8.04245735      10.16555487      12.79631560
Re      15.18651473       9.64362538      10.42189077
Re      13.48149246       7.38041845      10.67379317
Re      11.38883674       9.38783669      14.01626209
Re       9.67510668       8.10367796      12.71019776
Re      12.05396988       7.21947309      12.64844817
Re      12.31502813      14.44552634      13.20663699
Re       9.37848060      15.45605208      12.32233911
29
Properties=species:S:1:pos:R:3 config_type=qcd gap_pre_relax_energy=-298.8810096451574 gap_pred_energy=-299.48892087183987 gap_fmax_final=0.00044476755088053503 gap_converged=1 pbc="F F F"
Re      11.17492778       9.72642323       9.16122131
Re      11.12767575       9.57393324      11.85405619
Re      13.66812038      10.55232705       9.16044556
Re      13.79870632      10.45875994      11.85314819
Re      11.85376212      11.85479257      10.52087229
Re      11.85267365      11.85574975       7.81182609
Re       9.61902856      11.84234950       9.16244168
Re      13.65317066      13.17876320       9.16122549
Re      11.15063050      13.97605259       9.16249813
Re       9.46099261      11.84052135      11.85538201
Re      13.78264163      13.27226011      11.85393700
Re      11.10182888      14.12633276      11.85531512
Re      11.17731786       9.72475792      14.54689259
Re      13.67060414      10.55075434      14.54602820
Re      11.85497480      11.85392547      13.18786909
Re      11.85609164      11.85297767      15.89693120
Re       9.62138410      11.84082666      14.54808466
Re      13.65546066      13.17712185      14.54685792
Re      11.15304820      13.97436798      14.54803359
Re      15.38156974      11.87426119      13.28547227
Re      15.38031482      11.87492499      10.42026000
Re      12.92566501      15.21411098      13.28740118
Re      12.92430700      15.21506021      10.42231579
Re      12.96255528       8.50710853      10.42046034
Re      12.96397551       8.50628255      13.28551329
Re       8.99014029      13.91047750      13.28856668
Re       8.98876973      13.91117000      10.42362048
Re       9.01381384       9.76471438      13.28775656
Re       9.01254389       9.76558784      10.42226240
30
Properties=species:S:1:pos:R:3 config_type=qcd gap_pre_relax_energy=-308.0197262664139 gap_pred_energy=-309.6182904682457 gap_fmax_final=0.0007331307379902026 gap_converged=1 pbc="F F F"
Re       8.53054345      14.63547161      11.07238477
Re       9.74113771      13.99308361       8.29597366
Re      10.09413993      14.60415052      13.00838436
Re       8.76266151      10.23256665      11.89893649
Re      10.48419329      11.72993878       7.91216251
Re      13.58756676      10.80559699      12.43719123
Re      14.63094248      11.35378066      10.16683940
Re       9.74547314       8.44097618      13.41402445
Re      13.19380764       8.26590554      12.85327983
Re      12.06274174       9.67008877       8.30689106
Re      11.35703173       6.91730702      12.36437878
Re      11.30012794       9.58100144      11.72336776
Re       8.40999714      12.83063022      12.66915831
Re       9.44864580      11.05757455      14.30277676
Re      13.66560380      13.62490249      10.43356716
Re      13.65514968      11.46458582       7.97343603
Re      13.38174286       9.08667434      10.33168603
Re       9.28915346      12.36531646      10.20212702
Re      12.80888275      12.32102701      14.34537605
Re      10.94290094      12.20267175      12.49843116
Re      11.22104724       7.65783700      10.02914328
Re      10.61131021      13.08015999      14.95402082
Re       9.76708409       9.69941689       9.59502329
Re      10.94321544      14.23976778      10.48956568
Re      14.82794343      12.97948668      12.47541128
Re      12.17910704      13.49765157       8.22704372
Re      12.02114727      11.63040576      10.02581364
Re      12.69388499      14.14077009      12.66116947
Re       8.91389072       7.86670559      11.07977246
Re      11.68942613       9.98504855      14.21316388
31
Properties=species:S:1:pos:R:3 config_type=qcd gap_pre_relax_energy=-320.66440005213275 gap_pred_energy=-321.5035341536525 gap_fmax_final=0.0009454396958908115 gap_converged=1 pbc="F F F"
Re      10.81879137       9.80401164       9.10171742
Re      10.69011067       9.62088057      11.74759532
Re      13.25061681      10.66052971       9.01413360
Re      13.27529171      10.64403847      11.74115030
Re      11.42999670      11.97791309      10.39774775
Re      11.45758302      11.95682103       7.70859361
Re       9.23561234      11.89988760       9.04817658
Re      13.30284597      13.23835874       9.10047383
Re      10.81646854      14.08554155       9.04724234
Re       9.07347900      11.85589041      11.75716758
Re      13.43725270      13.41964491      11.74619867
Re      10.80844606      14.25488012      11.75632056
Re      10.83636880       9.79357974      14.39329066
Re      13.26865495      10.65002882      14.46826208
Re      11.43885605      11.97259945      13.10179455
Re      11.48392998      11.94083774      15.79064012
Re       9.25336135      11.88933034      14.46532429
Re      13.31979384      13.22812703      14.39199497
Re      10.83389228      14.07498999      14.46446595
Re      15.11615282      11.71595516      13.04790825
Re      15.10758762      11.72075066      10.42640576
Re      12.60087603      15.30815238      13.23499585
Re      12.59150090      15.31380046      10.27008648
Re      12.82584686       8.56590835      10.42779245
Re      12.83477216       8.56084617      13.04933253
Re       8.67244529      13.97326872      13.16570273
Re       8.66343683      13.97881129      10.35952736
Re       8.63538791       9.82435007      13.23714043
Re       8.62545726       9.83021307      10.27248499
Re      15.24241261       9.22082666      10.58236775
Re      15.25013133       9.21658582      12.88132501
32
Properties=species:S:1:pos:R:3 config_type=qcd gap_pre_relax_energy=-330.92077290831355 gap_pred_energy=-332.6408758579126 gap_fmax_final=0.0009320354953297181 gap_converged=1 pbc="F F F"
Re      10.84798715      11.71814114      13.01915460
Re      13.96767994      12.00449971      13.20590974
Re       8.30836340      11.42352840      13.47829970
Re      12.32215854      14.01635894      12.82655569
Re       9.91140521      14.09142280      13.50459299
Re      12.05653057       8.82622413      13.17172408
Re       9.51157270       9.34130191      12.77846698
Re      14.46606518       9.54529397      12.79750788
Re      14.68345455       9.45667370       8.95598126
Re      10.89366768      11.74644460       8.20922766
Re      13.38528068      11.76365685       8.99453071
Re       8.47910829      11.64790156       8.98494248
Re      12.21077009      14.12586492       8.34541533
Re       9.82240547      13.90050911       9.01658551
Re      12.03315061       9.51826792       8.97143166
Re       9.40036001       9.43753289       8.30660025
Re      12.69725304      10.62516012      11.31781290
Re      10.16111864      10.56650333      10.51602411
Re      15.17382895      10.94377363      10.74480521
Re       7.72830780      10.49052621      11.17979742
Re      10.96266501       8.19083170      10.92491336
Re       8.54913112       8.38672779      10.17665378
Re      13.58055410       8.29784891      10.71568249
Re      11.56527092      12.90282456      10.54027172
Re      14.03549181      13.30197234      10.97744745
Re       9.02120875      12.83274457      11.48210849
Re      10.48790988      15.07932883      11.22639030
Re      12.73451678      15.34655184      10.23843465
Re      10.69181668      10.00561823      14.95692217
Re      13.11584735      10.33486485      14.97850007
Re      12.26934114      12.63099249      14.98393416
Re       9.76911551      12.34344561      15.31671278
33
Properties=species:S:1:pos:R:3 config_type=qcd gap_pre_relax_energy=-342.6860859786614 gap_pred_energy=-343.4134066242975 gap_fmax_final=0.0008373826544819955 gap_converged=1 pbc="F F F"
Re      10.98656196       9.54078005       9.14607038
Re      10.85019610       9.39650757      11.82109739
Re      13.46441107      10.45384198       9.08233429
Re      13.49475047      10.42576464      11.82159111
Re      11.61717670      11.66153561      10.43617289
Re      11.58605134      11.62357915       7.76442271
Re       9.41182628      11.68361581       9.13400054
Re      13.48833624      13.03022576       9.27587767
Re      11.02344808      13.77515176       9.06365663
Re       9.21907002      11.61623664      11.80860190
Re      13.68863743      13.19155027      11.83937374
Re      10.99136292      13.83258575      11.80242733
Re      10.97644786       9.57341431      14.48704771
Re      13.45747671      10.45468972      14.56126654
Re      11.61624592      11.67628604      13.18382118
Re      11.63016286      11.70161987      15.86177927
Re       9.41134163      11.70355730      14.47505690
Re      13.44043326      13.02340009      14.42529095
Re      10.99351578      13.80846319      14.54239081
Re      15.30901370      11.50854117      13.14783394
Re      15.32075965      11.50488431      10.50818969
Re      12.55980973      15.25017712      13.12651811
Re      12.57345831      15.24334129      10.48692804
Re      13.03066876       8.35532595      10.50210421
Re      13.02194435       8.35832294      13.13553602
Re       8.87033416      14.00884382      13.10409762
Re       8.88371844      13.99825192      10.47067885
Re       8.80130755       9.60856867      13.30301599
Re       8.80753782       9.59621615      10.32274876
Re      15.44895102       9.00254992      10.67055236
Re      15.44177756       9.00392198      12.97454100
Re      10.22280522      16.11410270      10.63041486
Re      10.21027384      16.12395931      12.93437339
34
Properties=species:S:1:pos:R:3 config_type=qcd gap_pre_relax_energy=-353.79616041675587 gap_pred_energy=-354.70084113217945 gap_fmax_final=0.0008294607713814518 gap_converged=1 pbc="F F F"
Re      10.77980767       9.53947841       9.11887761
Re      10.64448124       9.39801399      11.79966788
Re      13.26781507      10.42137917       9.04763558
Re      13.33112612      10.40423224      11.77147733
Re      11.42551659      11.64796953      10.40477670
Re      11.42421014      11.64871147       7.72836006
Re       9.20397713      11.67374156       9.12363229
Re      13.20693790      13.01039377       9.13899854
Re      10.77326442      13.76849479       9.02055236
Re       9.01593661      11.60602640      11.79138803
Re      13.47838923      13.17847398      11.74590468
Re      10.77527716      13.81719193      11.75943460
Re      10.81766456       9.58729501      14.47515579
Re      13.30653474      10.46952963      14.49529144
Re      11.44512386      11.67235634      13.14294890
Re      11.48200041      11.72061809      15.81865300
Re       9.24189633      11.72165019      14.45467936
Re      13.24431285      13.05649502      14.35906121
Re      10.81266888      13.81734563      14.49846504
Re      15.19341975      11.56352288      13.05121950
Re      15.17485088      11.54064431      10.44510880
Re      12.36838756      15.24389278      13.04878613
Re      12.34931920      15.22064527      10.42214172
Re      12.74449250       8.33422617      10.47940384
Re      12.76303094       8.35756088      13.10829940
Re       8.66866041      13.99989026      13.08636376
Re       8.64975030      13.97611786      10.45981926
Re       8.62339137       9.61301631      13.32034404
Re       8.60218604       9.58573398      10.30422960
Re      15.21954175       9.00527711      10.55207096
Re      15.23677398       9.02670100      12.98820021
Re       9.99194932      16.09374585      10.59383271
Re      10.00869971      16.11436567      12.89544413
Re      16.92504005      10.36169719      11.74621024
35
Properties=species:S:1:pos:R:3 config_type=qcd gap_pre_relax_energy=-365.36947501872004 gap_pred_energy=-366.3840714028344 gap_fmax_final=0.0008306254509592909 gap_converged=1 pbc="F F F"
Re      10.36285320       9.62381234       9.09663631
Re      10.21889974       9.47696883      11.76737290
Re      12.79101677      10.48287441       9.07435013
Re      12.90285472      10.44626186      11.76620667
Re      10.93605978      11.75979867      10.41587431
Re      10.96811346      11.75590346       7.72104774
Re       8.75035471      11.75205150       9.04691937
Re      12.78425193      13.04237804       9.07040106
Re      10.35159240      13.88889596       9.09051524
Re       8.56691048      11.75552808      11.76403381
Re      12.89571365      13.08808431      11.76207807
Re      10.20652928      14.04287781      11.76077646
Re      10.36294637       9.63173162      14.43763446
Re      12.79100352      10.49136138      14.45788006
Re      10.93598232      11.76395292      13.11231231
Re      10.96788036      11.76800006      15.80714370
Re       8.75019938      11.75989025      14.48116113
Re      12.78395254      13.05086408      14.45392688
Re      10.35119504      13.89681448      14.43153112
Re      14.86656058      11.77468491      13.03895779
Re      14.86663617      11.77029331      10.48942111
Re      12.23198635      15.15059681      13.06183884
Re      12.23236335      15.14658442      10.45597980
Re      12.25034835       8.38019543      10.46640340
Re      12.25057355       8.38421084      13.07227370
Re       8.14682967      13.82386607      13.22996147
Re       8.14700171      13.81970422      10.29216449
Re       8.15807949       9.68904408      13.23580789
Re       8.15807247       9.68488128      10.29816452
Re      14.71576053       9.07696054      10.54146559
Re      14.71580554       9.08087831      12.99589520
Re      14.70131593      14.46325030      10.53247366
Re      14.70113317      14.46716510      12.98690513
Re      16.45750784      13.28860786      11.76157217
Re      16.46568309      10.26499389      11.76688097
36
Properties=species:S:1:pos:R:3 config_type=qcd gap_pre_relax_energy=-375.80478764353415 gap_pred_energy=-376.6845916568715 gap_fmax_final=0.0009356156407239967 gap_converged=1 pbc="F F F"
Re      11.44867348      10.32561739       9.77990998
Re      11.38050938      10.08637297      12.42343939
Re      13.92581745      11.15995289       9.70459963
Re      13.99343976      11.02935686      12.42196587
Re      12.11670494      12.44129332      11.04104088
Re      12.10134015      12.46194857       8.37319169
Re       9.90898494      12.46078185       9.68498474
Re      13.85728937      13.78729605       9.70372827
Re      11.42513925      14.57586031       9.81347493
Re       9.87151775      12.44682042      12.42678873
Re      13.99246721      13.76690526      12.42387678
Re      11.33064201      14.78729619      12.42762831
Re      11.45320522      10.32178741      15.06707177
Re      13.93044350      11.15568069      15.13962712
Re      12.11925140      12.43952590      13.80837074
Re      12.10885159      12.45712932      16.47635339
Re       9.91398769      12.45694431      15.16848492
Re      13.86250425      13.78333710      15.14470715
Re      11.43017488      14.57192215      15.04122036
Re      15.83362589      12.46672572      13.69050919
Re      15.83175836      12.46918700      11.15318279
Re      13.39141248      15.85721655      13.72632446
Re      13.38798240      15.85932385      11.12598953
Re      13.29720781       9.08102989      10.99900333
Re      13.29947728       9.07880976      13.84298863
Re       9.02579873      14.38922453      13.74718982
Re       9.02354215      14.39118472      11.11086295
Re       9.05443898      10.49770190      13.75038495
Re       9.05204230      10.49961966      11.10163463
Re      15.92427307       9.88777553      11.16775166
Re      15.92630667       9.88548775      13.67098071
Re      15.78113028      15.23299320      11.26865619
Re      15.78402751      15.23056278      13.57554047
Re       7.45639651      12.43115135      11.27734675
Re       7.45844423      12.42946665      13.58027448
Re      17.57940765      11.07492671      12.41913133
37
Properties=species:S:1:pos:R:3 config_type=qcd gap_pre_relax_energy=-387.1909995542 gap_pred_energy=-388.2276337530397 gap_fmax_final=0.000818974397375771 gap_converged=1 pbc="F F F"
Re      11.30499456      10.29599905       9.77406600
Re      11.18610858      10.07408583      12.40031017
Re      13.74136606      11.10837556       9.69675286
Re      13.85581341      11.06966949      12.40963003
Re      11.96551337      12.41321978      11.03256822
Re      11.95295087      12.42072117       8.35635038
Re       9.76392549      12.41434706       9.66053013
Re      13.73836365      13.72954307       9.70399889
Re      11.30006921      14.53575754       9.78576534
Re       9.70784179      12.40660378      12.40325578
Re      13.85273882      13.75343057      12.41703052
Re      11.18050192      14.74279603      12.41328631
Re      11.29242973      10.28141519      15.02848366
Re      13.72824240      11.09340273      15.12208695
Re      11.95884874      12.40555436      13.78490795
Re      11.93334401      12.39833451      16.46104763
Re       9.75063599      12.39905968      15.14625098
Re      13.72505624      13.71456068      15.12936820
Re      11.28704862      14.52117616      15.04005737
Re      15.78864106      12.41030034      13.70147836
Re      15.79485145      12.41717630      11.13458504
Re      13.18537984      15.80126610      13.73324663
Re      13.19183026      15.80858242      11.10898819
Re      13.19986747       9.02026749      11.09010915
Re      13.19339716       9.01298789      13.71451106
Re       8.87236823      14.34420858      13.73254324
Re       8.87901114      14.35175946      11.08080065
Re       8.87735627      10.45941069      13.72170879
Re       8.88357936      10.46692306      11.06995010
Re      15.67444671       9.72176327      11.18235835
Re      15.66837480       9.71497694      13.63840572
Re      15.66816949      15.11228481      11.19713819
Re      15.66221392      15.10539489      13.65313131
Re      17.40243406      13.90116487      12.42585606
Re      17.40586914      10.92995898      12.41808831
Re       7.29225155      12.40029816      13.54920961
Re       7.29783993      12.40689878      11.24581917
38
Properties=species:S:1:pos:R:3 config_type=qcd gap_pre_relax_energy=-395.77944034391334 gap_pred_energy=-398.4028534269348 gap_fmax_final=0.0009534226022307184 gap_converged=1 pbc="F F F"
Re      13.25973516      13.25902295      11.89437914
Re      15.91370338      13.14537511      11.89497980
Re      13.14726099      15.91306563      11.89393866
Re      10.56911405      13.22027271      11.89381715
Re       7.88318868      13.12065746      11.89286727
Re      10.66981257      15.90613084      11.89368067
Re      10.52892793      10.52962374      11.89430589
Re       7.87509942      10.64329498      11.89408798
Re      10.64146098       7.87563393      11.89492426
Re      13.21968406      10.56838516      11.89492712
Re      15.90546523      10.66797367      11.89577047
Re      13.11892609       7.88268870      11.89521069
Re      11.89394517      11.89493367      14.20309191
Re      14.60032981      11.89623700      13.85190580
Re       9.18768780      11.89334186      13.85066784
Re      11.89649194      14.60102062      13.85077915
Re      11.89132010       9.18848332      13.85168443
Re      14.58092874      14.58033332      13.54383819
Re       9.22381896      14.56566036      13.52088731
Re       9.20720015       9.20886903      13.54371463
Re      14.56391181       9.22328920      13.52317613
Re      11.89480640      11.89392137       9.58566453
Re      14.60113649      11.89541352       9.93808657
Re       9.18842295      11.89264295       9.93671520
Re      11.89731478      14.60031284       9.93704240
Re      11.89223477       9.18772399       9.93798465
Re      14.58168737      14.57986715      10.24520269
Re       9.22497938      14.56540695      10.26555882
Re       9.20777758       9.20846347      10.24495672
Re      14.56482637       9.22299242      10.26773104
Re      13.48084683      13.48170250      15.42845051
Re      10.30463297      13.48486539      15.42333149
Re      10.30662354      10.30876251      15.42828159
Re      13.48271695      10.30546589      15.42450219
Re      13.48225506      13.48021276       8.36056922
Re      10.30617931      13.48327078       8.36408388
Re      10.30798097      10.30713991       8.36030186
Re      13.48409551      10.30407261       8.36543245
39
Properties=species:S:1:pos:R:3 config_type=qcd gap_pre_relax_energy=-407.5974920937288 gap_pred_energy=-410.5309379031052 gap_fmax_final=0.0009124998260379337 gap_converged=1 pbc="F F F"
Re      13.41606924      13.45090521      11.84070915
Re      16.01872239      13.23003202      11.96835836
Re      13.39277881      16.02432493      11.72406881
Re      10.69243122      13.32948321      12.20590689
Re       8.04933937      13.24047900      12.02666213
Re      10.78195025      15.97268865      12.02774249
Re      10.57045807      10.60588292      11.83965566
Re       7.99689986      10.62984236      11.72273764
Re      10.79028164       8.00327604      11.96667186
Re      13.32200356      10.69989827      11.34409835
Re      15.82746036      10.62053977      11.80835767
Re      13.40011254       8.19418568      11.80744438
Re      12.37191279      11.64931070      13.70264422
Re      15.00971089      12.16723120      13.95952273
Re       9.09086418      11.75034637      13.77682796
Re      12.27150844      14.93019450      13.77768975
Re      11.85294726       9.01166667      13.95810810
Re      14.74389779      14.73158450      13.55565678
Re       9.20953113      14.81232401      13.54478545
Re       9.28865103       9.27808025      13.55406477
Re      14.28580048       9.73491302      13.60719049
Re      11.80070626      12.22068426       9.66198873
Re      15.02578459      12.13396091       9.84065267
Re       9.23167723      12.00345128       9.90757346
Re      12.01911967      14.78966813       9.90890399
Re      11.88704533       8.99743902       9.83995226
Re      14.80151915      14.63966700      10.08959337
Re       9.36320250      14.65944192      10.38040032
Re       9.38110477       9.22173524      10.08784157
Re      14.92573154       9.09570654      10.11424054
Re      13.33573450      13.27270642      15.50423972
Re      10.74784658      13.27319064      15.02553660
Re      10.74762435      10.68531753      15.50334479
Re      13.25190371      10.76826819      15.93073371
Re      13.51445120      13.49810250       8.33846322
Re      10.24836530      13.77463272       8.38584060
Re      10.52353857      10.50827097       8.33699551
Re      13.43866110      10.58384215       8.69167615
Re      11.79310990      12.22718285      17.15357672
40
Properties=species:S:1:pos:R:3 config_type=qcd gap_pre_relax_energy=-419.30425221818695 gap_pred_energy=-422.6177264453492 gap_fmax_final=0.0009515546611559868 gap_converged=1 pbc="F F F"
Re      14.21974145      14.26841650      12.77114898
Re      16.80289100      14.13137447      12.90324050
Re      14.18430484      16.83729974      12.70215306
Re      11.52292862      14.04728912      13.33841967
Re       8.98487172      14.09320468      12.91022661
Re      11.44324178      16.58294337      12.92790371
Re      11.36528476      11.31674387      12.81411481
Re       8.78215627      11.45280687      12.68185703
Re      11.40140252       8.74783849      12.88286213
Re      14.06219790      11.53807475      12.24638218
Re      16.60006467      11.49156124      12.67494617
Re      14.14199182       9.00250462      12.65707464
Re      13.19631596      12.44399646      14.64841796
Re      15.80841328      12.98235530      14.86530148
Re       9.83983482      12.56644082      14.78339179
Re      13.02794374      15.73235233      14.74833141
Re      12.60741876       9.83798693      14.74909778
Re      15.50532718      15.55379143      14.55255972
Re       9.95617109      15.60486089      14.56432526
Re      10.00370998      10.09354146      14.54906666
Re      15.07636504      10.54415686      14.45268832
Re      12.38849647      13.14112772      10.93669689
Re      15.74591420      13.01814398      10.80119205
Re       9.77668287      12.60249842      10.72017446
Re      12.97748987      15.74706802      10.83660579
Re      12.55723173       9.85302338      10.83651073
Re      15.58164084      15.49096056      11.03614034
Re      10.50832846      15.04107625      11.13257908
Re      10.07994355      10.03102022      11.03253231
Re      15.62889689       9.98025548      11.02046332
Re      14.13475858      14.05206502      16.45107289
Re      11.56294563      14.02674268      16.06416751
Re      11.55730310      11.46341089      16.42928846
Re      14.07715163      11.51674998      16.82648885
Re      14.02775284      14.12183946       9.15608802
Re      11.50772184      14.06872837       8.75884770
Re      11.45024445      11.53326853       9.13394598
Re      14.02210316      11.55867230       9.52059571
Re      12.66185214      12.92681544      18.12479109
Re      12.92290144      12.65892996       7.46024588
41
Properties=species:S:1:pos:R:3 config_type=qcd gap_pre_relax_energy=-432.4774439170771 gap_pred_energy=-433.9304617842802 gap_fmax_final=0.0008727185450640728 gap_converged=1 pbc="F F F"
Re      11.23523508      10.84309050       9.66009957
Re      11.32685845      10.61553374      12.43601241
Re      13.79289862      11.54853958       9.70770997
Re      14.01456237      11.21213105      12.42940259
Re      12.08204925      12.86677780      11.02980545
Re      11.94927001      13.01359893       8.36085733
Re       9.80245779      12.97133312       9.71004009
Re      13.78499555      14.22271590       9.70516009
Re      11.33916020      15.03175641       9.82392472
Re       9.81100685      12.90820281      12.44108368
Re      13.88630967      14.22944269      12.43128112
Re      11.25214891      15.24438035      12.43857539
Re      11.24941768      10.84018480      15.21261691
Re      13.80666340      11.54581387      15.15286561
Re      12.08928581      12.86530776      13.84059843
Re      11.97047804      13.00915172      16.51037746
Re       9.81655671      12.96852115      15.17218789
Re      13.79901793      14.21995231      15.15790010
Re      11.35265478      15.02901996      15.05252558
Re      15.77512218      12.94118187      13.72465830
Re      15.76850948      12.94256391      11.12695517
Re      13.31074409      16.28988165      13.74114562
Re      13.30407711      16.29120534      11.12645808
Re      12.97612536       9.28176058      10.74223607
Re      12.98480182       9.28005151      14.11998424
Re       8.94293565      14.87083299      13.73375145
Re       8.93624599      14.87212587      11.15491503
Re       9.08525180      10.86569960      13.75842855
Re       9.07852810      10.86704144      11.12535628
Re      15.82521017      10.29229326      10.72687832
Re      15.83384231      10.29068733      14.12173697
Re      15.76113806      15.58610826      11.21161135
Re      15.76733439      15.58491812      13.64274921
Re      10.62758306       8.52347218      11.17758652
Re      10.63404265       8.52217832      13.69586963
Re       7.43578827      12.83401814      11.29861143
Re       7.44171954      12.83288282      13.59580361
Re      17.22661094      11.19497912      12.42115623
Re      17.45700434      14.24189695      12.42225320
Re      14.82370118       8.79151154      12.42613852
Re      12.44151045       7.41610880      12.43154590
42
Properties=species:S:1:pos:R:3 config_type=qcd gap_pre_relax_energy=-444.3484217033083 gap_pred_energy=-445.48341933549233 gap_fmax_final=0.0009567676057775053 gap_converged=1 pbc="F F F"
Re      11.29456305      10.81314863       9.66319096
Re      11.30146117      10.65465095      12.33475969
Re      13.74262163      11.57622506       9.64391262
Re      13.90792994      11.49623175      12.33455581
Re      12.01956261      12.91134678      10.95842244
Re      12.00606418      12.94889564       8.27467167
Re       9.82864381      12.94598508       9.59626889
Re      13.79869220      14.18785436       9.61249486
Re      11.35032978      15.03288639       9.69407757
Re       9.73453057      12.89323523      12.33535427
Re      13.91185623      14.22047053      12.33449875
Re      11.25984343      15.23037807      12.33524610
Re      11.29552375      10.81276366      15.00639719
Re      13.74354915      11.57599665      15.02502869
Re      12.02007864      12.91126851      13.71135080
Re      12.00779411      12.94906439      16.39512485
Re       9.82970060      12.94547495      15.07440195
Re      13.79980367      14.18768306      15.05666731
Re      11.35118915      15.03251569      14.97644696
Re      15.83090275      12.94035778      13.62159593
Re      15.83039935      12.94005116      11.04668233
Re      13.27713812      16.28180420      13.64696456
Re      13.27660480      16.28198106      11.02268411
Re      13.18337256       9.23602400      11.05963353
Re      13.18339984       9.23574440      13.60932883
Re       8.97414205      14.89263621      13.65142427
Re       8.97358303      14.89282829      11.02000069
Re       8.94089330      10.80390457      13.59560987
Re       8.94027095      10.80423293      11.07492932
Re      15.71927590      10.18320955      11.03461598
Re      15.71969701      10.18322180      13.63398169
Re      15.73938394      15.59859089      11.10915123
Re      15.73993735      15.59874958      13.55859243
Re      10.53720887       8.54026163      11.03575725
Re      10.53762062       8.54014731      13.63354929
Re       7.40837057      12.95782617      11.17701140
Re       7.40891027      12.95758600      13.49499310
Re      17.40381266      11.40315112      12.33417427
Re      17.47190512      14.36052858      12.33356214
Re      15.10665157       8.19752434      12.33449776
Re      12.17908263       7.27423349      12.33419430
Re       8.47430452       8.62993498      12.33479980
43
Properties=species:S:1:pos:R:3 config_type=qcd gap_pre_relax_energy=-454.99672661985096 gap_pred_energy=-457.00456827084 gap_fmax_final=0.0007985134821916451 gap_converged=1 pbc="F F F"
Re      12.03548474      11.41189495      10.20051456
Re      11.96480178      11.25306706      12.88916605
Re      14.45395632      12.18547947      10.20560429
Re      14.59339357      12.09394454      12.89476153
Re      12.69661419      13.50355967      11.52038562
Re      12.69384274      13.52987974       8.83039581
Re      10.50192045      13.50024142      10.16521715
Re      14.49101176      14.77622920      10.17364384
Re      12.02767733      15.60352270      10.23383691
Re      10.38132889      13.45918287      12.88352842
Re      14.60258768      14.80942915      12.89242099
Re      11.95660093      15.80797438      12.88526378
Re      12.02266571      11.41648565      15.57785276
Re      14.44112339      12.19008213      15.58300948
Re      12.69008746      13.50590183      14.25759102
Re      12.67452568      13.53682736      16.94750805
Re      10.48896228      13.50488242      15.60230816
Re      14.47802780      14.78089330      15.61069280
Re      12.01500289      15.60804197      15.53734191
Re      16.52868603      13.54363494      14.18155434
Re      16.53480451      13.54137371      11.61470430
Re      13.95451744      16.87082456      14.20391037
Re      13.96080373      16.86857137      11.57431735
Re      13.86889042       9.83838238      11.62388357
Re      13.86272652       9.84052061      14.16595119
Re       9.70774646      15.51239541      14.19495024
Re       9.71401617      15.51014372      11.56540540
Re       9.54248497      11.30897774      14.16681712
Re       9.54855537      11.30683485      11.59989655
Re      16.41649363      10.78660419      11.60066320
Re      16.41028785      10.78884804      14.19980743
Re      16.42317449      16.19841318      11.66927348
Re      16.41732964      16.20055817      14.12177209
Re      11.24381480       9.13201991      11.58968630
Re      11.23764045       9.13422510      14.18874815
Re       8.09731401      13.53519722      11.65177696
Re       8.09149331      13.53727367      14.10433985
Re      18.10037531      12.00074345      12.90325200
Re      18.16259498      14.98299515      12.90074128
Re      15.80525372       8.80524159      12.90051113
Re      12.88656288       7.87162401      12.89417078
Re       7.38138952      11.53451327      12.87805287
Re       9.16291638       9.14205212      12.88425911
44
Properties=species:S:1:pos:R:3 config_type=qcd gap_pre_relax_energy=-467.2730899653427 gap_pred_energy=-468.67631813103776 gap_fmax_final=0.0007956765350294874 gap_converged=1 pbc="F F F"
Re      11.93980405      11.27689669      10.18154443
Re      11.87678930      11.11053769      12.86298192
Re      14.35614303      12.05337387      10.17236786
Re      14.49970640      11.94648024      12.86260251
Re      12.61352507      13.38287809      11.50169264
Re      12.60487123      13.39132697       8.80276632
Re      10.39797236      13.33961114      10.14712958
Re      14.39558755      14.64187844      10.15365298
Re      11.88123523      15.42706411      10.18382866
Re      10.28943235      13.30003814      12.86335409
Re      14.53943424      14.66249865      12.86274152
Re      11.85727417      15.65118420      12.86322657
Re      11.94066897      11.27661179      15.54441621
Re      14.35701129      12.05308806      15.55289579
Re      12.61396435      13.38273327      14.22427479
Re      12.60618100      13.39089437      16.92320465
Re      10.39884824      13.33932246      15.57954751
Re      14.39646167      14.64159010      15.57187370
Re      11.88209962      15.42677870      15.54259305
Re      16.44782954      13.34927951      14.14719388
Re      16.44741494      13.34941807      11.57753256
Re      13.86824162      16.77557067      14.15824409
Re      13.86782408      16.77570828      11.56768031
Re      13.78118207       9.69623742      11.59073314
Re      13.78159357       9.69610279      14.13446533
Re       9.61643348      15.35812772      14.17485332
Re       9.61601032      15.35826680      11.55229100
Re       9.45191583      11.14134189      14.14228356
Re       9.45150402      11.14147750      11.58446520
Re      16.32591612      10.63961666      11.56151373
Re      16.32633604      10.63947852      14.16296270
Re      16.34916410      16.09189147      11.58766633
Re      16.34957528      16.09175561      14.13738535
Re      11.16059389       8.98631536      11.56311160
Re      11.16101292       8.98617752      14.16285881
Re       8.00574921      13.37432910      11.63591976
Re       8.00614504      13.37419883      14.09153129
Re      18.02691227      11.83736302      12.86202668
Re      18.04657109      14.81260913      12.86218407
Re      15.71333547       8.65356876      12.86223115
Re      12.80928969       7.72638606      12.86265312
Re       7.28535109      11.37918980      12.86373550
Re       9.08464173       8.96994560      12.86331921
Re      15.54074495      18.06915534      12.86276200
45
Properties=species:S:1:pos:R:3 config_type=qcd gap_pre_relax_energy=-478.0247638999476 gap_pred_energy=-479.39984804999614 gap_fmax_final=0.0008993107428677117 gap_converged=1 pbc="F F F"
Re      11.89588270      10.57781464      10.03418194
Re      11.83514954      10.46340043      12.74330967
Re      14.36642390      11.30470552      10.03646167
Re      14.47792372      11.28921080      12.72828795
Re      12.67490251      12.71819955      11.32079008
Re      12.59589893      12.61683708       8.65102397
Re      10.37906090      12.63858530      10.05621047
Re      14.44453277      13.94852955       9.99785022
Re      11.86705435      14.71481884       9.90839184
Re      10.28240239      12.66982559      12.73927786
Re      14.65937728      14.30550255      12.72996239
Re      11.98538583      14.93457789      12.73337649
Re      11.92103580      10.54972026      15.41716589
Re      14.37221768      11.34286594      15.45951661
Re      12.67638276      12.71780335      14.15328163
Re      12.51965874      12.58903139      16.82550718
Re      10.38944214      12.60711101      15.43673605
Re      14.45746003      13.98430292      15.44233889
Re      11.86884721      14.70918948      15.55982639
Re      16.38132104      12.58555136      14.02640418
Re      16.38145396      12.57319413      11.44568331
Re      13.60967397      16.26113156      14.42699888
Re      13.62606893      16.24781216      11.02002351
Re      13.63650057       9.22861666      11.42698980
Re      13.76180665       9.26636522      14.05128096
Re       9.80503583      14.80468306      14.08682310
Re       9.81308188      14.83234150      11.41512320
Re       9.46183756      10.39579691      13.99557896
Re       9.46220356      10.39945743      11.46762249
Re      16.29751649       9.93522728      11.55666065
Re      16.30473114       9.96787134      14.01499932
Re      16.46862365      15.22982640      11.03301932
Re      16.46516147      15.24194993      14.43278274
Re      11.28072904      17.05723711      11.45979162
Re      11.25541505      17.04238606      13.95368442
Re      11.15026586       8.33976273      11.45541113
Re      11.17779775       8.31641734      13.92113446
Re       8.06944299      12.66098360      11.48111360
Re       8.05122915      12.65039692      13.97023208
Re      18.02399332      11.17170178      12.72376492
Re      17.84663993      14.30428919      12.72983271
Re      15.46233592      16.73570106      12.72903888
Re      13.17422942      18.10566389      12.71731445
Re       7.27060564      10.74908504      12.72821115
Re       9.08634475       8.20760297      12.75006771
46
Properties=species:S:1:pos:R:3 config_type=qcd gap_pre_relax_energy=-489.6164864979297 gap_pred_energy=-491.01740903250726 gap_fmax_final=0.0006258360306063367 gap_converged=1 pbc="F F F"
Re      12.14596380      10.60676333      10.19232909
Re      12.07840929      10.52090488      12.88275275
Re      14.54852571      11.40468846      10.18091458
Re      14.68551673      11.32248479      12.88623770
Re      12.79439142      12.80280248      11.48353943
Re      12.83103591      12.69192475       8.79881708
Re      10.62740872      12.66043941      10.06625752
Re      14.65462446      13.96122657      10.20264540
Re      12.15104179      14.85341548      10.15067716
Re      10.45785373      12.84061211      12.88793151
Re      14.69153204      14.07834562      12.89320627
Re      11.87154819      15.17161695      12.89480732
Re      12.14339609      10.59286151      15.57385011
Re      14.54591576      11.39081055      15.59163028
Re      12.79299290      12.79554270      14.29449683
Re      12.82696803      12.67052329      16.97863927
Re      10.62460957      12.64579473      15.70879904
Re      14.65165085      13.94767966      15.58339727
Re      12.14805457      14.83946241      15.63697164
Re      16.52453503      12.72274709      14.15291417
Re      16.52601916      12.72815579      11.62949489
Re      14.00212629      16.28124851      14.19199213
Re      14.00317095      16.28789060      11.60513976
Re      13.94413926       9.02731870      11.61852133
Re      13.94288846       9.02089206      14.14118602
Re       9.71300697      14.79153614      14.60001700
Re       9.71490298      14.80051721      11.18518630
Re       9.86724708      10.73398011      14.20222581
Re       9.86838317      10.74096748      11.56234831
Re      16.40160137       9.95889939      11.62017767
Re      16.40076047       9.95306849      14.14601166
Re      16.55895979      15.41071659      11.61217539
Re      16.55765706      15.40419988      14.18277004
Re      11.54959278      17.18714747      11.18900934
Re      11.54785131      17.17838032      14.61065007
Re      11.35383929       8.40543403      11.63884824
Re      11.35279433       8.39895097      14.11498699
Re       8.21859761      12.80953880      11.64731588
Re       8.21738031      12.80285094      14.12568348
Re      18.21043283      14.14472497      12.89483935
Re      15.83412233      17.40542158      12.90200628
Re      12.83615410      18.21945257      12.90315406
Re      15.91640969       7.96981330      12.87859319
Re      12.92228257       7.05255575      12.87405768
Re       9.82133997      16.70319244      12.89774555
Re       7.82937026      14.96950402      12.89205412
47
Properties=species:S:1:pos:R:3 config_type=qcd gap_pre_relax_energy=-501.3672093161106 gap_pred_energy=-502.7678493822064 gap_fmax_final=0.0009439242049870571 gap_converged=1 pbc="F F F"
Re      12.13055834      10.79508093      10.29911044
Re      12.11259513      10.67213346      13.01211217
Re      14.59151229      11.55933543      10.32126388
Re      14.70961415      11.45112728      13.01499757
Re      12.84979437      12.89635558      11.62840685
Re      12.83283770      12.87843367       8.94430629
Re      10.62825531      12.89499200      10.30332353
Re      14.61533559      14.13234511      10.29865369
Re      12.16487547      14.96805788      10.31040614
Re      10.47360992      12.92221828      13.00659909
Re      14.74318100      14.22612377      13.01071731
Re      12.10282653      15.12390746      13.00572378
Re      12.12248264      10.80287112      15.72478881
Re      14.58348642      11.56716138      15.70791665
Re      12.84575764      12.90037605      14.39168857
Re      12.82100061      12.88998924      17.07573310
Re      10.62050523      12.90308964      15.71046576
Re      14.60730019      14.14032164      15.72293241
Re      12.15710888      14.97604768      15.70152666
Re      16.64109156      12.82561247      14.28920115
Re      16.64501325      12.82145054      11.74244989
Re      14.04157847      16.48431464      14.28022941
Re      14.04507447      16.48072236      11.73259847
Re      13.89496753       9.17977332      11.73898304
Re      13.89071809       9.18334284      14.29492313
Re       9.70793956      15.13504542      14.28127256
Re       9.71168997      15.13131599      11.72329512
Re       9.92918364      10.78221324      14.33638120
Re       9.93317018      10.77815239      11.68150632
Re      16.49207273      10.08744254      11.72183872
Re      16.48803812      10.09102467      14.31757912
Re      16.58825986      15.52450149      11.71107143
Re      16.58432103      15.52847599      14.31196661
Re      11.44630153      17.27222682      11.70508610
Re      11.44264966      17.27601750      14.29824517
Re      11.30503642       8.56883538      11.77860166
Re      11.30082942       8.57236690      14.24811596
Re       8.24374280      12.96607521      11.75628910
Re       8.24010016      12.96976932      14.25025523
Re      18.19721393      11.27522483      13.02087048
Re      18.26440181      14.30523318      13.01587491
Re      15.97961746      17.51545922      13.00741479
Re      13.13261488      18.48148081      13.00229976
Re      15.82625218       8.12438726      13.02163796
Re      12.92150044       7.22191901      13.01804839
Re       9.36226966      17.30070128      12.99873523
Re       7.50646227      14.89169632      12.99930482
48
Properties=species:S:1:pos:R:3 config_type=qcd gap_pre_relax_energy=-509.8760987837606 gap_pred_energy=-512.1945686096232 gap_fmax_final=0.000983705726126629 gap_converged=1 pbc="F F F"
Re      12.54997434      11.91614682      13.02658294
Re      12.76275687      12.12742198      15.52380534
Re      13.24300522       9.47256771      13.74771237
Re      11.03227009      10.37229670      14.54214812
Re      10.46790949      13.32868646      13.78199855
Re      12.94786987      14.55326701      13.81171471
Re      14.99416238      11.58679543      13.90095101
Re      11.64843122       9.82143417      11.54504654
Re      10.07667872      12.00437537      11.49302837
Re      11.64960066      14.15717851      11.48271122
Re      14.21203742      13.36320034      11.46162482
Re      14.36277698      10.54755931      11.54678408
Re      12.39796609      11.96003167      10.10037947
Re      10.31087689      11.33288438      16.64923379
Re      10.46902000      13.69159163      16.29149871
Re      12.79811162      14.39117341      16.30841760
Re      11.16888319       7.88034306      14.33969014
Re       8.65615519       9.50049888      14.63621971
Re       8.62649437      11.93755471      14.85399222
Re       8.53466315      14.86612574      14.62886088
Re      10.91415773      15.73496272      14.70923640
Re      15.14810487      13.83465217      14.67132449
Re      14.93615083       8.16831244      11.98479310
Re      12.45240067       7.49445839      12.30058900
Re       9.67120576       8.55884517      12.54405914
Re       8.16119847      10.68520104      12.56564319
Re       8.20018706      13.41687935      12.57949440
Re       9.71908111      15.58181716      12.50494056
Re      12.23199737      16.49015200      12.32901781
Re      14.86973451      15.56443918      12.45090165
Re      16.48440078      13.33483653      12.62710984
Re      16.80894424      10.81366046      12.06049359
Re      13.42373053       8.48412476      10.04759521
Re      11.01623429       7.70333637      10.17625656
Re       9.34921761       9.89742814      10.23727229
Re       7.91259234      12.06970415      10.05721996
Re       9.32044314      14.16063258      10.28853967
Re      11.08306801      16.33685370      10.10464958
Re      13.49204822      15.57112131      10.25039629
Re      16.19469957      14.66013528      10.45780454
Re      16.06404006      12.14256040      10.10621862
Re      16.23955899       9.26379068      10.25650933
Re      11.56063249       9.85460231       8.87359032
Re      10.08014046      12.03724693       8.86512811
Re      11.61449470      14.17249961       8.89131137
Re      14.13880203      13.42186079       8.84841655
Re      14.27946031      10.66848622       8.88627675
Re      12.60478276      11.94741949       7.53396374
49
Properties=species:S:1:pos:R:3 config_type=qcd gap_pre_relax_energy=-521.8103166255642 gap_pred_energy=-523.6004200467156 gap_fmax_final=0.0007486454266443308 gap_converged=1 pbc="F F F"
Re      10.14984799      10.95023323       8.68450955
Re      10.00739112      10.90497355      11.43098379
Re      12.57599294      11.80378390       8.77117889
Re      12.61899702      11.73510850      11.32335977
Re      10.67295111      13.11979785      10.03446742
Re      10.83299581      13.04811413       7.34332964
Re       8.53827689      13.00385464       8.60118740
Re      12.55380967      14.37683151       8.73620931
Re      10.07569649      15.19519742       8.63418655
Re       8.29059374      13.08339596      11.23895606
Re      12.50888379      14.47061848      11.48466674
Re       9.87921442      15.34778178      11.27305340
Re       9.83065027      10.92572277      14.27473943
Re      12.37639814      11.86119848      14.24325755
Re      10.46092024      13.22656909      12.82158716
Re      10.40250557      13.22677326      15.51796701
Re       8.32420100      12.91230775      13.99264227
Re      12.38886816      14.57211128      14.32988088
Re      10.01250451      15.31877712      14.02885029
Re      14.38021522      13.16432412      12.85273452
Re      14.47238137      13.29977256      10.19929767
Re      11.76523115      16.56701116      12.65111742
Re      11.87456381      16.47787598      10.06710353
Re      11.79493994       9.48314643      10.14178727
Re      11.85318891       9.56222301      12.79839108
Re       7.76666597      10.86781941      12.56510461
Re       7.92445544      10.84741802       9.98218899
Re      14.52969299      10.41046789      10.28201842
Re      14.44063869      10.43305579      12.92407416
Re      14.38712139      15.84878563      10.42657935
Re      14.31951466      15.82899113      12.91102350
Re       9.36622650       8.69181333      10.31848295
Re       9.32642939       8.71181468      12.80349772
Re      16.29204040      11.77323744      11.53569308
Re      16.14948821      14.57417000      11.73922084
Re      13.83069264       8.26468643      11.48287337
Re      11.14581630       7.44185963      11.63162484
Re      16.39013526       9.08671684      11.51915207
Re      16.76223148      13.01083411      13.77219519
Re      16.86741712      10.46668594      13.54332855
Re      14.91710548      14.31867268      15.05980119
Re      14.90655169      11.80010150      15.08284089
Re      13.05219946      13.06915765      16.29539294
Re      11.44143843      10.77335921      16.26064996
Re      13.28331691       9.48632733      15.04788887
Re      10.91933629       8.62011149      14.97374799
Re      15.22654702       8.12768974      13.50809782
Re      12.79555901       7.35646038      13.68692226
Re       7.86240534      15.09650515       9.71640120
50
Properties=species:S:1:pos:R:3 config_type=qcd gap_pre_relax_energy=-533.6927281958245 gap_pred_energy=-535.3284900898898 gap_fmax_final=0.0009083187947861767 gap_converged=1 pbc="F F F"
Re      10.61525399      11.59766718       9.07545293
Re      10.44490521      11.62464102      11.78463666
Re      12.98173109      12.56350535       9.14775960
Re      13.02094925      12.50977727      11.69491343
Re      11.04847805      13.90408803      10.35907037
Re      11.26427751      13.77745327       7.62993278
Re       9.09780815      13.52500245       8.84480368
Re      13.08035730      15.11797180       9.11196880
Re      10.75232199      15.88569080       8.86788543
Re       8.79280402      13.72033344      11.63754630
Re      12.97024645      15.23169409      11.82112022
Re      10.43719367      16.06912177      11.66088386
Re      10.20058831      11.76276007      14.62876940
Re      12.72952621      12.68454253      14.59329258
Re      10.90408331      13.97707466      13.16235408
Re      10.78926522      14.03036629      15.84962207
Re       8.69182063      13.78035008      14.24787054
Re      12.72981146      15.37557733      14.66537304
Re      10.32153648      16.10846122      14.27086812
Re      14.77046741      13.90952256      13.27514842
Re      15.00405230      13.97729985      10.66265117
Re      12.16389101      17.33699005      12.99380119
Re      12.30513073      17.24566558      10.37804226
Re      12.33015053      10.15886267      10.62372282
Re      12.28959857      10.36573546      13.23916830
Re       8.17991206      11.64619779      12.93653415
Re       8.33882480      11.57997109      10.32097078
Re      14.93513161      11.18004462      10.67512222
Re      14.81049872      11.24060520      13.31654917
Re      14.82098978      16.57525407      10.75073266
Re      14.73929664      16.60396829      13.26234513
Re       9.82605986       9.44034372      10.67902699
Re       9.74741107       9.47354061      13.19042249
Re      16.71403410      12.46413982      12.01012410
Re      16.57550377      15.36143928      12.13969552
Re      14.32446334       9.05135523      11.97539080
Re      11.55401717       8.18854397      12.06699804
Re      16.76334494       9.88657579      12.01350221
Re      17.13822373      13.83568674      14.13178894
Re      17.22205335      11.16488657      14.21980844
Re      15.25601550      15.13584071      15.37962398
Re      15.39681062      12.48737676      15.66772348
Re      13.38188130      13.81531072      16.76380588
Re      11.86956428      11.65544969      16.74197283
Re      13.81724147      10.23135787      15.64482653
Re      11.28357399       9.46155202      15.32226521
Re      15.69821084       8.98830807      14.19754489
Re      13.16107991       8.15474029      14.07430919
Re      14.13447320      11.66924781      17.71461608
Re      16.28505183      10.17802521      16.28755898
51
Properties=species:S:1:pos:R:3 config_type=qcd gap_pre_relax_energy=-545.5566945344901 gap_pred_energy=-547.0491291443568 gap_fmax_final=0.0008355011431217495 gap_converged=1 pbc="F F F"
Re      10.34669120      11.14155811       8.79917923
Re      10.19690976      11.11084724      11.50675276
Re      12.74639400      11.99283439       8.88938985
Re      12.81046467      11.91619598      11.43027492
Re      10.85505663      13.32247777      10.16710643
Re      10.98736464      13.26174622       7.44946869
Re       8.74022635      13.19709685       8.69776564
Re      12.76414582      14.54014571       8.84086499
Re      10.29667177      15.38522082       8.72468841
Re       8.41787841      13.35501206      11.35517759
Re      12.71255236      14.64765907      11.55010751
Re      10.01091185      15.59452016      11.38271014
Re       9.98918771      11.14016799      14.35610419
Re      12.69568620      11.96008092      14.49815227
Re      10.85193909      13.28960155      13.02853853
Re      10.73580561      13.33947125      15.68576723
Re       8.50991813      13.33615667      14.00649923
Re      12.58363387      14.78777093      14.40093165
Re      10.02814024      15.47052995      14.03284575
Re      14.56579500      13.33465522      12.96241181
Re      14.72493467      13.44331569      10.34041027
Re      11.99812264      16.72228178      12.72410357
Re      12.15472951      16.66540647      10.13611773
Re      12.00893368       9.62474857      10.29353117
Re      12.02902040       9.76795893      12.91855134
Re       7.98924680      11.08616047      12.65494811
Re       8.12432074      10.99920782      10.06667252
Re      14.70187946      10.58439119      10.33767670
Re      14.61036025      10.61709521      12.97248586
Re      14.60831493      16.01758058      10.49901084
Re      14.53077617      16.01019250      12.99723409
Re       9.53727111       8.88813143      10.41147459
Re       9.48981804       8.92292345      12.91020147
Re      16.47423507      11.88072199      11.64311825
Re      16.35682002      14.74960976      11.84649353
Re      14.04393374       8.46387014      11.60111912
Re      11.29312277       7.63042176      11.75906533
Re      16.51337726       9.28078422      11.58766499
Re      16.95728660      13.16408024      13.82661918
Re      17.04000494      10.53469820      13.80661199
Re      15.14502895      14.49739066      15.11418493
Re      15.25347866      11.85475420      15.24100070
Re      13.24236288      13.42404610      16.38412110
Re      11.47043676      10.93259186      16.35341540
Re      13.62602628       9.56657111      15.21284759
Re      11.09579007       8.80422015      15.04402150
Re      15.47592223       8.33563123      13.77956005
Re      12.96495568       7.55089606      13.75751075
Re       7.90888941      15.38626168      12.77051224
Re       8.05296191      15.32067104       9.76100605
Re      16.10276598       9.52013762      15.85447319
52
Properties=species:S:1:pos:R:3 config_type=qcd gap_pre_relax_energy=-557.455928802874 gap_pred_energy=-558.7438348376792 gap_fmax_final=0.0006843742937679759 gap_converged=1 pbc="F F F"
Re      10.48672977      11.31850479       8.87701004
Re      10.35666050      11.29409571      11.59494258
Re      12.88879893      12.18163923       8.93696006
Re      12.95280497      12.11550780      11.48163452
Re      10.99932970      13.50635427      10.21783335
Re      11.13051644      13.43577710       7.51381542
Re       8.87849287      13.37129515       8.77592961
Re      12.90074057      14.73451642       8.90501636
Re      10.42956257      15.56619463       8.79390229
Re       8.56504805      13.52650232      11.44071621
Re      12.85935704      14.83554205      11.62398017
Re      10.15800734      15.78071872      11.45916372
Re      10.17665819      11.37996492      14.45506112
Re      12.72688924      12.25136338      14.39876449
Re      10.91470269      13.54315439      13.02663213
Re      10.81588721      13.59119444      15.69429101
Re       8.61552093      13.55035406      14.09182438
Re      12.69628333      14.94540065      14.48416002
Re      10.13196497      15.69626427      14.10934587
Re      14.70848618      13.51735345      13.02436935
Re      14.86369936      13.64070368      10.39447186
Re      12.16208931      16.89609351      12.83022323
Re      12.27547882      16.84768640      10.21974310
Re      12.16154320       9.81715855      10.36309801
Re      12.20569031       9.97592284      12.99541093
Re       8.17239196      11.25018515      12.78406186
Re       8.27596757      11.18801427      10.17338515
Re      14.84694072      10.78555635      10.41983234
Re      14.74819487      10.83379650      13.05674815
Re      14.74241162      16.21170507      10.54756585
Re      14.68893213      16.21386286      13.04690390
Re       9.69653833       9.07148453      10.48914299
Re       9.65745666       9.09393278      12.98863980
Re      16.61923284      12.08350055      11.72107565
Re      16.50811177      14.95312828      11.88488504
Re      14.20515926       8.66761293      11.69314988
Re      11.46216385       7.81275275      11.82636201
Re      16.67229188       9.48500541      11.71070059
Re      17.08538584      13.41871988      13.86223421
Re      17.17247087      10.75895029      13.90072600
Re      15.21477336      14.72021547      15.14187389
Re      15.36964741      12.06562961      15.40588227
Re      13.38249529      13.37951415      16.57113635
Re      11.86587688      11.23365669      16.55380365
Re      13.77643330       9.81152067      15.38758802
Re      11.22473284       9.07431943      15.09588999
Re      15.62142571       8.56442582      13.88283332
Re      13.08567089       7.75931953      13.81608567
Re       8.02502603      15.58676360      12.82822959
Re       8.19248468      15.49277746       9.85559128
Re      14.15702277      11.21586150      17.47204860
Re      16.26165800       9.74036555      15.96716396
53
Properties=species:S:1:pos:R:3 config_type=qcd gap_pre_relax_energy=-566.9664905637075 gap_pred_energy=-568.7363107084444 gap_fmax_final=0.0008231865309466721 gap_converged=1 pbc="F F F"
Re      12.63775399      12.30425949      12.70398048
Re      12.28476992      12.27479788      15.34021798
Re      13.11957513       9.98553366      13.60927876
Re      10.54358248      10.88375262      13.60178202
Re      10.51254961      13.62427952      13.61714317
Re      13.05902470      14.63006417      13.64038882
Re      15.49496532      12.31018970      13.29488120
Re      11.74619776      10.08618709      11.28686867
Re      10.15219158      12.26419447      11.33282257
Re      11.68532478      14.48967918      11.30506694
Re      14.34205625      13.78218220      11.37345586
Re      14.35040511      10.90367151      11.31542809
Re      12.47140107      12.30502303       9.93945922
Re      13.07889595       9.92871493      16.10599754
Re      10.39318362      10.76738899      16.10741453
Re      10.29217849      13.64620670      16.12679752
Re      12.89199603      14.59873044      16.12825694
Re      14.72270547      12.30531316      15.65886534
Re      15.38367120      10.07066404      14.66625746
Re      13.55812246       7.79733801      14.87074916
Re      11.21554710       8.65137759      14.75449836
Re       8.50333812       9.75274309      14.72851005
Re       8.61654824      12.22481921      14.73941145
Re       8.76457282      15.15673633      14.75468207
Re      11.12144759      15.88949622      14.77735289
Re      13.95967591      16.75656800      14.65993192
Re      15.30671089      14.63617309      14.79938448
Re      14.81020430       8.50434816      12.46659751
Re      12.25171470       7.83346286      12.38791036
Re       9.78261968       8.72533186      12.40614680
Re       8.24707605      10.88398476      12.40183753
Re       8.20596349      13.57397416      12.44414639
Re       9.69612353      15.76581765      12.43316893
Re      12.13589079      16.77095878      12.43982412
Re      14.71394290      16.22164644      12.35408914
Re      16.53210633      14.52711256      12.50777547
Re      16.57556377      10.24464883      12.19457893
Re      13.61156820       8.69774830      10.16442638
Re      10.79617900       7.94067132      10.25767930
Re       9.44789171      10.07590204      10.13789104
Re       7.82346158      12.47010431      10.25518642
Re       9.39472589      14.42718327      10.13312652
Re      11.14047017      16.71949826      10.18084074
Re      13.46812957      15.86778167      10.04758256
Re      16.20325330      14.85596338      10.05920859
Re      16.13501070      12.38373144      10.23065334
Re      15.97734097       9.41934535       9.90279662
Re      11.77790493      10.15862410       8.71560027
Re      10.15308602      12.25338839       8.72760716
Re      11.68154274      14.40272025       8.70209686
Re      14.29354018      13.67447131       8.77465662
Re      14.37772606      11.00706099       8.76184815
Re      12.25112697      12.26099036       7.36639591
54
Properties=species:S:1:pos:R:3 config_type=qcd gap_pre_relax_energy=-578.8880397023686 gap_pred_energy=-580.220450033821 gap_fmax_final=0.0008218062575426027 gap_converged=1 pbc="F F F"
Re      12.27671213      12.27071108      12.54489407
Re      12.30671344      12.28797518      15.22909874
Re      12.91732648       9.97896030      13.51749399
Re      10.30061607      10.94439920      13.51024279
Re      10.39985524      13.73779207      13.50995589
Re      13.08649793      14.51126270      13.51718600
Re      14.65509643      12.18169935      13.52361664
Re      11.48131395      10.08275547      11.19349442
Re       9.95123330      12.34851754      11.19144889
Re      11.62480432      14.50990543      11.19823756
Re      14.20926652      13.58403403      11.22622606
Re      14.11861811      10.83628140      11.22488912
Re      12.30521012      12.27678211       9.81486789
Re      13.00340050       9.98160530      16.02486983
Re      10.32409474      10.89584468      16.02262145
Re      10.35921710      13.72142187      16.02411342
Re      13.06159873      14.56776485      16.02934942
Re      14.70275056      12.25351336      16.02953394
Re      15.27749499      10.00398212      14.69060445
Re      13.91126547       7.94219541      14.67460979
Re      11.04548382       8.72364361      14.70435572
Re       8.67317372       9.39188389      14.70062555
Re       8.52632798      12.34825501      14.70022649
Re       8.42635186      14.81721596      14.69437695
Re      11.18744770      15.86917316      14.69632319
Re      13.51655844      16.73440813      14.67157775
Re      15.36016595      14.42727295      14.68799114
Re      16.91123136      12.47986253      14.65585616
Re      14.79295309       8.65671131      12.40373167
Re      12.17868573       7.85407490      12.31456865
Re       9.61216235       8.76587985      12.39057477
Re       8.04878280      10.99110979      12.32097294
Re       8.12116377      13.72361954      12.37874873
Re       9.75328956      15.89831220      12.31860365
Re      12.36014752      16.67909383      12.39381355
Re      14.92935427      15.79165559      12.30154897
Re      16.49301431      13.56194771      12.41040790
Re      16.44212236      10.82828558      12.30077962
Re      13.33955147       8.69456115      10.04742994
Re      11.01780143       7.82196821      10.13288668
Re       9.20651081      10.15022045      10.04401941
Re       7.64448370      12.08357865      10.15076606
Re       9.30261548      14.53421800      10.04125583
Re      10.65825202      16.59759065      10.11636830
Re      13.48936626      15.81369046      10.04635627
Re      15.85001049      15.11069954      10.02014887
Re      16.02407352      12.20437137      10.05547703
Re      16.07523266       9.73801056      10.02690147
Re      11.56491379      10.14239407       8.61858269
Re      10.00276928      12.30144151       8.61086899
Re      11.61504597      14.43204907       8.61598431
Re      14.17953716      13.62196651       8.67114751
Re      14.15476807      10.89282449       8.67664384
Re      12.10448699      12.28152819       7.26364681
55
Properties=species:S:1:pos:R:3 config_type=qcd gap_pre_relax_energy=-590.183333151062 gap_pred_energy=-592.698336874943 gap_fmax_final=0.0008239189121217539 gap_converged=1 pbc="F F F"
Re      13.52932829      13.61069084      13.17696716
Re       9.03916506       9.44292160      12.27371855
Re      13.39915776       9.45018232      15.55092432
Re       8.78700605      13.58863373      14.74253313
Re      13.59519292      11.89577078      10.94537096
Re      12.99135348      12.41666573      15.62539923
Re      13.36414499      16.22124703      13.27326916
Re      13.55790638      15.11863222      10.90116404
Re      15.44304901      16.26543770      14.61467791
Re      13.07427608      10.93647751      13.40429117
Re      13.25373792       9.26647287      10.69725249
Re      10.88506143      13.68104364      16.16268802
Re       8.93050005      11.11141360      14.52184115
Re      15.50759151      13.44163845      10.17182820
Re       8.92121513      12.25462449      16.77925406
Re      13.26981637       8.39524374      13.10341756
Re      15.66824849      10.95745545       9.86514146
Re      15.43656359      10.83512757      14.79451229
Re      10.90911559      12.63151949      13.69378618
Re       9.09060467      13.61330221       9.84353420
Re      15.35443918       8.42489385      14.33857199
Re      11.19013980      15.24925412      14.02582642
Re       8.82918914      10.61469666       9.75343872
Re      13.44452509      15.04354269      15.63219642
Re      10.93849179       9.60194250      14.06464579
Re      11.14572917      11.90711759       9.20977717
Re      15.58272574      13.84030440      14.91605871
Re      15.71740413      12.45392585      12.52019827
Re      15.42800428      12.36046532       7.87605013
Re       9.13361294      12.15212234       7.63232053
Re      15.50845135      15.04926571      12.47345348
Re      11.07872973      15.09699007       9.11276254
Re       9.19084048      14.70474778       7.57336704
Re      15.16306274       9.91170021      12.26565552
Re       9.09126272      16.05184880      10.34972246
Re       9.13574650       9.69599070       7.36436137
Re      11.49814182      13.59534533      11.23091703
Re      10.95758292       9.33185018       9.06022047
Re      11.25862414      13.44360881       7.03146655
Re      11.21048099      16.12250930      11.55171981
Re       8.96860427       8.21274621      10.13158257
Re      11.27302561      10.86542089       6.87289821
Re      11.06791555      10.82907356      11.66220242
Re      13.27526089      13.45940946       8.73909592
Re      13.35971739      12.22924258       6.37174426
Re      11.07878809       8.26138918      11.42986567
Re      13.47690844      10.84534623       8.49197125
Re      15.26014299      12.28192533      16.99285779
Re       8.80626168      12.01175655      12.09423358
Re      10.91373688      11.00812568      16.22395372
Re      15.29375086      14.76010469      17.32789004
Re       9.35266949      14.55358926      12.37052315
Re      13.25615216      13.66708654      17.81853982
Re      15.30597288       9.77966588      17.13083076
Re      13.25336041      10.90098176      17.66999621
