3
Properties=species:S:1:pos:R:3 config_type=qcd gap_pre_relax_energy=-11.468678915376083 gap_pred_energy=-11.46958613684503 gap_fmax_final=0.0007323351361740684 gap_converged=1 pbc="F F F"
Rh      12.59992070      11.23696677      11.23696677
Rh      10.55548981      12.41745098      11.23696677
Rh      10.55548981      10.05648256      11.23696677
4
Properties=species:S:1:pos:R:3 config_type=qcd gap_pre_relax_energy=-16.83860034713142 gap_pred_energy=-16.982082106544528 gap_fmax_final=0.0005123479854938818 gap_converged=1 pbc="F F F"
Rh      13.53088163      14.64940816      15.00508251
Rh      15.77650568      13.90565697      14.30659327
Rh      15.20364925      16.30440691      14.26617922
Rh      15.48896344      15.14052797      16.42214500
5
Properties=species:S:1:pos:R:3 config_type=qcd gap_pre_relax_energy=-22.65926038234083 gap_pred_energy=-22.68657559040646 gap_fmax_final=0.0008969244425597686 gap_converged=1 pbc="F F F"
Rh       8.19560527       7.00683670       9.09236947
Rh       6.00431098       7.47670849       8.27796151
Rh       7.64339651       6.34919733       6.70827967
Rh       9.13101661       8.30579056       7.32494921
Rh       6.93968813       8.77548442       6.51045764
6
Properties=species:S:1:pos:R:3 config_type=qcd gap_pre_relax_energy=-28.60441677066012 gap_pred_energy=-28.649617453412166 gap_fmax_final=0.0009482635404547738 gap_converged=1 pbc="F F F"
Rh      13.06263361      13.06263361      11.81569378
Rh      10.56875395      13.06263361      11.81569378
Rh      10.56875395      10.56875395      11.81569378
Rh      13.06263361      10.56875395      11.81569378
Rh      11.81569378      11.81569378      13.57885853
Rh      11.81569378      11.81569378      10.05252903
6
Properties=species:S:1:pos:R:3 config_type=qcd gap_pre_relax_energy=-27.7387611885612 gap_pred_energy=-28.649617746329763 gap_fmax_final=0.0006619718033701456 gap_converged=1 pbc="F F F"
Rh      13.60729746      15.50509162      14.04370057
Rh      16.01459228      15.07024272      13.55955029
Rh      14.62547808      13.31200871      14.65383314
Rh      15.37453174      16.68798753      15.34606806
Rh      16.39271251      14.49488508      15.95634705
Rh      13.98538791      14.92978434      16.44050089
7
Properties=species:S:1:pos:R:3 config_type=qcd gap_pre_relax_energy=-33.999996189998136 gap_pred_energy=-34.064392087041554 gap_fmax_final=0.0007436156625442908 gap_converged=1 pbc="F F F"
Rh       6.33627579       8.01747003       7.73153259
Rh       8.19119189       9.33634398       6.86533453
Rh       7.80576978       6.29162092       8.33570342
Rh       9.70016340       7.56430670       7.48594103
Rh       7.43503721       9.53912208       9.28324829
Rh       9.88738274       9.78387889       8.69409473
Rh       8.94381569       7.76689391       9.90378191
7
Properties=species:S:1:pos:R:3 config_type=qcd gap_pre_relax_energy=-33.454013858064876 gap_pred_energy=-33.55729381657789 gap_fmax_final=0.000809440532216341 gap_converged=1 pbc="F F F"
Rh      14.18046665      12.08396514      12.08396514
Rh      12.73181640      14.07781123      12.08396514
Rh      12.73181640      10.09011905      12.08396514
Rh      10.38784047      13.31615037      12.08396514
Rh      10.38784047      10.85177990      12.08396514
Rh      12.08398777      12.08396514      13.57731920
Rh      12.08398777      12.08396514      10.59061108
8
Properties=species:S:1:pos:R:3 config_type=qcd gap_pre_relax_energy=-40.26797339451783 gap_pred_energy=-40.31312538027554 gap_fmax_final=0.0009762617703438178 gap_converged=1 pbc="F F F"
Rh       5.99725698       5.99720165       5.99725143
Rh       8.39780674       5.99725864       5.99717798
Rh       5.99736045       8.39772900       5.99735796
Rh       8.39788897       8.39780951       5.99726438
Rh       5.99717516       5.99725490       8.39780166
Rh       8.39770365       5.99733674       8.39770595
Rh       5.99725929       8.39780555       8.39788597
Rh       8.39780875       8.39786401       8.39781467
8
Properties=species:S:1:pos:R:3 config_type=qcd gap_pre_relax_energy=-39.53402028767171 gap_pred_energy=-39.559758511970315 gap_fmax_final=0.0004812613360887329 gap_converged=1 pbc="F F F"
Rh      10.89632461      10.79221622       9.33663997
Rh      10.46348712       8.47259536       8.34878034
Rh      10.18635077       8.84247793      10.82396569
Rh       8.72006723       7.23252069       9.67653331
Rh       8.23288658       7.86760567       7.25232916
Rh       8.82883795      10.26221067       7.92669726
Rh       7.12329457       8.98062454       9.26411823
Rh       8.58952749      10.59052524      10.41171237
8
Properties=species:S:1:pos:R:3 config_type=qcd gap_pre_relax_energy=-39.37519543046179 gap_pred_energy=-39.44559323581656 gap_fmax_final=0.0007726244437842705 gap_converged=1 pbc="F F F"
Rh      12.02538602      11.56438975      13.68725570
Rh      13.68725570      12.48638229      12.02538602
Rh      12.02538602      14.03009819      13.25378793
Rh      10.36351634      12.48638229      12.02538602
Rh      12.02538602      14.03009819      10.79698412
Rh      10.79698412      10.02067385      12.02538602
Rh      12.02538602      11.56438976      10.36351634
Rh      13.25378793      10.02067386      12.02538602
9
Properties=species:S:1:pos:R:3 config_type=qcd gap_pre_relax_energy=-45.50564313439466 gap_pred_energy=-45.552849920189324 gap_fmax_final=0.0008413822739773931 gap_converged=1 pbc="F F F"
Rh       7.59201368       7.29885528       7.65404014
Rh       9.95802344       7.04011636       7.95021798
Rh       7.37792254       8.12639891       9.89215728
Rh       9.79157496       7.86246353      10.19429349
Rh       7.93793158       9.52724568       6.83733476
Rh       7.73079462      10.39972351       9.05897769
Rh       8.61527747       9.79286497      11.37035010
Rh      10.30393375       9.26848903       7.13349064
Rh      10.14447847      10.13579323       9.36108844
9
Properties=species:S:1:pos:R:3 config_type=qcd gap_pre_relax_energy=-45.07369399336467 gap_pred_energy=-45.09691050161796 gap_fmax_final=0.0009564252415104142 gap_converged=1 pbc="F F F"
Rh      16.08598565      16.56999979      15.00576497
Rh      16.67418367      14.12400108      15.27247000
Rh      13.18470808      14.61220095      15.44591656
Rh      14.19646046      15.95764628      13.55743152
Rh      14.78458549      13.51157701      13.82425625
Rh      14.74924702      12.75550595      16.27596301
Rh      13.70479480      17.09949207      15.80202661
Rh      15.07430575      15.22446418      16.89437197
Rh      16.54572907      15.14511268      12.92179911
10
Properties=species:S:1:pos:R:3 config_type=qcd gap_pre_relax_energy=-51.38985212569248 gap_pred_energy=-51.436195712245066 gap_fmax_final=0.0008975515828714379 gap_converged=1 pbc="F F F"
Rh       7.04344076       6.38175419       7.04661237
Rh       9.45271897       6.38174713       7.04653523
Rh       7.01590853       8.77992890       7.05697334
Rh       9.48024722       8.77992088       7.05687990
Rh       8.24808338      10.91746588       7.06403432
Rh       7.04351444       6.38167534       9.44958409
Rh       9.45279251       6.38166383       9.44950765
Rh       7.01599929       8.77985098       9.43940164
Rh       9.48033875       8.77983769       9.43930869
Rh       8.24818616      10.91738518       9.43239275
10
Properties=species:S:1:pos:R:3 config_type=qcd gap_pre_relax_energy=-50.62460141124274 gap_pred_energy=-50.69063485892699 gap_fmax_final=0.0009236544652048998 gap_converged=1 pbc="F F F"
Rh      12.88282878      12.65924205      13.23726577
Rh      13.07921730      10.13928074      13.61268711
Rh      10.79967055      11.18542886      13.12803513
Rh      10.57961719      13.66593846      13.69749161
Rh      11.98794246       9.89999388      11.35850607
Rh       9.94109557      12.78799885      11.42787821
Rh      11.89694526      14.56314660      11.76522270
Rh      14.28360219      13.69726619      11.35446208
Rh      14.31833739      11.14671156      11.68303513
Rh      12.23775255      12.26200205      10.74242543
10
Properties=species:S:1:pos:R:3 config_type=qcd gap_pre_relax_energy=-50.96421291513255 gap_pred_energy=-51.00338479920632 gap_fmax_final=0.0007645522676989476 gap_converged=1 pbc="F F F"
Rh      16.46471413      15.92003361      16.44447437
Rh      13.53521727      14.07994243      13.55543310
Rh      13.60951720      16.58202142      13.16167546
Rh      15.92442436      14.25770630      14.53522791
Rh      15.43979979      15.11234480      12.24146044
Rh      14.56012869      14.88766702      17.75853040
Rh      14.07543545      15.74212404      15.46473159
Rh      14.02952507      13.19920785      15.94545959
Rh      15.97060252      16.80068536      14.05460079
Rh      16.39063553      13.41826718      16.83840632
11
Properties=species:S:1:pos:R:3 config_type=qcd gap_pre_relax_energy=-56.41164096847572 gap_pred_energy=-56.58340056140153 gap_fmax_final=0.0008561349103700337 gap_converged=1 pbc="F F F"
Rh       6.52073345       7.51834647       6.87229946
Rh       8.97820543       8.16088924       7.31652702
Rh       8.61334971       7.70717893       9.87320058
Rh       7.43145927       9.77971310       6.10983867
Rh      10.67463032       9.04795096       9.04412526
Rh      10.50871467       6.54728709       8.55051186
Rh       8.08330217       5.87696318       8.11167895
Rh       8.77734125      10.20949172      10.28304248
Rh       7.04732302       9.35218889       8.63115636
Rh       9.11199998      10.68937091       7.80481425
Rh       6.20889272       7.06657150       9.35875711
11
Properties=species:S:1:pos:R:3 config_type=qcd gap_pre_relax_energy=-56.06855975368045 gap_pred_energy=-56.21502396000787 gap_fmax_final=0.0005905897386616119 gap_converged=1 pbc="F F F"
Rh      10.33221123       9.96960467       8.65769078
Rh      11.83386700      10.01071537      10.74184707
Rh       7.27689704       8.81054588       8.04251687
Rh       8.12226948      11.16059074       8.56230947
Rh       8.54812665       7.41944409       9.85251327
Rh       9.58545562       7.83047616       7.57261958
Rh      11.05156523       7.82668625       9.75388837
Rh       9.74623254       8.80421387      11.71638379
Rh       9.58791388      11.15687542      10.74284995
Rh       7.57754838       9.62446075      10.50863319
Rh       8.96952445      10.01799829       6.48035915
12
Properties=species:S:1:pos:R:3 config_type=qcd gap_pre_relax_energy=-63.72327747586228 gap_pred_energy=-63.89541321997411 gap_fmax_final=0.0002444868123453307 gap_converged=1 pbc="F F F"
Rh       7.18153750       7.18438478       5.98472585
Rh       7.18604793       7.18337223       8.39124526
Rh       7.19407616       7.18587191      10.79775698
Rh       9.58407011       7.18705892       5.97845685
Rh       9.59212974       7.18605601       8.38497526
Rh       9.59660869       7.18854831      10.79150002
Rh       7.17887004       9.58692356       5.98397673
Rh       7.18337116       9.58946157       8.39051003
Rh       7.19141295       9.58840888      10.79703502
Rh       9.58139292       9.58959097       5.97770561
Rh       9.58945075       9.59214448       8.38423699
Rh       9.59393603       9.59108236      10.79077937
12
Properties=species:S:1:pos:R:3 config_type=qcd gap_pre_relax_energy=-61.9880157927253 gap_pred_energy=-62.45250176046293 gap_fmax_final=0.0007197980140393217 gap_converged=1 pbc="F F F"
Rh       7.08254979       7.72456470       9.72730406
Rh       9.38706067       8.01369491       8.84308566
Rh       7.44237892       8.87905035       7.43342596
Rh       9.90479752       9.23955236       6.71141972
Rh      11.24288766      10.44401417       8.40831353
Rh       9.29201659      10.27313098       9.99359657
Rh       7.86021675       9.04820479      11.65952320
Rh      11.67992917      10.03818403      10.86716430
Rh       8.62374297      11.14683369       7.73563616
Rh       6.83036066      10.24924150       9.49302863
Rh      11.83968923       8.13404634       9.22510415
Rh      10.12536679       8.12047891      11.21339477
13
Properties=species:S:1:pos:R:3 config_type=qcd gap_pre_relax_energy=-69.05797157337614 gap_pred_energy=-69.22548562253465 gap_fmax_final=0.0008159654798165194 gap_converged=1 pbc="F F F"
Rh       6.87269404       7.25661659       6.05368733
Rh       7.03715903       7.26071112       8.45063526
Rh       7.15241193       7.26082696      10.84753322
Rh       9.26269313       7.25700307       5.87817319
Rh       9.44353575       7.23366094       8.28249406
Rh       9.54383008       7.23573268      10.74769912
Rh       6.87431434       9.66295333       6.05196575
Rh       7.03877332       9.66206481       8.44891749
Rh       7.15402576       9.66522062      10.84581359
Rh       9.26431039       9.65909706       5.87645426
Rh       9.44518386       9.68563912       8.28073972
Rh       9.54547518       9.68696167      10.74594590
Rh      11.35130670       8.45922555       9.47565462
13
Properties=species:S:1:pos:R:3 config_type=qcd gap_pre_relax_energy=-68.62534333803335 gap_pred_energy=-68.72635975662966 gap_fmax_final=0.0007371089351074666 gap_converged=1 pbc="F F F"
Rh       9.09938714      11.61988393      11.87886490
Rh       9.58332266      12.60649982       9.57104353
Rh      10.17129412       9.35750844      12.57541951
Rh      10.68785022      10.38403177      10.26802561
Rh      11.14697505      11.34703178       7.92138712
Rh       7.29324589      11.60693912      10.07904087
Rh       8.30394701       9.41823367      10.79871431
Rh      12.20131448       9.12146146       8.60652955
Rh      11.70936063       8.11836176      10.95276440
Rh       9.36793591       7.22700307      11.42760864
Rh       8.79736893      10.42420039       8.44548278
Rh      10.32025709       9.16855347       6.88560136
Rh       9.87243585       8.15498631       9.14421240
14
Properties=species:S:1:pos:R:3 config_type=qcd gap_pre_relax_energy=-74.28443226768164 gap_pred_energy=-74.49047163758914 gap_fmax_final=0.0007989326167616597 gap_converged=1 pbc="F F F"
Rh       8.57756953       8.60561247       7.63913521
Rh      11.15119246       8.62285673       7.34051455
Rh       5.99436538       8.62521395       7.43932973
Rh       9.87736495      10.83292285       7.38758478
Rh       7.27145474      10.83407570       7.43734368
Rh       9.84660013       6.36634042       7.34241319
Rh       7.29569664       6.36746633       7.39145513
Rh       8.61519508      10.35899700       9.56627796
Rh      11.11540510      10.02975627       9.46882368
Rh       6.11277693      10.03222889       9.56437004
Rh      10.14869163       7.69884850       9.50961212
Rh       7.07831053       7.70052190       9.56858823
Rh       8.61112774       5.69794610       9.47247541
Rh       8.64606517       8.56902888      11.21389229
14
Properties=species:S:1:pos:R:3 config_type=qcd gap_pre_relax_energy=-74.49501638680127 gap_pred_energy=-74.64299294341525 gap_fmax_final=0.0008037077213290011 gap_converged=1 pbc="F F F"
Rh       7.31037021       8.19246918       6.59501416
Rh       7.32203659      10.57052304       6.58682462
Rh       7.71283235       8.19666781       9.00419006
Rh       7.72444301      10.57888529       8.99601321
Rh       8.21505508       8.20122631      11.43225911
Rh       8.22661604      10.58599737      11.42410825
Rh       9.65062740       8.17029782       7.28030371
Rh       9.66237856      10.57448885       7.27206064
Rh      10.16656389       8.14187571       9.75746706
Rh      10.17855650      10.61494675       9.74903420
Rh      10.56420675       8.17491978      12.23423215
Rh      10.57591790      10.59495189      12.22600422
Rh      12.24796584       9.37149698      10.66596337
Rh      11.77621986       9.36504322       8.11031524
15
Properties=species:S:1:pos:R:3 config_type=qcd gap_pre_relax_energy=-80.14680056582216 gap_pred_energy=-80.23154629608771 gap_fmax_final=0.0007690039032543074 gap_converged=1 pbc="F F F"
Rh      10.03692117       7.24773571       6.44677502
Rh       6.97651124       7.25734824       8.51640681
Rh       9.90703493       7.24523216      10.76620588
Rh       7.82136560       8.57527704       6.46454348
Rh       9.38581281       8.55556768       8.58958262
Rh       7.69648431       8.57290623      10.61683092
Rh       9.93652816       9.84980503      10.76863850
Rh       7.00647346       9.90814471       8.51883008
Rh      10.06636443       9.85227197       6.44906356
Rh       7.87561794      11.09851177       6.45141392
Rh       9.28079622      11.10749164       8.58786934
Rh       7.74979829      11.09614125      10.63608696
Rh       7.69258310       6.04914765      10.63176805
Rh       9.22296918       6.00662801       8.58323038
Rh       7.81850164       6.05155342       6.44651698
15
Properties=species:S:1:pos:R:3 config_type=qcd gap_pre_relax_energy=-80.04432281628392 gap_pred_energy=-80.3506064397256 gap_fmax_final=0.0006606583690101104 gap_converged=1 pbc="F F F"
Rh      12.49524731      10.91307446       8.25498179
Rh      11.92349780      10.93327772      10.55624629
Rh      10.09445475      10.78819579       7.63482282
Rh      11.45115294       8.71631945       8.00283018
Rh       7.78001964      11.28316561       7.07258267
Rh      11.34015582       9.82153896      12.62800783
Rh       9.55134859      10.94764441       9.95987591
Rh       9.59100087       7.25494361       7.68536798
Rh      10.93188418       8.67692564      10.37188890
Rh       9.04149410       9.59279490      11.86529965
Rh       8.25982867       9.15846505       8.42285109
Rh       7.17518192      11.14564587       9.41424221
Rh       9.68734085       6.61303554      10.01057987
Rh       6.63081530       9.92161754      11.37089451
Rh       7.76570976       7.95248797      10.46866083
15
Properties=species:S:1:pos:R:3 config_type=qcd gap_pre_relax_energy=-80.01380468631527 gap_pred_energy=-80.28880285028802 gap_fmax_final=0.0008959836867099162 gap_converged=1 pbc="F F F"
Rh      10.40837458      11.61915782      11.46546908
Rh      11.77738348       9.51623622      10.83657470
Rh       9.73172562       9.26245041      12.34130050
Rh       9.24870354      12.57429252       9.32296438
Rh       8.51427786      10.37896702      10.30765108
Rh      11.57089186      11.51257328       9.18914030
Rh      11.07732954       7.22972847      11.39418574
Rh      10.64048675       6.87017031       8.94122746
Rh       8.81004402       7.84542192      10.42516211
Rh       9.82978302      11.21855376       7.23458844
Rh       7.43428323      11.11668960       8.12711441
Rh      10.30178340       9.31735625       8.87502128
Rh       6.83757374       8.77329792       9.09238636
Rh       8.23636959       6.74995002       8.20468474
Rh       8.53438855       8.96855325       7.19592820
16
Properties=species:S:1:pos:R:3 config_type=qcd gap_pre_relax_energy=-86.04556029749153 gap_pred_energy=-86.11668738006522 gap_fmax_final=0.0009022929856043596 gap_converged=1 pbc="F F F"
Rh      11.23716916      10.93586768      10.93588126
Rh      11.28856289      10.93587428      13.61554976
Rh      12.01617673       8.82557895      12.22589391
Rh       9.45636323       9.59228440      12.25664438
Rh       9.45648548      12.27964336      12.25660507
Rh      12.01640881      13.04606801      12.22589846
Rh      13.50670083      10.93574414      12.19536358
Rh      10.25902181       7.55044462      10.93588060
Rh       7.73702954      10.93594984      10.93587946
Rh      10.25947060      14.32144786      10.93588100
Rh      13.50670277      10.93574113       9.67639811
Rh      12.01641292      13.04606721       9.64587027
Rh       9.45648692      12.27964430       9.61515674
Rh       9.45636426       9.59228510       9.61511517
Rh      12.01617542       8.82557875       9.64586611
Rh      11.28856501      10.93587676       8.25621254
16
Properties=species:S:1:pos:R:3 config_type=qcd gap_pre_relax_energy=-86.00740068237992 gap_pred_energy=-86.28296489264217 gap_fmax_final=0.0009146750116253724 gap_converged=1 pbc="F F F"
Rh      11.99685014      10.38344187      11.88585269
Rh      11.87897765       8.05486217      11.32478596
Rh      10.77138528      11.60116528       7.41196359
Rh      11.34730649       8.62610138       9.04789768
Rh      11.42277216      10.95554875       9.62860118
Rh      10.54322218       9.27732907       6.75151459
Rh       9.68506782      10.37470558      12.53970660
Rh       9.56882130       8.01923191      11.99661715
Rh       9.10913114      11.01762395      10.25057032
Rh       9.61314022       7.16428591       7.68476321
Rh       8.96826708       8.49182541       9.67892721
Rh       8.59105941      10.44167286       7.90028277
Rh       7.93407946       8.45801038       6.46855004
Rh       7.43634338       9.48619778      11.44097871
Rh       6.65149918      11.08419344       9.64493226
Rh       6.76191980       8.84364698       8.62389874
17
Properties=species:S:1:pos:R:3 config_type=qcd gap_pre_relax_energy=-92.17418647858099 gap_pred_energy=-92.27080938997011 gap_fmax_final=0.0007402963518488955 gap_converged=1 pbc="F F F"
Rh      11.06484345      11.02758422      10.92900969
Rh      11.12292801      11.06973305      13.63451582
Rh      11.78827812       8.90511219      12.23945986
Rh       9.28232505       9.73423453      12.36160414
Rh       9.27154836      12.37368153      12.23942680
Rh      11.81311634      13.16354338      12.22701853
Rh      13.32756899      11.07630056      12.22706760
Rh      13.98727599       9.01371280      10.92900829
Rh       9.86911501       7.77695337      10.92900879
Rh       7.60361764      10.89919365      10.92901115
Rh      10.05679676      14.43051046      10.92901229
Rh      13.32756805      11.07630177       9.63095095
Rh      11.81311617      13.16354359       9.63100596
Rh       9.27154806      12.37368235       9.61859615
Rh       9.28232515       9.73423667       9.49641596
Rh      11.78827698       8.90511427       9.61855765
Rh      11.12292694      11.06973668       8.22350547
17
Properties=species:S:1:pos:R:3 config_type=qcd gap_pre_relax_energy=-92.09912659563517 gap_pred_energy=-92.24372950913741 gap_fmax_final=0.000892714549419464 gap_converged=1 pbc="F F F"
Rh      13.69921198      12.61603095      15.06401433
Rh      11.32601486      11.63099348      15.22587407
Rh      11.70849063      14.14780202      15.49242521
Rh      13.99039762      15.18826705      15.50077138
Rh      12.79099725      10.58098655      13.44733345
Rh      10.69350643      13.20330201      13.32297025
Rh      12.51684294      15.26564278      13.36901906
Rh      15.08545060      14.25209579      13.47872255
Rh      15.25447143      11.52012445      13.32627416
Rh      13.15644231      12.93831265      12.54569256
Rh      13.18582637      12.94756923       9.86263404
Rh      11.41323706      11.63003618      11.29360569
Rh      13.96735535      10.82461171      11.14465270
Rh      11.42121030      14.36728289      11.14239393
Rh      13.94305780      15.09963416      11.20479642
Rh      15.47567171      12.99910894      11.19771904
Rh      10.20891749      10.62530128      13.21820328
18
Properties=species:S:1:pos:R:3 config_type=qcd gap_pre_relax_energy=-98.98611383030939 gap_pred_energy=-99.11922524653217 gap_fmax_final=0.0009553518403904406 gap_converged=1 pbc="F F F"
Rh       9.08164016       8.77762650       8.18340957
Rh      10.00388655      10.25659731      10.11809836
Rh       9.70439554      12.86081500       9.97287543
Rh      10.25075892       7.65713570      10.25561625
Rh       8.56166889       8.92097727      11.82597864
Rh      11.15392963       9.16392484      12.19682902
Rh       7.74995386       7.48735036       9.90531235
Rh      10.87844547      11.77487792      12.04443167
Rh      12.74118921       7.99783588      10.59771648
Rh      12.58004417      10.52651260      10.47521507
Rh      11.67680241       9.01977055       8.53397328
Rh       8.30147290      11.52011829      11.66599016
Rh      10.50526056      10.12037947       6.57921792
Rh       8.81571359      11.37837596       8.06366749
Rh       9.49510221      10.39884892      13.65563915
Rh       7.41267278      10.03779672       9.75677263
Rh      12.25076488      13.03166348      10.32962014
Rh      11.39845443      11.63154942       8.40179254
18
Properties=species:S:1:pos:R:3 config_type=qcd gap_pre_relax_energy=-97.8409933940366 gap_pred_energy=-98.46273505282207 gap_fmax_final=0.0008944782692176454 gap_converged=1 pbc="F F F"
Rh      12.64679232      10.44795991       7.66918326
Rh       8.25626905      10.47028869       7.71616419
Rh       9.15983998       8.22640419      12.20485940
Rh      11.78190342       8.13615815      12.13950803
Rh      11.20500506      12.33364701      12.12028497
Rh       8.85390406      13.02646217      12.02050195
Rh       8.30242953      10.61044834      12.15009538
Rh      12.89962501      10.43383213      12.02152942
Rh      10.40924420       7.49507682      10.06398390
Rh      10.47143314      13.54675029       9.99782476
Rh      10.43646787       9.26417942       8.23086966
Rh      10.47685797      11.78616685       8.06200745
Rh      10.57193349      10.16742670      13.34085528
Rh       8.33889897       9.14231545       9.87442435
Rh      12.32645954      11.73747820       9.82770532
Rh       8.64819966      11.76785712       9.83905561
Rh      12.55756749       9.05757775       9.77931167
Rh      10.48649421      10.17929585      10.77116040
19
Properties=species:S:1:pos:R:3 config_type=qcd gap_pre_relax_energy=-104.44046534917847 gap_pred_energy=-104.62085722017311 gap_fmax_final=0.0009493505787146213 gap_converged=1 pbc="F F F"
Rh       9.98035379       7.53595996       8.01798280
Rh       9.84649278       9.64780516       6.47703806
Rh       7.88186403       9.06876749       8.03323122
Rh       7.72946913       6.61313027       8.75626106
Rh      11.95910725       9.29449319       8.02294372
Rh       8.11442552      11.50683520       7.35604092
Rh       9.41783191       7.33335686      10.54697882
Rh       8.90888778       9.51967031      11.86602083
Rh      11.11572065       8.11580344      12.26795484
Rh      12.17515693       9.73289782      10.60732824
Rh      10.97679661      10.69475054      12.70298047
Rh       8.84295585      12.08385808      11.85264340
Rh      11.88153595       7.34850497       9.80759184
Rh       7.70406348      10.88091419       9.89420676
Rh       7.06733679       8.41533850      10.40498426
Rh       8.92035729      13.01826626       9.33731170
Rh       9.90915937       9.68298913       9.54370329
Rh      10.94225504      11.92672577      10.46148841
Rh      10.58071775      11.53442078       7.99779728
19
Properties=species:S:1:pos:R:3 config_type=qcd gap_pre_relax_energy=-104.41677691173571 gap_pred_energy=-104.55782746186783 gap_fmax_final=0.0009093826196861773 gap_converged=1 pbc="F F F"
Rh       9.28970762      11.52092672       7.87893116
Rh      10.19630731       9.12103330       8.01112619
Rh      11.83362317      11.02765638       8.40053222
Rh      10.79498198      11.20508093      10.63149854
Rh       8.59441126      10.09076905       9.84863825
Rh      10.71332031      13.36822719       8.86195628
Rh      12.58203376       8.70197416       9.06951536
Rh      12.86296996      12.78865956      10.16630367
Rh      10.48069552       8.48549859      10.46046081
Rh      13.20303729      10.35335535      10.90207309
Rh      12.73878604       7.89778772      11.53166473
Rh      10.71326791      13.78147152      11.42093036
Rh       8.66061514      12.61426245      10.29666449
Rh      10.47116351       7.40429935      12.75272905
Rh       7.27367751      11.14647246      11.80783351
Rh      12.24711876      12.11843103      12.64748299
Rh      11.37646626       9.73409606      12.69996332
Rh       9.56827618      11.79358362      12.74946754
Rh       8.85826333       9.30513743      12.32095130
20
Properties=species:S:1:pos:R:3 config_type=qcd gap_pre_relax_energy=-110.52695947857595 gap_pred_energy=-110.88864185529728 gap_fmax_final=0.0008779052970753921 gap_converged=1 pbc="F F F"
Rh       8.48641795      10.69208249       8.11296918
Rh      10.53855711      12.18499419       8.40581221
Rh       8.36891407      12.89744653       9.56373744
Rh      10.80522352       9.63502487       8.29159618
Rh       8.84012594       8.39055327       9.36188872
Rh      11.12385305       8.33649121      10.60746802
Rh      12.75646575      12.36537906       9.55711534
Rh      13.02300866       9.81542532       9.44324386
Rh      10.93823888      10.83839104      10.57283008
Rh      10.60368432      13.31164507      10.82992569
Rh      14.34916173      11.16899279      11.15653564
Rh      12.95457915      13.27048200      11.94400021
Rh       8.45290626      10.57560069      10.63782491
Rh       8.95444003       8.37068685      11.94177144
Rh      13.42558443       8.76377389      11.74274218
Rh      12.32865144      10.89096655      12.64993217
Rh       8.50081474      12.71258732      12.13638848
Rh      10.81028742      12.90029355      13.33503842
Rh      11.26374233       8.55860502      13.14091711
Rh       9.76839991      10.61363499      12.86131942
20
Properties=species:S:1:pos:R:3 config_type=qcd gap_pre_relax_energy=-110.49528021961551 gap_pred_energy=-110.7878520550758 gap_fmax_final=0.0009073970982368743 gap_converged=1 pbc="F F F"
Rh       9.23000856      10.36863777       6.80789686
Rh       8.14322066       8.03526215       7.22284503
Rh      10.69240050       8.16749466       7.25801321
Rh      10.41771009      12.57515827       7.23515226
Rh      11.58963647      10.46679908       8.01246006
Rh       9.30365492       9.62018110       9.22565044
Rh      11.67261838       8.43304662       9.62272038
Rh       6.91927655      10.10193770       8.17143159
Rh       8.33821994      12.13869655       8.56364787
Rh       9.52080184       7.00523400       9.24371644
Rh       7.16745348       8.01674696       9.63814695
Rh       8.38320623      11.38985381      10.97972635
Rh      10.61089452      12.01133404       9.79017825
Rh      12.75761274      10.65376813      10.34221476
Rh      10.35988362       7.50542636      11.65968433
Rh       6.23319966      10.25831006      10.56405211
Rh       8.16729640       6.41506867      11.31606335
Rh      10.55576969      10.08932604      11.52991101
Rh       8.21825755       8.96727053      11.71000555
Rh      12.58201825       8.64358755      11.96962323
21
Properties=species:S:1:pos:R:3 config_type=qcd gap_pre_relax_energy=-116.86219734174628 gap_pred_energy=-116.98918777033562 gap_fmax_final=0.0007047133358329971 gap_converged=1 pbc="F F F"
Rh      14.19840599      10.09414160      11.14963676
Rh      13.77779893      12.38957157      10.13332378
Rh      12.42364714      11.63799221      12.23340274
Rh      12.88270569       9.33835800      13.28321592
Rh      12.07077818      13.99994931      11.26722060
Rh      12.48942678      10.24755471       9.15174133
Rh      10.60818253      10.58004856      10.86080780
Rh      12.26330001       8.49126370      10.98589712
Rh      11.10313459      10.87886150      14.31247328
Rh      10.72854171      13.23990743      13.35008482
Rh      11.41201420      12.57123472       9.23244237
Rh      10.37001859       8.94277771      12.78887466
Rh      10.89541937       8.60736975       8.11781653
Rh       9.65891347      13.00818089      11.03128579
Rh       9.07837264      11.31127477      12.84405861
Rh       8.98935575      10.11820704       9.06310733
Rh      10.66900291      11.01962113       7.38498022
Rh       9.91482798       7.99620455      10.33101176
Rh       8.93633793      12.59692753       8.58298714
Rh       8.14280117       9.40574010      11.47900019
Rh       7.55773501      11.69553379      10.58735183
21
Properties=species:S:1:pos:R:3 config_type=qcd gap_pre_relax_energy=-116.6280903466684 gap_pred_energy=-116.91315614932165 gap_fmax_final=0.0009626259552410856 gap_converged=1 pbc="F F F"
Rh      11.50064989       9.73676045      14.73588165
Rh      10.25470197      11.94986349      14.51224540
Rh      13.95804562      10.59664583      11.41948652
Rh      10.57908213      13.14636620      12.15135684
Rh      12.30917842      11.51848681      13.11526873
Rh      12.13690504       9.02148869      12.39660850
Rh      12.90386697      12.86061769      10.96207991
Rh       9.79282516       9.98217289      12.86105354
Rh      12.97144438      10.03712445       9.24378518
Rh       8.33368267      12.11943402      12.88127027
Rh      10.15705395       8.60796843      10.64019104
Rh      13.01300924      12.42857756       8.49386559
Rh       8.50364064      13.38369333      10.66532600
Rh      12.60281068       7.81079905      10.28760492
Rh      11.12282199      10.93812422      10.78252450
Rh       8.56774717      10.76649811      10.72435973
Rh      10.77319020      13.15357105       9.51457786
Rh      11.15329308       8.40466118       8.28500481
Rh      10.86601262      10.96461631       8.18207772
Rh       8.59549073      12.04667716       8.50668376
Rh       8.83213070       9.45343631       8.56633077
22
Properties=species:S:1:pos:R:3 config_type=qcd gap_pre_relax_energy=-123.1528290289875 gap_pred_energy=-123.23144133214564 gap_fmax_final=0.000611132228391719 gap_converged=1 pbc="F F F"
Rh       9.17537334       8.15775756      11.60685372
Rh      11.87756204      10.60084613      14.13376930
Rh       9.55049762       9.61982719      13.66982807
Rh      11.56076928       9.13361243      12.09586611
Rh      11.18443427       7.71154071       9.98023819
Rh       8.80399253       6.79947112       9.47349378
Rh      10.76247640       6.38724415       7.86512218
Rh      12.72700559       9.82937818       9.85147922
Rh      13.04271235      11.26342148      11.94376030
Rh       8.12170504      10.57690455      11.77859836
Rh      10.48635465      11.60032228      12.27079515
Rh      12.29615151       8.44305542       7.74765741
Rh      10.11999180      10.11988296      10.11991465
Rh       9.08313663      12.53579203      10.32274298
Rh       9.71617216       8.69047882       7.94147111
Rh       7.73542504       9.11773661       9.60740980
Rh       6.76722299      11.47517780       9.80563196
Rh      11.67330366      12.24855595      10.02314091
Rh      11.28699842      10.78938306       7.85205569
Rh       7.71984924      13.37240637       8.36144110
Rh       8.68919604      11.04801536       8.10890212
Rh      10.25938712      13.11890754       8.07954558
22
Properties=species:S:1:pos:R:3 config_type=qcd gap_pre_relax_energy=-122.34865979500287 gap_pred_energy=-122.6350706983702 gap_fmax_final=0.0009205559625370437 gap_converged=1 pbc="F F F"
Rh      12.03010842       9.73485804      14.74113131
Rh      11.84242046      12.20803364      14.59559398
Rh       8.11750470      11.11668506      11.95355348
Rh      11.32921926      14.02095755      12.82735491
Rh      11.35076871       8.10506681      12.78461908
Rh      10.47348255      11.11472624       7.26514306
Rh      10.19874086       8.95046859       8.66736714
Rh      10.23062842      13.28493028       8.65516348
Rh      12.68212441      12.42579434       8.12140791
Rh      12.68301685       9.80419437       8.10285267
Rh       9.75351706       9.93216006      13.69691204
Rh       9.36266460      12.51173195      13.73438389
Rh      13.07588795       9.91797454      12.48064367
Rh      13.50008921      12.45961268      12.55286222
Rh       8.69968760      11.13689727       9.41654627
Rh      13.64687609      11.12079805      10.26647748
Rh      12.15447872      13.37398305      10.48197308
Rh      12.19838132       8.75488942      10.39460281
Rh       9.80390787       9.39017505      11.18261841
Rh       9.54610236      13.06940136      11.09042229
Rh      11.16968361      11.09788648       9.74056240
Rh      11.15091433      11.46898050      12.24801376
23
Properties=species:S:1:pos:R:3 config_type=qcd gap_pre_relax_energy=-128.86573834431564 gap_pred_energy=-129.76095940441675 gap_fmax_final=0.0008561246744909479 gap_converged=1 pbc="F F F"
Rh      12.65490116      12.59589939       9.49696171
Rh      13.48492380       9.95357778      11.53173643
Rh      11.26462866      14.21867010      10.91063201
Rh      14.11292965      12.36392501      11.50341203
Rh      14.29857202      10.74810764       9.32918656
Rh      11.36366746       8.74489706      12.24887738
Rh      10.71356360      12.12409440      14.79192056
Rh      10.12711092      12.68211131       9.21857675
Rh      10.08183302      14.13739407      13.24257800
Rh      12.45547783      10.42612441      13.82975093
Rh      11.60626750      11.65226085       7.38981842
Rh      11.87898959      12.45041624      12.52889479
Rh       8.75717260      13.66601166      11.10260730
Rh      12.81087884       7.81820366      10.34139879
Rh       9.98008049       9.77026290      14.10049716
Rh      12.22644559       9.61328319       8.69990563
Rh      11.12556275      10.80604000      10.69874884
Rh       9.73584087      10.28888350       8.43221410
Rh       9.44250856      11.69492630      12.54122869
Rh       8.24821875      11.26111191      10.29513138
Rh       8.86818474       9.28603705      11.81499242
Rh      10.35402977       8.32102125       9.94686287
Rh       7.91796072       8.88648922       9.51381610
24
Properties=species:S:1:pos:R:3 config_type=qcd gap_pre_relax_energy=-134.18534684706208 gap_pred_energy=-135.25170489802045 gap_fmax_final=0.0009071779182984742 gap_converged=1 pbc="F F F"
Rh      13.18989917       9.77536477      13.55092897
Rh      14.58299340      11.87122401      13.16233933
Rh      11.52416658       7.88382422      13.25451080
Rh       9.52199487      13.52803335       8.34473524
Rh       9.86935805      12.35513756      14.86369972
Rh      11.30289436      11.87654834       7.39652030
Rh       9.72161621       9.09790305      11.87107064
Rh      13.95730658      11.17344705      10.79949696
Rh      12.48098860      10.19513204       8.96422395
Rh      10.09264640       9.23376518       9.27841317
Rh      12.26218554      12.19105240      14.07665086
Rh       8.64586725      13.18098382      10.75661463
Rh      12.80289378      12.83007759       9.21397593
Rh       8.92240468      11.05301544       7.93621924
Rh      11.99098936       8.58838159      10.85348248
Rh      11.01976618      14.30118142      10.28691915
Rh      10.54775787      11.71604416       9.86122800
Rh      11.61072621      10.95931805      11.93489952
Rh      14.28526072       8.89940932      11.54884880
Rh      10.49406157      13.38274065      12.61158316
Rh       8.19281574      10.63720845      10.37470767
Rh      12.92500909      13.28430107      11.77236338
Rh      10.62778615      10.07411744      14.12188907
Rh       8.93808065      11.42125804      12.67414804
25
Properties=species:S:1:pos:R:3 config_type=qcd gap_pre_relax_energy=-140.7019584550659 gap_pred_energy=-140.8519113025271 gap_fmax_final=0.0009934684775067411 gap_converged=1 pbc="F F F"
Rh      14.78172609      13.52451476      12.68320372
Rh      15.05207737      13.56241594      15.46839676
Rh      15.63453822      11.46670049      14.00558838
Rh      12.99894142      12.24776221      14.09445970
Rh      13.00981831      14.85508866      14.05782550
Rh      15.42940023      15.77870113      14.12027129
Rh      17.04829343      13.72151954      13.84244800
Rh      13.65430749      10.13928743      12.90797753
Rh      11.09714736      10.93883997      12.84306202
Rh      11.02546488      13.53159705      12.80282697
Rh      11.07062061      16.10979951      12.80853474
Rh      13.58100123      16.98961144      12.72464630
Rh      16.91121258      13.46634675      11.30396280
Rh      15.37569630      15.65257235      11.49928279
Rh      12.82379492      14.84030346      11.37898219
Rh      12.82664668      12.19968547      11.40489252
Rh      15.33168801      11.34701088      11.41204767
Rh      14.60816220      13.52400958      10.06279539
Rh      12.59408414      13.42143477      16.36824866
Rh      10.74755529      14.82180369      15.13674419
Rh      10.62041282      12.27377217      15.09554704
Rh      14.13070093      11.25313769      16.15602967
Rh      12.11531560      10.09146303      15.09980813
Rh      12.18517735      17.07527804      14.97027509
Rh      13.89048203      15.71160949      16.29640842
26
Properties=species:S:1:pos:R:3 config_type=qcd gap_pre_relax_energy=-147.66072830299 gap_pred_energy=-147.91782722005763 gap_fmax_final=0.0008267315388643218 gap_converged=1 pbc="F F F"
Rh      12.23415233      11.99373161      10.66806612
Rh      12.37307127      12.08715278      13.38644289
Rh      13.04887704       9.88764968      12.17910101
Rh      10.45296966      10.68129150      12.06199174
Rh      10.47297391      13.39516048      12.18996872
Rh      12.98048936      14.14971028      11.89307998
Rh      14.51833521      12.05554552      11.88654125
Rh      11.04251878       8.49059831      10.73864333
Rh       8.57918422       9.30939128      10.73939137
Rh       8.53515492      11.90484218      10.74932166
Rh       8.60979818      14.46259568      10.81410706
Rh      11.05919169      15.32914096      10.60790557
Rh      14.38300651      11.94073031       9.26654790
Rh      12.82250309      14.06560362       9.27316589
Rh      10.30620500      13.20979430       9.36334271
Rh      10.30601060      10.58202884       9.32786716
Rh      12.81349106       9.79549954       9.35272921
Rh      12.07671611      11.88642186       8.00232751
Rh       9.92218764      11.89625761      14.28642573
Rh       8.04407270      13.10751748      12.96741208
Rh       8.06581673      10.56076085      12.99557702
Rh      15.06478229       9.87462544      10.59083401
Rh      13.50550612       7.79607582      10.79323618
Rh      11.46008375       9.80214226      14.27981917
Rh       9.62630358       8.43587017      12.98896508
Rh      12.04973379       7.65299723      12.95032524
26
Properties=species:S:1:pos:R:3 config_type=qcd gap_pre_relax_energy=-147.62868587168688 gap_pred_energy=-147.6741335160774 gap_fmax_final=0.0006854888593479173 gap_converged=1 pbc="F F F"
Rh      13.93504639      13.93516221      16.27337745
Rh      16.53353203      13.92837552      16.04056832
Rh      11.33656074      13.92837552      16.04056832
Rh      15.22844757      16.18891443      16.04050065
Rh      12.64164521      16.18891443      16.04050065
Rh      15.24011430      11.68819171      16.04049308
Rh      12.62997847      11.68819171      16.04049308
Rh      13.93504639      13.93516221      11.59671533
Rh      16.53353203      13.92837552      11.82952445
Rh      11.33656074      13.92837552      11.82952445
Rh      15.22844757      16.18891443      11.82959213
Rh      12.64164521      16.18891443      11.82959213
Rh      15.24011430      11.68819171      11.82959969
Rh      12.62997847      11.68819171      11.82959969
Rh      15.22755405      13.18876800      13.93504639
Rh      12.64253872      13.18876800      13.93504639
Rh      17.81285409      13.13944304      13.93504639
Rh      10.05723868      13.13944304      13.93504639
Rh      13.93504639      10.83784409      13.93504639
Rh      11.30752680      10.97366411      13.93504639
Rh      16.56256597      10.97366412      13.93504639
Rh      13.93504639      15.42766039      13.93504639
Rh      16.61718253      15.48354323      13.93504639
Rh      11.25291024      15.48354323      13.93504639
Rh      12.68465043      17.69130682      13.93504639
Rh      15.18544234      17.69130683      13.93504639
27
Properties=species:S:1:pos:R:3 config_type=qcd gap_pre_relax_energy=-154.43364497269462 gap_pred_energy=-154.61707460742988 gap_fmax_final=0.0009570604837182661 gap_converged=1 pbc="F F F"
Rh      13.24160442       8.63985303      11.44612444
Rh      11.74122116      10.34383140      12.59530525
Rh      12.64678387       7.30552987       9.32636323
Rh      11.16671874       9.33219877       9.95274619
Rh      10.18669079       6.77550341       9.95688430
Rh      10.81096626       7.98590005      12.12169506
Rh      10.04404313      12.20797815      13.44545733
Rh       8.68760946       8.72986860      10.69240882
Rh      13.56911530       9.76346126       9.11056710
Rh      13.76267692      11.18165721      11.24513703
Rh      13.11112176       8.34699859       7.05502447
Rh      10.68975082       7.98088786       7.73943958
Rh       9.21348419       9.76497175      13.02612862
Rh       8.25441972       7.68500338       8.41998290
Rh      11.95739340      12.85678287      11.86525262
Rh      11.98958414      11.82565908       9.50926506
Rh       9.88310201      11.25272308      11.00639440
Rh      11.63682052      10.34939362       7.43997093
Rh       9.21568096      10.07710544       8.41262755
Rh       7.62167244      11.56669164      13.82127522
Rh       7.29510790      10.75671554      11.46499572
Rh      10.23349276      14.58293408      12.40586648
Rh       6.82422343       9.77424354       9.19157564
Rh      10.12954393      13.62572972      10.06813447
Rh       8.06274551      12.13350337       9.37408310
Rh      10.15241827      12.39319169       7.83278682
Rh       8.24194930      13.13162412      11.84444876
27
Properties=species:S:1:pos:R:3 config_type=qcd gap_pre_relax_energy=-153.49988849109033 gap_pred_energy=-154.05996451135135 gap_fmax_final=0.0009287700616701587 gap_converged=1 pbc="F F F"
Rh      12.28621798       7.60481773      11.22766825
Rh      14.36780755      13.15457970       9.89466825
Rh      14.36841281      13.15350872      12.56314237
Rh      10.59805582      15.01781951      11.23086930
Rh       7.78230036      12.97415678      11.23222287
Rh       8.05756032      11.57971039       9.08372057
Rh       8.05676816      11.58058083      13.38209273
Rh      12.02898573      13.32497043       8.74759269
Rh      12.03056913      13.32298120      13.71129544
Rh      14.10739973       8.88194462      12.54988758
Rh      14.10687513       8.88291817       9.90548110
Rh       7.91130095      10.22615954      11.23306468
Rh       9.04029949       9.23393737      13.51227732
Rh       9.04000828       9.23459017       8.94561735
Rh      11.63098838       8.95683814      13.34717068
Rh      11.63031622       8.95848285       9.10937656
Rh      10.07453024       8.96829232      11.22833827
Rh       9.62692607      13.58605152      12.94782114
Rh       9.62574920      13.58755639       9.51328241
Rh      14.71642727      11.02879446      11.22818267
Rh      13.20721467      11.07744209      13.51322863
Rh      13.20606664      11.07927183       8.94427914
Rh      10.58870319      11.25277715       8.73883852
Rh      10.58919520      11.25114600      13.71798691
Rh      12.25999270      10.44444797      11.22882663
Rh      12.19841650      13.16342328      11.22922925
Rh      10.05772735      11.66761589      11.22865378
28
Properties=species:S:1:pos:R:3 config_type=qcd gap_pre_relax_energy=-160.04717499860433 gap_pred_energy=-160.4452245489947 gap_fmax_final=0.0009301762603789072 gap_converged=1 pbc="F F F"
Rh      12.31068862       7.78421042       8.03691909
Rh      11.98378827      10.15485196       8.03844778
Rh      10.06074214       7.42754705       8.85282736
Rh      11.04965211       7.20609367      11.08295486
Rh      12.89672733      12.50090027       8.40786668
Rh      13.28103273       7.99803150      10.27267458
Rh      13.95428984      10.39625913       9.59945082
Rh       9.52230967       9.83805664       8.53388633
Rh      10.41086844      12.18493891       7.97690959
Rh       7.92428811      11.67580449       7.73094314
Rh       9.02166987       8.81509274      10.84123197
Rh      12.85042508       7.61655110      12.84712868
Rh      10.57135170       8.85969526      12.92944591
Rh      11.44412576       9.77570758      10.53708962
Rh       7.79491952      11.00998747      10.17596819
Rh       8.83737918      10.73242824      12.55496280
Rh      13.44859025       9.97856721      12.09664407
Rh      10.12631851      11.91366575      10.51298120
Rh      12.65510335      12.18321400      10.88029711
Rh      11.24134681      14.07286181       9.60757305
Rh      12.47866819       9.55905913      14.47067913
Rh       8.56823234      13.52091831       9.26670569
Rh      10.02063183      10.41872611      14.86316862
Rh       8.30606775      13.16723870      11.81732459
Rh      11.44646321      11.38461911      12.99798983
Rh      10.92530386      13.76917734      12.16435242
Rh       9.47376159      12.77866786      14.01208737
Rh       9.38494564      15.26681990      10.88118123
28
Properties=species:S:1:pos:R:3 config_type=qcd gap_pre_relax_energy=-160.10507486692683 gap_pred_energy=-160.3147767002012 gap_fmax_final=0.0008561825476047874 gap_converged=1 pbc="F F F"
Rh      10.08730056      10.03596854       6.46725652
Rh      12.16052822      10.11451627       7.89864859
Rh      10.85216461      12.45680580       7.61707331
Rh      12.99182537      12.26319641       9.11843587
Rh      14.35152126      10.06398667       9.27524348
Rh      10.29446353       8.25143971       8.46024575
Rh       8.23926100      11.72230733       7.10152710
Rh      12.70614866       8.02223647       9.34779531
Rh       7.95250975       9.21861905       7.75582253
Rh      14.40310747      10.48851189      11.74842815
Rh       9.78929195      10.67321577       8.98830354
Rh       8.69250950      13.29740195       9.02141093
Rh      10.76051553      12.74048551      10.32293579
Rh      12.09435132      10.27128597      10.50599383
Rh      12.84702481      12.50842389      11.73473924
Rh      13.09210227       8.30491068      11.89421547
Rh       7.35919161      11.13240101       9.58248081
Rh       8.38908728      12.65707388      11.46390941
Rh      12.12607231      10.44023700      13.10882048
Rh      10.67256592       8.03658666      11.01182205
Rh       9.80325084      10.46524401      11.55889695
Rh      10.51244874      12.50340294      12.95701626
Rh       8.29355140       8.77351756      10.23396362
Rh      11.17270679       8.10574809      13.56397410
Rh       7.28951343      10.40188366      12.09138951
Rh       9.78111772      10.22273508      14.10664938
Rh       8.11289751      12.03665190      13.89130139
Rh       8.74152413       8.35975980      12.74025411
29
Properties=species:S:1:pos:R:3 config_type=qcd gap_pre_relax_energy=-166.79531333929205 gap_pred_energy=-166.93829422299538 gap_fmax_final=0.0006041559553092 gap_converged=1 pbc="F F F"
Rh      10.79639415       9.33792813       8.86923800
Rh      10.74539220       9.17499442      11.47987999
Rh      13.30580734      10.16903712       8.86843839
Rh      13.44560869      10.06946324      11.47906674
Rh      11.47958132      11.48018480      10.21863603
Rh      11.47853526      11.48057282       7.51306555
Rh       9.23045353      11.46761066       8.87016609
Rh      13.29082478      12.81211483       8.86886368
Rh      10.77189270      13.61477328       8.86992808
Rh       9.06048730      11.46664326      11.48080770
Rh      13.42965263      12.91266780      11.47949422
Rh      10.71860620      13.77652595      11.48057356
Rh      10.79821267       9.33713880      14.09053493
Rh      13.30762882      10.16826122      14.08981847
Rh      11.48044449      11.47979037      12.74128855
Rh      11.48129719      11.47938420      15.44686299
Rh       9.23226533      11.46682438      14.09133033
Rh      13.29263637      12.81132676      14.09018383
Rh      10.77370737      13.61398438      14.09112590
Rh      15.11363342      11.50031700      12.79856556
Rh      15.11270654      11.50070689      10.15882592
Rh      12.58318466      14.94043771      12.79960410
Rh      12.58226546      14.94083078      10.16059356
Rh      12.62180702       8.03194901      10.15950384
Rh      12.62273267       8.03155463      12.79860222
Rh       8.52889728      13.59850260      12.80117585
Rh       8.52798415      13.59889789      10.16144422
Rh       8.55361183       9.32806237      12.80025914
Rh       8.55269513       9.32846113      10.16106905
29
Properties=species:S:1:pos:R:3 config_type=qcd gap_pre_relax_energy=-166.58929675452538 gap_pred_energy=-166.9666826825477 gap_fmax_final=0.0008292463981500588 gap_converged=1 pbc="F F F"
Rh      11.46836322       7.31494259       9.05095327
Rh      13.72915854       8.69386984       9.24269900
Rh      14.58736023       9.26803964      11.59784195
Rh      11.82288860       9.46753552       7.67426468
Rh      12.33974627       8.02907787      11.34449758
Rh       9.45027493       8.64951498       8.08880443
Rh      14.17917646      10.41995899       7.42635802
Rh       9.86073244       8.56573076      10.60628866
Rh      11.76433334      10.24640586      10.10139409
Rh       9.96868997      11.15958744       8.44518978
Rh      14.14154244      11.19891787       9.88105491
Rh      12.38275067      12.01102997       8.12172846
Rh      13.10763251       9.01154476      13.63289346
Rh      10.81036662       9.58279651      12.74792427
Rh      13.04238385      11.19166462      12.22783881
Rh       8.25774708      10.03628706      12.16899050
Rh      11.94766739      11.06229595      14.53914848
Rh       8.00385799      10.05621815       9.62196191
Rh      12.16528075      12.92074001      10.51877712
Rh      10.48104437      13.63772176       8.72721003
Rh      10.01644501      11.61520572      11.27426781
Rh       8.27834440      12.64662515       9.69110700
Rh       9.52138768      11.57829808      13.86513217
Rh      11.48115706      13.11792947      12.97150431
Rh       6.33954117      11.35028603      10.89553859
Rh       9.89208242      14.15525235      11.17003879
Rh      10.81111834      13.09005312      15.43310511
Rh       7.86310682      12.71537953      12.25536354
Rh       9.29693375      14.21820473      13.68923761
30
Properties=species:S:1:pos:R:3 config_type=qcd gap_pre_relax_energy=-173.54658651245606 gap_pred_energy=-173.8355871618947 gap_fmax_final=0.0008340828076260317 gap_converged=1 pbc="F F F"
Rh      10.15474281       8.95834138       6.80306455
Rh      11.96752312       9.02355831       8.53625598
Rh       9.73860984      10.88929732       8.26693348
Rh       7.78795556      12.51180445       8.51018150
Rh      14.25216183      10.00351785       8.04072416
Rh      12.17543529      11.49494509       7.87143225
Rh      10.27316482      13.32978502       7.87219983
Rh       7.87974888       8.10476884       7.27391429
Rh       9.62273088       8.10625561       9.13636798
Rh       7.50687693       9.93585778       8.94818085
Rh      13.71179919       9.29037142      10.41734658
Rh      11.65670502      10.91639286      10.34131516
Rh       9.61367545      12.70093407      10.28277643
Rh      14.03919417      11.81809512       9.75587675
Rh      12.02697568      13.43005294       9.69094139
Rh       7.19208638       7.45191816       9.65311694
Rh      13.74365220      13.58240470      11.54938959
Rh       7.26272279      11.72165356      10.86195366
Rh       9.31044472      10.08015224      10.83112338
Rh      11.37624494       8.32902825      11.02792064
Rh      11.41594333      12.78123305      12.16530467
Rh      13.45855602      11.15744919      12.22522090
Rh       8.93983407       7.55750653      11.55329246
Rh       6.91319506       9.22483300      11.44753958
Rh       9.08739726      11.91828364      12.71620749
Rh      13.13448966       8.68622271      12.85144961
Rh      11.11243445      10.26391559      12.88500527
Rh       6.75719410      11.02625887      13.23553732
Rh       8.71118980       9.42512415      13.33361875
Rh      10.68981084       7.79253343      13.42830367
30
Properties=species:S:1:pos:R:3 config_type=qcd gap_pre_relax_energy=-172.48685531113844 gap_pred_energy=-172.74122984166618 gap_fmax_final=0.000903748059240319 gap_converged=1 pbc="F F F"
Rh       8.48248451      14.49301467      10.70526619
Rh       9.50963302      13.94765497       8.35421813
Rh       9.94460319      14.37228964      12.82627916
Rh       8.44995112      10.16522148      11.72739340
Rh      10.15083410      11.54666561       7.72303575
Rh      13.18318170      10.99101871      12.10815851
Rh      15.10184348      11.15858307      10.41996900
Rh       9.62128581       8.53456887      13.48852769
Rh      13.02805300       8.46463472      12.62647437
Rh      11.73184320       9.52377887       7.99431587
Rh      11.15673332       6.89279830      12.17330972
Rh      10.96490413       9.40940019      11.50582979
Rh       8.09301682      12.63930580      12.43340498
Rh       9.05008437      10.94756639      14.13265998
Rh      13.45734775      13.11685522      10.28489595
Rh      13.60656858      11.26283864       8.37379116
Rh      13.26845642       9.26560163      10.13993319
Rh       8.97969216      12.06633144      10.02227220
Rh      13.35552424      12.08586087      14.41705194
Rh      10.54725021      11.90127010      12.19344360
Rh      11.28269712       7.65241290       9.68540645
Rh      10.89937551      12.70023500      14.57017212
Rh       9.49981263       9.60778724       9.32420340
Rh      10.96971453      13.92046655      10.46154039
Rh      14.86268513      12.87453527      12.40497604
Rh      11.99263205      13.28478913       8.13847159
Rh      11.56380043      11.36155456       9.86665108
Rh      12.43950185      13.65727724      12.61459661
Rh       8.97128921       7.73774634      11.02263591
Rh      11.57962430      10.16236044      14.00553965
31
Properties=species:S:1:pos:R:3 config_type=qcd gap_pre_relax_energy=-179.09885213944568 gap_pred_energy=-179.34369498295897 gap_fmax_final=0.0007052058118740943 gap_converged=1 pbc="F F F"
Rh      10.57288872       9.49877939       8.88246088
Rh      10.48301401       9.30180440      11.47466387
Rh      13.05509943      10.34516826       8.79395004
Rh      13.00674115      10.37975642      11.46991872
Rh      11.15481780      11.70648345      10.20148215
Rh      11.23250562      11.65090248       7.52600116
Rh       8.96156768      11.60926440       8.86475824
Rh      13.05803609      12.96771170       8.88253273
Rh      10.54149068      13.81453517       8.86480238
Rh       8.76998045      11.56833340      11.48378592
Rh      13.21554380      13.11613056      11.47474224
Rh      10.51861780      14.00904304      11.48383464
Rh      10.58700477       9.48856988      14.06709102
Rh      13.06966831      10.33461609      14.14541902
Rh      11.16176206      11.70145881      12.75362606
Rh      11.25401430      11.63533229      15.42840602
Rh       8.97582140      11.59896356      14.10187481
Rh      13.07214739      12.95748706      14.06716339
Rh      10.55573091      13.80421513      14.10192127
Rh      14.89323099      11.59276893      12.76465059
Rh      14.88615986      11.59788814      10.16972642
Rh      12.39141416      15.12076598      12.81827324
Rh      12.38414310      15.12604314      10.14363653
Rh      12.45798431       8.20841531      10.16964943
Rh      12.46504732       8.20329129      12.76458544
Rh       8.33053887      13.72989259      12.79265037
Rh       8.32345096      13.73502128      10.18583967
Rh       8.31978570       9.43740310      12.81812850
Rh       8.31250309       9.44266006      10.14354842
Rh      14.87299258       9.04283121      10.21919343
Rh      14.87975838       9.03792516      12.70514509
31
Properties=species:S:1:pos:R:3 config_type=qcd gap_pre_relax_energy=-179.31297076952524 gap_pred_energy=-179.76785716051907 gap_fmax_final=0.0009577954678479954 gap_converged=1 pbc="F F F"
Rh      12.75448299      12.69950325      13.56806996
Rh      11.25575193      12.36639864      15.60532111
Rh      13.51702424      10.58407031      12.17750678
Rh      12.06330883      14.81139479      12.17595192
Rh      10.31581651      13.32499645      13.41396755
Rh      12.04989999      10.37450520      14.29362135
Rh      13.58418131      12.98609914      11.14019646
Rh      14.97807187      10.97721549      10.17092842
Rh       9.53508667      11.08970793      14.33100189
Rh      14.04417953       8.52827920      10.76732115
Rh      11.35908414      11.74678738      11.52613311
Rh      12.68476777       8.31763613      12.90127757
Rh      10.05902569      13.84913361      10.86980418
Rh       8.73665326      11.84611010      11.98399224
Rh      12.24562166      14.51566854       9.62322451
Rh      10.41740680       9.45284892      12.57516924
Rh       7.88633286       9.64148848      12.97540132
Rh      12.56598108      10.21087773       9.60726295
Rh      13.50384485      12.41995518       8.64913150
Rh      10.97113640      12.41433682       8.93627262
Rh      11.46963855       8.05727531      10.64232044
Rh       9.90981162      10.22270503      10.09075757
Rh       8.43993811      12.35112938       9.48518408
Rh       8.81072033       8.10397081      11.08614171
Rh       7.35319593      10.21405422      10.54012527
Rh      11.98893687      10.87688109       7.15580547
Rh      10.93522298       8.78631529       8.20072587
Rh       8.32533617       8.74631466       8.60027251
Rh       9.78656105       6.77200299       9.18986248
Rh       9.45323990      10.85150486       7.57935377
Rh       6.96490553      10.82599848       8.10306042
32
Properties=species:S:1:pos:R:3 config_type=qcd gap_pre_relax_energy=-185.30928065363005 gap_pred_energy=-185.6413705958856 gap_fmax_final=0.0009118863617909361 gap_converged=1 pbc="F F F"
Rh       7.14903433      12.87924243      11.37113618
Rh      15.59235066      12.87898840      11.37108614
Rh      11.37106424       9.86307217      15.59283479
Rh      11.37112407       9.86309867       7.14947055
Rh       9.57094388       9.17295846      13.96470834
Rh      13.17154475       9.17246763       8.77715464
Rh      13.17134839       9.17253713      13.96499318
Rh       9.57094542       9.17295748       8.77751555
Rh      13.96480813      13.56962012       9.57047532
Rh      13.96470509      13.56953590      13.17161748
Rh       8.77723588      13.56939797       9.57117679
Rh       8.77726945      13.56938351      13.17108816
Rh      12.65573942      14.92150211      11.37107309
Rh      11.37117451       7.82068710      10.08636087
Rh      10.08636692      14.92144511      11.37112608
Rh      11.37110990       7.82080015      12.65573006
Rh      10.08729586      11.73371793      14.42702834
Rh       8.31492847      11.00865572      10.08743115
Rh      12.65486539      11.73370451      14.42732456
Rh       8.31501177      11.00870927      12.65487776
Rh      14.42677720      11.00839360      12.65495256
Rh      14.42695416      11.00834344      10.08724111
Rh      12.65492939      11.73366515       8.31502449
Rh      10.08735092      11.73366896       8.31541993
Rh      13.35179524       9.00100508      11.37107929
Rh      11.37102964      13.74093185       9.39056959
Rh       9.39082586       9.00167288      11.37107773
Rh      11.37102788      13.74082101      13.35155733
Rh      11.37164365      10.37710989      10.12537689
Rh      12.61712243      12.36521851      11.37094898
Rh      10.12559884      12.36483108      11.37106357
Rh      11.37151269      10.37729126      12.61691396
32
Properties=species:S:1:pos:R:3 config_type=qcd gap_pre_relax_energy=-185.63675537746147 gap_pred_energy=-185.8055393076414 gap_fmax_final=0.0009233989639704848 gap_converged=1 pbc="F F F"
Rh      11.19486193      11.56734745      13.04838913
Rh      13.88518261      11.70921804      13.09630678
Rh       8.53934370      11.59958802      13.04749105
Rh      12.44475176      13.90766968      13.03511452
Rh       9.92876846      13.90212013      13.06673909
Rh      12.32232077       9.12014866      13.07412458
Rh       9.70669306       9.37105469      12.99633243
Rh      14.88180489       9.34172457      13.04047511
Rh      14.84239945       9.40248523       8.77968604
Rh      11.09113314      11.66806218       8.53239372
Rh      13.68081782      11.63931744       8.81484306
Rh       8.49999662      11.70528756       8.81559832
Rh      12.46273103      13.90279871       8.78250911
Rh       9.84817372      13.93931631       8.83428664
Rh      12.32173302       9.38705525       8.79552654
Rh       9.75165774       9.41008491       8.74411141
Rh      12.50065354      10.79667669      10.98137814
Rh       9.84822697      10.88619721      10.82540258
Rh      15.05813312      10.80517750      10.91290484
Rh       7.25446905      10.91965396      10.95216948
Rh      11.04502587       8.50908026      10.88260451
Rh       8.43758623       8.71711520      10.87989320
Rh      13.68559148       8.53090204      10.89331611
Rh      11.18628240      13.10355788      10.84423012
Rh      13.84680256      13.15166271      10.92235968
Rh       8.49769114      13.21255395      10.97290135
Rh       9.94701167      15.38119440      10.98937362
Rh      12.44759125      15.36158492      10.93658890
Rh      11.00125448      10.09301551      15.10662563
Rh      13.58665834      10.10581970      15.10747537
Rh      12.39390975      12.39968006      15.12639469
Rh       9.80016373      12.39227044      15.10187556
33
Properties=species:S:1:pos:R:3 config_type=qcd gap_pre_relax_energy=-191.80398583515063 gap_pred_energy=-192.02440351200528 gap_fmax_final=0.0009914085063895636 gap_converged=1 pbc="F F F"
Rh      10.06443149       9.43585718       9.12388960
Rh       9.94256789       9.34235325      11.69403353
Rh      12.57069185      10.28029788       9.01163112
Rh      12.59519501      10.29604579      11.69375347
Rh      10.68122491      11.61397812      10.38862225
Rh      10.74287278      11.58764481       7.74233352
Rh       8.48448974      11.46590267       9.09286941
Rh      12.56866347      12.91712035       8.99840283
Rh      10.03880893      13.74295744       9.10330707
Rh       8.38059353      11.31362284      11.69518120
Rh      12.61430269      12.90225774      11.69437147
Rh      10.00044747      13.94830749      11.69530250
Rh      10.06560833       9.43479508      14.26414914
Rh      12.57197451      10.27898904      14.37581851
Rh      10.68185226      11.61349833      13.00046800
Rh      10.74487893      11.58575282      15.64671447
Rh       8.48576038      11.46486692      14.29747127
Rh      12.57004151      12.91582644      14.39039411
Rh      10.04014096      13.74181471      14.28722070
Rh      14.45007968      11.58483216      13.12126803
Rh      14.44937398      11.58554903      10.26593498
Rh      11.95461870      15.02481994      13.01528813
Rh      11.95392546      15.02546014      10.37480560
Rh      11.90442927       8.16297334      10.39281874
Rh      11.90496976       8.16233608      12.99393932
Rh      14.36718763       8.95413787      10.39415830
Rh      14.36777422       8.95346268      12.99175595
Rh      14.40310671      14.20875907      10.38942851
Rh      14.40377976      14.20810936      12.99907349
Rh      16.16076289      12.86985848      11.69348405
Rh      16.14108987      10.27708301      11.69287933
Rh       7.80364586      13.50627642      12.97216207
Rh       7.80299596      13.50673988      10.41935567
33
Properties=species:S:1:pos:R:3 config_type=qcd gap_pre_relax_energy=-191.54481369031737 gap_pred_energy=-191.76634307460137 gap_fmax_final=0.0009520408366984152 gap_converged=1 pbc="F F F"
Rh      12.77643299      11.46426036      11.41098608
Rh      12.62306664      11.40185446      14.01473514
Rh      15.33863734      12.33834465      11.31104602
Rh      15.24975344      12.31063576      14.01091037
Rh      13.42489310      13.58249917      12.63584367
Rh      13.49176794      13.63193460      10.03009287
Rh      11.20926017      13.60197473      11.40705614
Rh      15.32162004      14.97375183      11.30227566
Rh      12.81333715      15.78219692      11.31221092
Rh      11.10591892      13.46722546      14.01031931
Rh      15.28211227      14.94502361      14.01190387
Rh      12.75860016      15.70195589      14.01338440
Rh      12.78312441      11.46063867      16.61793885
Rh      15.34332589      12.33931593      16.71205210
Rh      13.42686608      13.58049261      15.38865060
Rh      13.49465795      13.62993477      17.99438429
Rh      11.21192961      13.59538023      16.61403354
Rh      15.32196666      14.97458247      16.72152650
Rh      12.81224271      15.77892581      16.71323461
Rh      17.15248817      13.66193798      15.28537774
Rh      17.15137232      13.65876083      12.73629767
Rh      14.61397953      17.11359661      15.28731792
Rh      14.61679070      17.11329121      12.73823146
Rh      14.62556293      10.22363279      12.70667239
Rh      14.63101607      10.22405873      15.31670989
Rh      10.58072412      15.73063987      15.31811587
Rh      10.58218544      15.73530253      12.70809162
Rh      17.11332096      11.08251283      12.74989266
Rh      17.11729565      11.08598426      15.27048013
Rh      17.06795755      16.25456310      12.74255961
Rh      17.06605773      16.25774228      15.28060675
Rh      12.14820705      17.85005104      12.75357599
Rh      12.14422217      17.84769187      15.27417922
34
Properties=species:S:1:pos:R:3 config_type=qcd gap_pre_relax_energy=-198.2726586476271 gap_pred_energy=-198.49648376855163 gap_fmax_final=0.0009379774578464261 gap_converged=1 pbc="F F F"
Rh      12.90199729       7.05980555      11.65531489
Rh      10.27455131       7.09190573      11.65762670
Rh      11.74753131      14.70948988      14.94101365
Rh      11.61581034      14.69277498       8.33138145
Rh       9.99093554      15.37570556      10.21182268
Rh      13.38871646      15.34222635      13.05676284
Rh      11.67575706      12.28311625       7.57914260
Rh      11.62819310      12.30583076      15.70552621
Rh       9.00319696       8.87841988      10.33367142
Rh      14.21670407       8.82206279      12.96932074
Rh      14.25924866       8.87013101      10.40620443
Rh       8.96200104       8.94181089      12.89643001
Rh       8.19749492      11.43286513      12.94188097
Rh      15.08449477      11.34151559      10.34803396
Rh      15.07664394      11.25669490      12.99808961
Rh       8.20298927      11.33323133      10.29241427
Rh       9.52436376      13.14909737       8.93202774
Rh      13.79972029      13.11170843      14.34816530
Rh      13.71788145      13.19548138       9.07946888
Rh       9.60932561      13.25976352      14.20045228
Rh      10.86897201      15.03917621      12.60543453
Rh      12.50288670      15.01437291      10.66489017
Rh      12.94521504      10.60987361      14.34830501
Rh      10.31780416      10.62736426       8.94548552
Rh      12.96928290      10.65669850       9.01849944
Rh      10.29529164      10.70355917      14.27496339
Rh      11.58803443       8.80955084      13.01923537
Rh      11.63075421       8.80158080      10.28425319
Rh      13.99034456      13.23602527      11.71912710
Rh       9.33766737      13.29239914      11.56059231
Rh      10.32580487      10.73133126      11.62830136
Rh      12.93979390      10.69950798      11.66473355
Rh      11.59484822      12.61041514      10.28998619
Rh      11.71696520      12.61573000      12.99266458
34
Properties=species:S:1:pos:R:3 config_type=qcd gap_pre_relax_energy=-197.90340006881328 gap_pred_energy=-198.54766874176653 gap_fmax_final=0.0009600738637706822 gap_converged=1 pbc="F F F"
Rh      15.14807276      13.06421437      12.68103035
Rh      15.60840308      10.61435702      11.99017968
Rh      14.56887469      11.13288572      14.30133023
Rh      14.55852700      12.22717639      10.18432810
Rh      13.15448854      14.05466180      11.51117392
Rh      13.94336221       9.67983368      10.35368660
Rh      13.56860711       9.11539690      12.92509769
Rh      12.84848637      13.18530379      13.97017608
Rh      12.97815337      13.76382095       8.90988412
Rh      13.03682832      11.46874686      12.08927248
Rh      12.39768418       7.71537023      11.14974501
Rh      11.23093262      12.59231673      10.39519045
Rh      10.71573955      14.01616031      12.59536908
Rh      12.09969738      10.67745087      14.44105895
Rh      12.61851002      11.23822599       8.63911503
Rh      11.34199471      15.34041322      10.33037852
Rh      12.53606745       8.54245851       8.60474287
Rh      10.85618608      11.98483895       7.00386091
Rh      10.91335978       8.83482055      12.91736465
Rh      10.48576615      12.71528584      14.79458338
Rh      10.34286658       7.71322455       9.62479012
Rh      10.51101406      14.04193864       8.29036540
Rh      10.36090022      11.42464598      12.56970936
Rh       8.20696589      14.13229624      12.76967945
Rh      11.31078137       9.98466901      10.60157375
Rh      10.37494959       9.84566967       8.17832427
Rh       9.68330699      10.16156345      14.91807793
Rh       9.08883978       7.57413972      11.72572407
Rh       9.10881249      14.09584939      10.45180729
Rh       9.16053037      11.91746708       8.98912566
Rh       8.39364288       9.73193991      12.74943512
Rh       8.17505373      11.99344490      13.96554938
Rh       8.75988116       9.69793812      10.24162695
Rh       8.13008297      11.93884411      11.35401260
35
Properties=species:S:1:pos:R:3 config_type=qcd gap_pre_relax_energy=-204.76794834804087 gap_pred_energy=-204.92290625677882 gap_fmax_final=0.0009571391460138218 gap_converged=1 pbc="F F F"
Rh      10.28214560       9.50324483       9.07321713
Rh      10.22554737       9.29165629      11.67706207
Rh      12.76655868      10.37386156       9.00270608
Rh      12.77887660      10.37894599      11.67665918
Rh      10.81819596      11.67307891      10.39731155
Rh      10.93868611      11.67398059       7.73474641
Rh       8.65196681      11.66353107       9.05904310
Rh      12.75435771      12.99071810       9.00298372
Rh      10.26192230      13.83827719       9.07368167
Rh       8.44147353      11.66260875      11.67770452
Rh      12.76675775      12.98495772      11.67696207
Rh      10.20299911      14.04842597      11.67761535
Rh      10.28322101       9.50264058      14.28094002
Rh      12.76766654      10.37324283      14.35061767
Rh      10.81872945      11.67278210      12.95711516
Rh      10.94032141      11.67306984      15.61963899
Rh       8.65304531      11.66292615      14.29628849
Rh      12.75546528      12.99010109      14.35094889
Rh      10.26299810      13.83767740      14.28148339
Rh      14.65206369      11.69064777      13.07430575
Rh      14.65148550      11.69097080      10.27854455
Rh      12.16303175      15.12745034      12.99783430
Rh      12.16248750      15.12775222      10.35684157
Rh      12.19478765       8.23094468      10.35592189
Rh      12.19533251       8.23063701      12.99714809
Rh       8.02562517      13.81607300      12.99408813
Rh       8.02508412      13.81637564      10.36199471
Rh       8.04596018       9.50464855      12.99330580
Rh       8.04541955       9.50495375      10.36177371
Rh      14.61185316       9.08260530      10.38303954
Rh      14.61238665       9.08230494      12.96921713
Rh      14.58742397      14.29886150      10.38366470
Rh      14.58795723      14.29856518      12.96980421
Rh      16.37617230      12.99705115      11.67621984
Rh      16.38834189      10.40077866      11.67591805
35
Properties=species:S:1:pos:R:3 config_type=qcd gap_pre_relax_energy=-203.86323584649247 gap_pred_energy=-204.38240960272438 gap_fmax_final=0.0009424120946394874 gap_converged=1 pbc="F F F"
Rh      15.82679058      12.53838345      10.81406326
Rh      15.82658946      11.12791858      12.85182913
Rh      10.44335567       8.02661392      10.80153715
Rh       9.22786826      14.94324221      10.81962487
Rh       9.22808496       8.72250582      12.84654685
Rh      10.44323896      15.63963573      12.86435928
Rh      12.24417637      10.39759521       7.63889933
Rh      12.88117638      10.74307406      16.01996504
Rh      12.24401886      13.26874392      16.02717080
Rh      10.37502371      12.21206689       7.64373174
Rh      10.37513057      11.45412846      16.02215401
Rh      12.88101260      12.92331418       7.64599262
Rh      12.45211442      15.28135152      11.34790027
Rh       8.53842970      10.64708083      11.33528250
Rh      14.50822233       9.57372255      11.33222060
Rh      14.50766056      14.09167821      12.33394495
Rh       8.53792772      13.01839726      12.33052161
Rh      12.45240602       8.38412672      12.31800099
Rh      10.03144422      13.56880020      14.37697549
Rh      11.22477795       9.39523198      14.36539067
Rh      11.22441522      14.27089232       9.30044013
Rh      10.03177736      10.09724160       9.28862990
Rh      14.24300477      12.51466853      14.37390039
Rh      14.24305907      11.15128903       9.29241272
Rh      13.76650904       9.96059090      13.78594482
Rh      12.48280116       9.22978111       9.86739321
Rh      12.48257575      14.43639053      13.79873696
Rh       9.24961065      11.08672422      13.78923384
Rh       9.24931396      12.57908231       9.87652327
Rh      13.76646357      13.70531506       9.88002487
Rh      11.83300320      11.83823632       9.77702581
Rh      11.83316989      11.82803602      13.88893078
Rh      11.02103257      13.23897137      11.83673666
Rh      11.02153672      10.42677646      11.82929366
Rh      13.45651531      11.83263003      11.83289933
36
Properties=species:S:1:pos:R:3 config_type=qcd gap_pre_relax_energy=-211.22230762196486 gap_pred_energy=-211.3726269148411 gap_fmax_final=0.0009573940673011944 gap_converged=1 pbc="F F F"
Rh      10.24738716       9.57805483       9.04156519
Rh      10.17572480       9.39510544      11.65767208
Rh      12.72614861      10.52802142       8.96892736
Rh      12.78598826      10.51298077      11.65820462
Rh      10.76840176      11.74461434      10.37416931
Rh      10.85547613      11.76553133       7.70509217
Rh       8.57941476      11.69018063       9.04084910
Rh      12.63590887      13.13690131       8.96758915
Rh      10.11040369      13.89675009       9.05397566
Rh       8.38646173      11.68419598      11.65852997
Rh      12.70618756      13.07742149      11.65929150
Rh      10.04056146      14.07028596      11.65961211
Rh      10.24720617       9.57582081      14.27392743
Rh      12.72597612      10.52572921      14.34747012
Rh      10.76833255      11.74350349      12.94316075
Rh      10.85520848      11.76218612      15.61224225
Rh       8.57923991      11.68800151      14.27624207
Rh      12.63573510      13.13460848      14.35103070
Rh      10.11022999      13.89456360      14.26509711
Rh      14.59615449      11.88498598      13.13564019
Rh      14.59623731      11.88626309      10.18201915
Rh      11.97160895      15.21058657      12.96470601
Rh      11.97166397      15.21170853      10.35560013
Rh      12.15676793       8.38513049      10.31270815
Rh      12.15669987       8.38396910      13.00186510
Rh       7.86942162      13.81642550      12.97926715
Rh       7.86951829      13.81752690      10.33956547
Rh       8.00145146       9.52371007      12.97967626
Rh       8.00156240       9.52478424      10.33560000
Rh      14.62125213       9.27580684      10.33560473
Rh      14.62117132       9.27465899      12.97982333
Rh      14.42634260      14.49457070      10.35971974
Rh      14.42629616      14.49342140      12.96023596
Rh      16.23049927      13.24174410      11.65944259
Rh      16.32887067      10.68661064      11.65837599
Rh      13.92577446       7.19492611      11.65678744
36
Properties=species:S:1:pos:R:3 config_type=qcd gap_pre_relax_energy=-210.68260819834146 gap_pred_energy=-211.3793713193659 gap_fmax_final=0.0009665969420284731 gap_converged=1 pbc="F F F"
Rh       7.58598786      11.72696163      13.29333280
Rh      15.86793832      11.72696233      13.29332911
Rh      11.72696428       9.19109712      15.01036965
Rh      11.72696351      14.26282815      15.01036663
Rh       7.39696507      11.72696005      10.73204280
Rh      16.05695345      11.72696121      10.73203859
Rh      12.98633556      11.72695896       7.68764301
Rh      10.46757896      11.72695891       7.68764356
Rh      13.10903333       8.03659195      13.16622497
Rh      10.34489252      15.41733240      13.16622299
Rh      13.10903303      15.41733196      13.16622107
Rh      10.34489298       8.03659140      13.16622690
Rh      12.96630786       8.54413567      10.72996894
Rh      10.48761158      14.90978390      10.72996802
Rh      12.96630694      14.90978624      10.72996529
Rh      10.48761248       8.54413633      10.72997106
Rh      11.72695783       9.63443700       8.73411128
Rh      11.72695687      13.81948215       8.73410889
Rh       8.43865745       9.54680042      11.92868105
Rh      15.01526393      13.90712286      11.92867490
Rh      15.01526496       9.54679976      11.92867763
Rh       8.43865660      13.90712176      11.92867930
Rh       9.62596669      10.37492720      14.09561358
Rh       9.62596631      13.07899729      14.09561222
Rh      13.82796270      10.37492585      14.09561483
Rh      13.82796205      13.07899877      14.09561317
Rh      14.14005820      13.02753261       9.55954689
Rh      14.14005907      10.42638815       9.55954839
Rh       9.31385773      10.42638674       9.55954896
Rh       9.31385668      13.02753239       9.55954764
Rh      11.72696497      11.72696245      14.67077023
Rh      13.67787075      11.72696091      11.83082565
Rh       9.77605210      11.72696130      11.83082165
Rh      11.72696201      10.11162062      12.42770127
Rh      11.72696210      13.34230229      12.42769964
Rh      11.72696230      11.72696032      10.14766646
37
Properties=species:S:1:pos:R:3 config_type=qcd gap_pre_relax_energy=-217.15507901494274 gap_pred_energy=-217.41757704776924 gap_fmax_final=0.000786490585930473 gap_converged=1 pbc="F F F"
Rh      10.88894672       9.63061515       9.09525469
Rh      10.83917345       9.69466803      11.80535498
Rh      13.39487031      10.49363451       9.09968703
Rh      13.35560242      10.50715143      11.80458628
Rh      11.47226972      11.80403026      10.41007475
Rh      11.54046317      11.80464961       7.82247967
Rh       9.23445015      11.79604078       9.19747744
Rh      13.38476204      13.12935821       9.09996575
Rh      10.87220680      13.97334933       9.09582020
Rh       9.02108940      11.79498876      11.80623755
Rh      13.34552178      13.11480397      11.80486252
Rh      10.82271950      13.90821551      11.80580807
Rh      10.89088782       9.63002944      14.51541649
Rh      13.39677999      10.49307617      14.50943129
Rh      11.47322983      11.80373564      13.20065527
Rh      11.54326220      11.80381714      15.78819603
Rh       9.23628504      11.79549497      14.41484306
Rh      13.38667813      13.12879368      14.50970416
Rh      10.87417233      13.97280540      14.51577710
Rh      15.23011858      11.81804687      13.08431016
Rh      15.22919441      11.81831265      10.52381231
Rh      12.71110860      15.28072263      13.08172910
Rh      12.71015520      15.28096963      10.52882666
Rh      12.73670658       8.33648635      10.52803806
Rh      12.73764350       8.33621226      13.08106887
Rh       8.66097150      14.01225045      13.13072507
Rh       8.65999196      14.01250591      10.48248137
Rh       8.67827160       9.57476855      13.13021710
Rh       8.67730773       9.57506199      10.48202852
Rh      15.17010859       9.23185132      10.53471174
Rh      15.17103250       9.23160010      13.07291383
Rh      15.15031785      14.40419685      10.53528977
Rh      15.15125193      14.40392259      13.07341292
Rh      10.27000252      16.07464728      10.54376073
Rh      10.27095676      16.07440187      13.06869315
Rh      10.30240644       7.52465921      10.54279499
Rh      10.30334185       7.52438441      13.06781224
37
Properties=species:S:1:pos:R:3 config_type=qcd gap_pre_relax_energy=-217.46679275021017 gap_pred_energy=-217.6211563206188 gap_fmax_final=0.0008605590910515497 gap_converged=1 pbc="F F F"
Rh      15.39596652      15.38861440      14.03997670
Rh      15.40550748      17.96157835      14.12501454
Rh      12.76721807      15.34932419      14.06925798
Rh      10.20393302      15.35139391      14.10246119
Rh      12.82238956      17.92580954      14.10906533
Rh      12.76721807      12.72514425      14.06925798
Rh      10.20393302      12.72307453      14.10246119
Rh      12.82238956      10.14865890      14.10906533
Rh      15.39596652      12.68585404      14.03997670
Rh      15.40550748      10.11289009      14.12501454
Rh      14.04798195      14.03723422      15.95344371
Rh      11.37754221      14.03723422      16.02864135
Rh      14.18339000      16.71731913      16.03288482
Rh      14.18339000      11.35714931      16.03288482
Rh      11.53803360      16.63828282      15.93205920
Rh      11.53803360      11.43618562      15.93205920
Rh      14.07599961      14.03723422      12.21143280
Rh      16.85665175      14.03723422      12.23781038
Rh      11.37134056      14.03723422      12.15946487
Rh      14.10710184      16.77366043      12.15401252
Rh      14.10710184      11.30080801      12.15401252
Rh      16.74396627      16.61961307      12.22473657
Rh      11.50158558      16.65227476      12.26055425
Rh      11.50158558      11.42219368      12.26055425
Rh      16.74396627      11.45485537      12.22473657
Rh      12.82947227      15.37918063      17.78157170
Rh      12.82947227      12.69528780      17.78157170
Rh      15.41661191      15.32473308      10.42599528
Rh      12.81231183      15.33807983      10.39976227
Rh      12.81231183      12.73638860      10.39976227
Rh      15.41661191      12.74973536      10.42599528
Rh      14.98080255      14.03723422      18.32269749
Rh      16.27228133      15.36000006      16.54571414
Rh      16.27228133      12.71446838      16.54571414
Rh      17.59172057      14.03723422      14.67262570
Rh      17.53804415      16.60078506      14.69270839
Rh      17.53804415      11.47368338      14.69270839
38
Properties=species:S:1:pos:R:3 config_type=qcd gap_pre_relax_energy=-224.44563410265232 gap_pred_energy=-224.489023697325 gap_fmax_final=0.0008289407126269195 gap_converged=1 pbc="F F F"
Rh      15.29006091      15.29006091      13.96802661
Rh      17.87039007      15.27960743      13.96802661
Rh      15.27960743      17.87039007      13.96802661
Rh      12.64599231      15.29006091      13.96802661
Rh      10.06566315      15.27960743      13.96802661
Rh      12.65644579      17.87039007      13.96802661
Rh      12.64599231      12.64599231      13.96802661
Rh      10.06566315      12.65644579      13.96802661
Rh      12.65644579      10.06566315      13.96802661
Rh      15.29006091      12.64599231      13.96802661
Rh      17.87039007      12.65644579      13.96802661
Rh      15.27960743      10.06566315      13.96802661
Rh      13.96802661      13.96802661      15.83770436
Rh      16.68417565      13.96802661      15.88855694
Rh      11.25187757      13.96802661      15.88855694
Rh      13.96802661      16.68417565      15.88855694
Rh      13.96802661      11.25187757      15.88855694
Rh      16.57497297      16.57497297      15.79978373
Rh      11.36108026      16.57497297      15.79978373
Rh      11.36108026      11.36108026      15.79978373
Rh      16.57497297      11.36108026      15.79978373
Rh      13.96802661      13.96802661      12.09834886
Rh      16.68417565      13.96802661      12.04749628
Rh      11.25187757      13.96802661      12.04749628
Rh      13.96802661      16.68417565      12.04749628
Rh      13.96802661      11.25187757      12.04749628
Rh      16.57497297      16.57497297      12.13626949
Rh      11.36108026      16.57497297      12.13626949
Rh      11.36108026      11.36108026      12.13626949
Rh      16.57497297      11.36108026      12.13626949
Rh      15.26339646      15.26339646      17.65467520
Rh      12.67265676      15.26339646      17.65467520
Rh      12.67265676      12.67265676      17.65467520
Rh      15.26339646      12.67265676      17.65467520
Rh      15.26339646      15.26339646      10.28137802
Rh      12.67265676      15.26339646      10.28137802
Rh      12.67265676      12.67265676      10.28137802
Rh      15.26339646      12.67265676      10.28137802
38
Properties=species:S:1:pos:R:3 config_type=qcd gap_pre_relax_energy=-223.23441457082538 gap_pred_energy=-223.7360044111288 gap_fmax_final=0.0009028504332214343 gap_converged=1 pbc="F F F"
Rh      16.25178040      11.35623090       9.75373876
Rh      15.64458245      13.89157549       9.52034077
Rh      16.62305536      12.95311525      11.74411259
Rh      15.50889987      10.55411787      12.16750004
Rh      14.08434475      12.08473232       8.47441229
Rh      14.15519702       9.88228839      10.03723161
Rh      14.63907891      14.66694720      11.84746516
Rh      14.06280908      12.32154925      11.02107473
Rh      13.12508997      14.30145042       9.66166783
Rh      12.46475384      10.11989866       8.15847249
Rh      14.29312661       8.36507981      12.03542407
Rh      14.10961811       9.95583060      14.20210229
Rh      11.81603238      10.90388862      10.73821823
Rh      11.56259322      12.46531394       8.71019958
Rh      14.98854804      12.62355907      13.62583753
Rh      12.05814376       8.43422235      10.21746949
Rh      12.28900816      15.70519430      11.64440888
Rh      12.07773812       9.13072757      12.74208843
Rh      10.64242669      14.76208062       9.58839443
Rh      12.63581194      11.67189201      13.08816016
Rh      12.96082070      14.19496489      13.72333685
Rh      13.37330680      12.17541520      15.53550384
Rh       9.44233627      12.38506905      10.12994585
Rh      11.37991389      13.37484325      11.59600181
Rh      11.58676762      10.36090099      15.06520405
Rh      10.09961314      10.09726865       9.02752005
Rh       9.01861002      14.53084548      11.54040912
Rh       9.83572203       9.15557792      11.40249504
Rh      10.58030514      15.08357248      13.47033696
Rh       9.83067413       8.90362097      13.96239565
Rh      10.00442781      11.44396329      12.67549947
Rh      10.99736586      12.86620100      14.79277069
Rh       7.55323042      12.38581983      11.82823502
Rh       7.90015024      10.34337052      10.23861950
Rh       8.68214534      13.43469438      13.84952062
Rh       9.05082600      11.11780453      15.02281275
Rh       7.83256103      10.05687319      12.82418439
Rh       6.75532566      11.85624055      14.25362978
39
Properties=species:S:1:pos:R:3 config_type=qcd gap_pre_relax_energy=-231.09888556686843 gap_pred_energy=-231.18168262224356 gap_fmax_final=0.0009449768314214012 gap_converged=1 pbc="F F F"
Rh      15.95807925      15.95807925      14.50664380
Rh      18.54213171      15.94645328      14.48959803
Rh      15.94645328      18.54213171      14.48959803
Rh      13.30330251      15.95807925      14.50664380
Rh      10.71925004      15.94645328      14.48959804
Rh      13.31492848      18.54213171      14.48959803
Rh      13.30330251      13.30330251      14.50664380
Rh      10.71925004      13.31492848      14.48959804
Rh      13.31492848      10.71925004      14.48959804
Rh      15.95807925      13.30330251      14.50664380
Rh      18.54213171      13.31492848      14.48959803
Rh      15.94645328      10.71925004      14.48959804
Rh      14.63069088      14.63069088      16.36533763
Rh      17.36374563      14.63069088      16.40031562
Rh      11.89763613      14.63069088      16.40031562
Rh      14.63069088      17.36374563      16.40031562
Rh      14.63069088      11.89763613      16.40031562
Rh      17.24786439      17.24786439      16.32551233
Rh      12.01351736      17.24786439      16.32551233
Rh      12.01351736      12.01351736      16.32551233
Rh      17.24786439      12.01351736      16.32551233
Rh      14.63069088      14.63069088      12.65290059
Rh      17.34626756      14.63069088      12.58153373
Rh      11.91511419      14.63069088      12.58153373
Rh      14.63069088      17.34626756      12.58153373
Rh      14.63069088      11.91511419      12.58153373
Rh      17.23763499      17.23763499      12.66450778
Rh      12.02374677      17.23763499      12.66450778
Rh      12.02374677      12.02374677      12.66450778
Rh      17.23763499      12.02374677      12.66450778
Rh      15.94981277      15.94981277      18.15176892
Rh      13.31156898      15.94981277      18.15176892
Rh      13.31156898      13.31156898      18.15176892
Rh      15.94981277      13.31156898      18.15176892
Rh      15.92212456      15.92212456      10.81827441
Rh      13.33925719      15.92212456      10.81827441
Rh      13.33925719      13.33925719      10.81827441
Rh      15.92212456      13.33925719      10.81827441
Rh      14.63069088      14.63069088      19.86769530
39
Properties=species:S:1:pos:R:3 config_type=qcd gap_pre_relax_energy=-229.37471549094553 gap_pred_energy=-229.6902658251256 gap_fmax_final=0.0009377617501274063 gap_converged=1 pbc="F F F"
Rh      12.16706677       9.15962454      11.00423694
Rh       9.55686860       9.66043897      11.00597889
Rh       9.16373949       7.34154117      10.13174334
Rh       9.54806273       9.65058846      13.77294404
Rh      10.51909020       7.61860691      12.40139767
Rh       7.95709410       8.16008147      12.36744753
Rh       7.58223154      10.75171394      12.40316627
Rh       8.27241595      14.44779781      10.13318334
Rh       7.21688221       9.41845542      10.13296876
Rh      10.21283788      13.32151521       8.69657353
Rh       7.30544852      13.35566179      12.36845082
Rh       9.65449366      14.51287485      12.40284882
Rh       9.21526853      12.30360024      13.77351845
Rh       6.89873115      11.95421414      10.13352156
Rh      11.20485670      11.20705167       7.26716321
Rh       9.22609758      12.29746561      11.00637424
Rh      10.76570164       8.91266452       8.69567423
Rh       8.88771544      10.91623397       8.69678420
Rh      11.20595001      11.20674790       9.72317024
Rh      11.67350491       6.85961306      10.13092405
Rh      14.40607948       9.44353187      12.39983165
Rh      13.45002172      11.48776356      11.00371407
Rh      11.63192061      13.42724278      11.00497564
Rh      15.48477795      10.30785412      10.12989981
Rh      14.25111472       8.06972826      10.12976326
Rh      13.87166764      13.70407282      12.40077384
Rh      13.25155006      10.07959336       8.69473844
Rh      12.90989345      12.80441383       8.69530154
Rh      13.38243783      14.99823710      10.13133486
Rh      15.13037657      13.13391648      10.13054006
Rh      15.62656990      11.76038578      12.36465798
Rh      13.46461590      11.48897716      13.77175658
Rh      11.20757042      11.20649408      12.48126476
Rh      12.04546621      15.58090603      12.36680405
Rh      11.20810789      11.20586205      15.05507956
Rh      12.17406212       9.14694832      13.77180922
Rh      13.09968564       7.17405226      12.36502526
Rh      10.58542844      15.53451508      10.13292523
Rh      11.63567782      13.44009538      13.77281602
40
Properties=species:S:1:pos:R:3 config_type=qcd gap_pre_relax_energy=-237.76662074796693 gap_pred_energy=-237.87230426466013 gap_fmax_final=0.0008329935085473269 gap_converged=1 pbc="F F F"
Rh      14.23398321      14.23415454      12.90245852
Rh      16.82280296      14.22239922      12.90248790
Rh      14.22222502      16.82288267      12.90261352
Rh      11.57103950      14.23415450      12.90245713
Rh       8.98221602      14.22240033      12.90248089
Rh      11.58279028      16.82288402      12.90260510
Rh      11.57103698      11.57086495      12.90245661
Rh       8.98221722      11.58262565      12.90248438
Rh      11.58279067       8.98213720      12.90260954
Rh      14.23398449      11.57086923      12.90245783
Rh      16.82281143      11.58262509      12.90248078
Rh      14.22222453       8.98213518      12.90260536
Rh      12.90250857      12.90251037      14.74953801
Rh      15.63433464      12.90250493      14.80104451
Rh      10.17068842      12.90251398      14.80104367
Rh      12.90250387      15.63446077      14.80132676
Rh      12.90251317      10.17056238      14.80132327
Rh      15.51931823      15.51934528      14.73073682
Rh      10.28569553      15.51935326      14.73072913
Rh      10.28570186      10.28567651      14.73073650
Rh      15.51932565      10.28566699      14.73072297
Rh      12.90250809      12.90250762      11.05514934
Rh      15.63428455      12.90251312      11.00398940
Rh      10.17073655      12.90251080      11.00398701
Rh      12.90251239      15.63449936      11.00371406
Rh      12.90250933      10.17052013      11.00371294
Rh      15.51929577      15.51940770      11.07432972
Rh      10.28572594      15.51940506      11.07432542
Rh      10.28572439      10.28561699      11.07432562
Rh      15.51929583      10.28561634      11.07433223
Rh      14.21888075      14.21881931      16.55067394
Rh      11.58613346      14.21882552      16.55067845
Rh      11.58614123      11.58620093      16.55067780
Rh      14.21888819      11.58619359      16.55067474
Rh      14.21891971      14.21897387       9.25431636
Rh      11.58610348      14.21897450       9.25431278
Rh      11.58610353      11.58604703       9.25431190
Rh      14.21892073      11.58604544       9.25431564
Rh      12.90251621      12.90251144      18.27025894
Rh      12.90251446      12.90251105       7.53494138
40
Properties=species:S:1:pos:R:3 config_type=qcd gap_pre_relax_energy=-236.93895032281407 gap_pred_energy=-237.06338427229272 gap_fmax_final=0.0007431702968429864 gap_converged=1 pbc="F F F"
Rh      13.05055967       8.45443188      10.29672801
Rh      11.43505252      12.64013509       8.89071199
Rh       7.10794694      12.39207349      10.31461806
Rh      13.93908277      15.20100387      11.61533901
Rh      13.35621717      10.71871454      14.20384970
Rh       8.79733438       9.01974582      10.32170083
Rh       6.88629384      10.11908647      11.67057455
Rh       9.71803055      15.76317881      11.63800999
Rh      10.82765885       8.07128321       8.95569153
Rh      11.73991364      14.87123818      10.28162522
Rh       9.42380413      13.61787462      13.02686801
Rh      13.03876365       8.59959581       7.72838217
Rh      11.45336673      12.66167581      11.56951074
Rh       8.84403309       9.12923329      12.96179691
Rh       9.09876864      11.45497904       8.85907625
Rh       7.45287424      14.54007345      11.63864109
Rh      11.45754188      12.58639010      14.27512195
Rh      15.19784703       9.01306158      11.62244276
Rh      13.68375154      13.11599194      10.14775706
Rh      15.49766709      11.21883825      12.92167063
Rh      11.15180139      10.34323853      12.85845908
Rh       9.13547643      11.40990570      11.51453038
Rh      13.36170758      10.84696554      11.49029727
Rh      11.74896016      14.83077495      12.93434083
Rh      10.83571977       8.01696109      11.58560876
Rh       9.40336382      13.68539896      10.17165640
Rh       7.18614299      12.32572928      12.96832784
Rh      13.67690780      13.05141705      13.00388161
Rh      11.13275295      10.31651512      10.18903015
Rh      13.06407670       8.56843380      12.93744566
Rh      15.80533035      13.42817350      11.59306413
Rh      11.12176846      10.34199743       7.61566638
Rh      13.37922489      10.88569444       8.83485290
Rh       9.13628426      11.28026365      14.22688513
Rh       8.81746447       9.16066608       7.75319459
Rh       6.85849419      10.18131114       9.07510307
Rh      15.21128342       9.07092030       9.02651867
Rh      15.56218755      11.26742422      10.26694638
Rh      11.15745608      10.28136698      15.44761061
Rh      10.86668833       8.13783694      14.18606368
41
Properties=species:S:1:pos:R:3 config_type=qcd gap_pre_relax_energy=-242.94180960147037 gap_pred_energy=-243.2040894381597 gap_fmax_final=0.0009552376701590029 gap_converged=1 pbc="F F F"
Rh      11.95717802      11.00969493      10.06012483
Rh      11.88429172      11.01875842      12.76696817
Rh      14.44590401      11.80513924      10.06000899
Rh      14.50037013      11.85474689      12.76688990
Rh      12.61847334      13.23190608      11.41274794
Rh      12.63844217      13.16880392       8.79438796
Rh      10.37926833      13.14587294      10.05313542
Rh      14.49224016      14.46040724      10.05293820
Rh      11.93947436      15.35511960      10.14783916
Rh      10.35051727      13.08158948      12.76704827
Rh      14.55360537      14.42430015      12.76696809
Rh      11.88563030      15.52289991      12.76706947
Rh      11.95726544      11.00957280      15.47379264
Rh      14.44600980      11.80496214      15.47378315
Rh      12.61854707      13.23184135      14.12123296
Rh      12.63861924      13.16859019      16.73958931
Rh      10.37937626      13.14575951      15.48093927
Rh      14.49236924      14.46023261      15.48102747
Rh      11.93957427      15.35497475      15.38629011
Rh      16.34860115      13.08478230      14.23407304
Rh      16.34855022      13.08489690      11.29971412
Rh      13.88061217      16.54353400      14.07817531
Rh      13.88055528      16.54363112      11.45594375
Rh      13.75400144       9.67925524      11.47884757
Rh      13.75400553       9.67917178      14.05488805
Rh       9.66865499      15.19782586      14.07841690
Rh       9.66861183      15.19787139      11.45578466
Rh       9.66523499      10.94875139      14.23362447
Rh       9.66520726      10.94880462      11.30038396
Rh      16.19850890      10.45101671      11.45798255
Rh      16.19852495      10.45090519      14.07558639
Rh      16.33579467      15.71750624      11.45731460
Rh      16.33585010      15.71740629      14.07665549
Rh      11.31510366       8.89015555      11.45824011
Rh      11.31509709       8.89009939      14.07567503
Rh       8.14839569      13.10042221      11.45748077
Rh       8.14843307      13.10037993      14.07666456
Rh      17.98771521      11.74934677      12.76682242
Rh      18.05567591      14.33140206      12.76690435
Rh       7.55121045      10.97378138      12.76703521
Rh       9.10445386       8.90983643      12.76696033
41
Properties=species:S:1:pos:R:3 config_type=qcd gap_pre_relax_energy=-243.0274441134237 gap_pred_energy=-243.21420228615585 gap_fmax_final=0.0009634583201353399 gap_converged=1 pbc="F F F"
Rh      15.91756229      16.32770043      14.29197289
Rh      15.91852433      18.88457280      14.36004511
Rh      13.28903247      16.28754555      14.33820794
Rh      10.71746596      16.27831989      14.33325613
Rh      13.34662542      18.86529383      14.31555228
Rh      13.28721645      13.69660385      14.33467245
Rh      10.73113944      13.64857057      14.40426009
Rh      13.30021816      11.07243456      14.46228714
Rh      15.97753008      13.65182002      14.32672050
Rh      15.96208024      11.00880702      14.37086966
Rh      14.59600547      15.06320352      16.24700223
Rh      11.87645816      15.00252799      16.29401353
Rh      14.67969738      17.71002001      16.29679469
Rh      14.69478934      12.47433452      16.24479481
Rh      12.02930663      17.61279100      16.13957080
Rh      12.03526442      12.36533333      16.22277887
Rh      14.62088887      14.92666930      12.48559808
Rh      17.41270472      14.91864887      12.49443230
Rh      11.89437223      14.93765564      12.42243904
Rh      14.63924556      17.67240169      12.38704924
Rh      14.62618858      12.19333325      12.46945418
Rh      17.27718305      17.49660998      12.46641838
Rh      12.03738655      17.54996495      12.49024811
Rh      12.03978466      12.31159311      12.58336432
Rh      17.25306226      12.32872872      12.50942706
Rh      13.27979297      16.38738594      18.03547741
Rh      13.26264311      13.76791222      18.12644591
Rh      15.95591497      16.19732496      10.68259990
Rh      13.35353250      16.20462249      10.65833737
Rh      13.33420906      13.60570596      10.69392857
Rh      15.93493339      13.62257553      10.70731621
Rh      15.49081058      15.12526301      18.61013980
Rh      16.80678062      16.39329357      16.78053851
Rh      16.99469260      13.78827948      16.93242615
Rh      18.13444582      15.03565633      14.93492930
Rh      18.07891704      17.59463083      14.91173481
Rh      18.10633773      12.45059838      14.97269065
Rh      13.36828553      11.16563193      18.04583236
Rh      14.62127250       9.88420455      16.30146122
Rh      15.50689532      12.51681477      18.66966582
Rh      16.81489541      11.17870755      16.84933805
42
Properties=species:S:1:pos:R:3 config_type=qcd gap_pre_relax_energy=-249.32873633005914 gap_pred_energy=-249.63546161046946 gap_fmax_final=0.0008314331961256013 gap_converged=1 pbc="F F F"
Rh      11.37496624      10.90660802       9.66438704
Rh      11.45194830      10.70762768      12.41140000
Rh      13.90301881      11.68125249       9.67865799
Rh      13.88438939      11.56230615      12.41106354
Rh      12.09922053      13.04372243      11.04729756
Rh      12.07316650      13.05333679       8.42153387
Rh       9.81545777      12.96467239       9.72029034
Rh      13.94265718      14.31343710       9.68570913
Rh      11.36375036      15.18634182       9.80763704
Rh       9.89442389      12.92536022      12.41152010
Rh      14.02180796      14.19282296      12.41095391
Rh      11.32435238      15.32867662      12.41125377
Rh      11.37566497      10.90680319      15.15841818
Rh      13.90371442      11.68144379      15.14345181
Rh      12.09956576      13.04381996      13.77517559
Rh      12.07417755      13.05361775      16.40094431
Rh       9.81614008      12.96486442      15.10276614
Rh      13.94335229      14.31362333      15.13621081
Rh      11.36441241      15.18652667      15.01487097
Rh      15.78648397      12.90678216      13.86212287
Rh      15.78611008      12.90668435      10.95942267
Rh      13.32296189      16.35145767      13.70568608
Rh      13.32262865      16.35137295      11.11624486
Rh      13.21278717       9.47662224      10.81819751
Rh      13.21319491       9.47673455      14.00424239
Rh       9.09316954      15.01908375      13.70529088
Rh       9.09284003      15.01898880      11.11780330
Rh       9.10857489      10.77685683      13.69987803
Rh       9.10824799      10.77676365      11.12351362
Rh      15.67215840      10.29612470      11.08542022
Rh      15.67249948      10.29621621      13.73633367
Rh      15.77277383      15.55046240      11.10812021
Rh      15.77311085      15.55054644      13.71325794
Rh      10.71189612       8.76478152      10.86188398
Rh      10.71229211       8.76489262      13.96124251
Rh       7.63832270      12.89240132      11.15685487
Rh       7.63864150      12.89249475      13.66675893
Rh      17.46558680      11.61053693      12.41059913
Rh      17.50122331      14.17692508      12.41050854
Rh      14.80513912       8.24403327      12.41105941
Rh      12.33245159       7.60455502      12.41139835
Rh       8.80191605       8.54901682      12.41181572
42
Properties=species:S:1:pos:R:3 config_type=qcd gap_pre_relax_energy=-248.85939654172722 gap_pred_energy=-249.6069232822679 gap_fmax_final=0.0008015842596575614 gap_converged=1 pbc="F F F"
Rh      11.30768941      14.66710199       8.92549840
Rh      11.94139040      15.83884261      11.05824383
Rh       7.71111891      11.11241671      13.84614028
Rh      16.06149803      11.46095196      13.23641306
Rh      14.43245325       8.52939686       9.32160891
Rh      11.94735424       8.18232129      13.80560046
Rh       9.48352474       9.09322172       9.36721740
Rh      11.98902522      12.64372006      16.34505168
Rh      15.58695905      13.85519090      14.07798480
Rh      14.00052166      10.47437061       7.77873092
Rh      10.06097225      12.53457011       8.03318312
Rh      11.88428185      16.10626310      13.60467176
Rh       8.26587528      13.67270653      13.95728879
Rh       7.48800440      12.54247454      11.63580093
Rh      15.81922316      13.50397950      11.50437977
Rh      14.96568838      11.98265103       9.64225351
Rh      11.36492083      10.28261161       7.93405801
Rh      13.28863280      14.52254400      15.09825116
Rh      10.52960866      14.44185735      15.04280618
Rh       8.11747694      11.39964603       9.39609586
Rh      13.84701027      14.31079291       9.93814436
Rh      14.09493242      11.97043170      14.91235162
Rh      11.88616779       8.26402582       9.41062296
Rh       9.77999785       9.60493142      13.84584510
Rh       9.81681649      11.89683048      15.18555845
Rh       8.50750166      10.03481711      11.59490617
Rh      15.26680063      10.00168736      11.25073381
Rh      10.51443884       8.34087187      11.61500681
Rh      11.98952979      10.43089535      15.05925549
Rh      13.24144610       8.28734541      11.60611018
Rh      14.08338614       9.73512101      13.59829292
Rh      13.67957676      14.62592054      12.53845043
Rh      12.60846404      12.53904668       8.51552614
Rh      10.09576365      14.71564691      12.44507837
Rh       9.35126404      13.66857914      10.25560844
Rh      12.92459640      10.49931242      10.11250575
Rh      13.85642248      12.00388717      12.12972472
Rh       9.77595223      12.12332270      12.57396984
Rh      11.78140334      10.40272035      12.41906873
Rh      11.96940745      12.83465238      13.70444556
Rh      10.48165437      11.24514171      10.24306526
Rh      11.83988068      13.25581395      11.07308297
43
Properties=species:S:1:pos:R:3 config_type=qcd gap_pre_relax_energy=-256.1451822441315 gap_pred_energy=-256.3408459714083 gap_fmax_final=0.0009502985095085827 gap_converged=1 pbc="F F F"
Rh      13.49268686      13.93129571      11.71573941
Rh      13.53089583      16.49470711      11.83436197
Rh      10.86507846      13.88453254      11.76982192
Rh       8.30015151      13.95347610      11.77046345
Rh      10.95868886      16.47734850      11.79833217
Rh      10.83175525      11.26932188      11.74011647
Rh       8.26858324      11.35990156      11.75933567
Rh      10.89186426       8.62097026      11.67478629
Rh      13.53825392      11.25562763      11.72647914
Rh      13.53289790       8.61824084      11.69137734
Rh      12.19067881      12.62027177      13.65167599
Rh       9.47437289      12.62622719      13.70294162
Rh      12.28562926      15.28173282      13.74357369
Rh      12.17652062      10.00395335      13.57843219
Rh       9.63570824      15.22930214      13.60192186
Rh       9.49737878      10.03314373      13.66709092
Rh      12.17194811      12.56113455       9.90263219
Rh      14.97656453      12.55699097       9.89896904
Rh       9.47208610      12.63935231       9.81741674
Rh      12.23607709      15.32647415       9.84749791
Rh      12.19685987       9.86931682       9.81338101
Rh      14.87190638      15.13687898       9.91800305
Rh       9.63739951      15.23617874       9.95017261
Rh       9.58776430      10.02402172       9.87461058
Rh      14.81639643       9.98046670       9.86052838
Rh      10.89390278      13.95235467      15.46443296
Rh      10.84984215      11.33537533      15.52471036
Rh      13.53070613      13.87268658       8.12333896
Rh      10.94255698      13.91445692       8.08534330
Rh      10.90333468      11.31743868       8.05136938
Rh      13.50432688      11.31187439       8.07496408
Rh      13.08804157      12.67094871      16.02253426
Rh      14.39872713      13.95068742      14.20571080
Rh      14.54831740      11.34022193      14.29128791
Rh      15.71243369      12.62016437      12.32890752
Rh      15.67289176      15.17353050      12.36081716
Rh      15.68538971      10.04044033      12.31177923
Rh      10.92641136       8.71922083      15.44066720
Rh      12.20976593       7.41954283      13.60709448
Rh      13.06863076      10.06079312      16.00743884
Rh      14.36482992       8.74802360      14.15548067
Rh       9.63646477       7.47298070      13.59454415
Rh       8.32959258       8.79270416      11.74423032
43
Properties=species:S:1:pos:R:3 config_type=qcd gap_pre_relax_energy=-256.5542974228732 gap_pred_energy=-256.70928909374686 gap_fmax_final=0.0009855311599997277 gap_converged=1 pbc="F F F"
Rh      13.32038605      11.26888307      13.97813973
Rh      11.28103926       8.21871755      11.05560961
Rh       7.00877010       9.74023356      10.99460632
Rh      13.52858295       9.31880150       7.31670862
Rh      13.40856981      13.73401231      10.11666217
Rh       9.03264309      11.21604428      13.81847768
Rh       6.96211966      11.96371734      12.41862157
Rh       9.27665662       9.27896903       7.16765097
Rh      11.13690102      10.36499521      15.11579229
Rh      11.36842973       8.41140045       8.42572626
Rh       9.20690084      11.49065470       8.47477006
Rh      13.27706960       8.92113936      15.02573048
Rh      11.26267759      15.14102491      10.10850938
Rh      11.32298083      10.58921966       9.82087073
Rh       9.02414405      13.52469529      12.62610602
Rh       9.07849626       8.84872996      12.32550929
Rh       7.13344853       9.93966856       8.44755401
Rh      11.34626974      13.00414183       8.62853693
Rh      15.43691046      12.03982902      12.71524207
Rh      13.47086605       9.03650669       9.86507443
Rh      15.52268633      12.17656353      10.07066257
Rh      11.18923052      12.83796907      11.28985740
Rh       9.11362021      11.23022903      11.13991425
Rh      13.40268207      11.32838165      11.28520130
Rh      11.39377229      10.77056012       7.23643739
Rh      11.17264573      12.72987334      13.95939426
Rh       9.16363734       8.98288618       9.71658107
Rh       7.04709546      12.09804632       9.80601538
Rh      13.49546993      11.54642968       8.60086460
Rh      11.23439509      10.45040346      12.52735606
Rh      13.32548775      13.60055055      12.69405458
Rh      15.57493390      10.00977636       8.72541649
Rh      11.19652546       8.14050789      13.69136623
Rh      13.38589273       8.90282808      12.46339848
Rh       9.11279663      13.66526758       9.89402901
Rh       9.02468387       8.88165236      14.89332763
Rh       6.96706063       9.67725045      13.55141006
Rh      15.40848582       9.74601010      13.83112747
Rh      15.51483978       9.82811754      11.27643583
Rh      11.17941824      15.00686635      12.70147651
Rh      15.48932015      14.23982299      11.50333748
Rh       6.98918708      14.23479099      11.22531192
Rh       9.11453921      15.76610057      11.37339392
44
Properties=species:S:1:pos:R:3 config_type=qcd gap_pre_relax_energy=-262.28770682574793 gap_pred_energy=-262.69439828550856 gap_fmax_final=0.0009617203331134579 gap_converged=1 pbc="F F F"
Rh      11.78870509      11.12549429      10.05820001
Rh      11.86300838      11.05994571      12.75405597
Rh      14.29777590      11.91747378      10.04160998
Rh      14.35425244      11.87995859      12.75374968
Rh      12.49075694      13.33137359      11.40594054
Rh      12.47895068      13.26983417       8.77998092
Rh      10.22619982      13.24917086      10.04553509
Rh      14.34879408      14.55044698      10.02163414
Rh      11.77613284      15.44502398      10.13221519
Rh      10.23604400      13.13990732      12.75431495
Rh      14.47149134      14.45546352      12.75379228
Rh      11.69854101      15.58104552      12.75417824
Rh      11.78941039      11.12537216      15.44993315
Rh      14.29848442      11.91734962      15.46590581
Rh      12.49110978      13.33131272      14.10210980
Rh      12.47998597      13.26965376      16.72807042
Rh      10.22690531      13.24904994      15.46310214
Rh      14.34950624      14.55032141      15.48599060
Rh      11.77681250      15.44490520      15.37611727
Rh      16.22553753      13.17956342      14.28016531
Rh      16.22514046      13.17963505      11.22690268
Rh      13.69119674      16.59659703      14.06748234
Rh      13.69085639      16.59665811      11.44040621
Rh      13.62790794       9.73114694      11.27043121
Rh      13.62829686       9.73107847      14.23715704
Rh       9.49528269      15.28059150      14.05973397
Rh       9.49494400      15.28064949      11.44918098
Rh       9.52529419      11.04688966      14.18832459
Rh       9.52491977      11.04695501      11.32040062
Rh      16.10199832      10.57480570      11.41119140
Rh      16.10234942      10.57474263      14.09579014
Rh      16.19633110      15.81024176      11.42550189
Rh      16.19667668      15.81017943      14.08169932
Rh      11.11326512       8.98190761      11.42865345
Rh      11.11361264       8.98184658      14.07955916
Rh       8.00500667      13.19306314      11.45630258
Rh       8.00534444      13.19300531      14.05291514
Rh      17.85673561      11.87632583      12.75329102
Rh      17.90950238      14.40905926      12.75334428
Rh      15.36118263       8.51781749      12.75353835
Rh      12.93992112       7.73845651      12.75383770
Rh       7.37730312      11.08114441      12.75464538
Rh       8.89121888       9.00766973      12.75439869
Rh      15.43234714      17.86190575      12.75374931
44
Properties=species:S:1:pos:R:3 config_type=qcd gap_pre_relax_energy=-261.5343022887722 gap_pred_energy=-262.3481158412931 gap_fmax_final=0.0008440858294062256 gap_converged=1 pbc="F F F"
Rh      13.51691290       7.76994707      10.42179027
Rh      12.52044585       8.10201635      12.85440296
Rh      15.54345986       9.40134039      10.14716305
Rh      15.01652077       8.54740363      12.48460182
Rh      11.16432758       6.91716025      11.00043381
Rh       8.72827097       7.68239550      10.76734488
Rh      13.53337295       9.68769023       8.57047620
Rh       9.97551208       8.17786983      13.01318613
Rh      15.33563882      11.12482522      12.17074016
Rh      11.24722665      10.63396487      12.98731111
Rh      11.53495752       8.13343991       8.78029351
Rh      13.15825444      10.14993909      11.26718005
Rh       8.27366045       9.88867374      12.03747689
Rh      10.63697071       9.43498842      10.76318978
Rh      14.61216845      11.74587162       9.69877194
Rh      13.65390381      10.12985999      13.98383529
Rh       9.09865758       8.12958910       8.34761938
Rh      11.34640328      10.22274246       7.26156056
Rh       7.27516668       9.52233181       9.72029246
Rh      13.23705545      12.05321110       7.45718035
Rh      11.45284605       9.14836783      15.03980882
Rh       9.38188627      10.57706545       8.83730961
Rh       9.47555629      12.06440938       6.82563554
Rh       7.15096685      11.62804452       8.18312158
Rh      14.83360693      13.55984850      11.52672884
Rh      11.79689951      11.47988484       9.47198550
Rh       9.17607696      10.16797120      14.41627745
Rh      12.41205640      12.67603043      11.69626132
Rh       9.88702943      11.96317720      11.19214925
Rh      13.20618054      13.85972655       9.44933284
Rh      13.92081941      12.64381226      13.73450223
Rh      11.14557324      13.45460617       7.98041512
Rh       7.36149215      11.93255671      10.73925386
Rh      11.99659076      11.72521947      15.20469179
Rh       8.86414227      13.26968569       9.11589129
Rh      10.71175929      13.17199968      13.55436842
Rh       8.16494154      12.17769757      13.20511578
Rh      10.82089513      14.41382207      10.33112304
Rh      12.88695743      15.22320284      11.65939690
Rh       9.42973952      12.34311039      15.53843875
Rh       8.55978129      14.12885575      11.55627444
Rh      12.61909531      14.71930127      14.08163014
Rh       8.61669377      14.51843747      14.10879556
Rh      10.52135705      15.49973632      12.61847150
45
Properties=species:S:1:pos:R:3 config_type=qcd gap_pre_relax_energy=-268.82339699441144 gap_pred_energy=-269.297960783122 gap_fmax_final=0.0008000146780524157 gap_converged=1 pbc="F F F"
Rh      11.89775826      10.89735914      10.29330100
Rh      12.06519816      10.88084867      13.03634909
Rh      14.46613441      11.68157421      10.26991886
Rh      14.52788240      11.72540206      13.03622168
Rh      12.69791374      13.03899984      11.58958604
Rh      12.63093948      13.03929285       9.00107827
Rh      10.37487657      13.05244145      10.30696084
Rh      14.48227826      14.37472837      10.26993980
Rh      11.92302235      15.18963063      10.29365710
Rh      10.49973791      13.05184930      13.03709379
Rh      14.54351377      14.33009326      13.03663462
Rh      12.09116666      15.20396265      13.03733479
Rh      11.89825115      10.89711939      15.77999600
Rh      14.46705302      11.68131052      15.80287591
Rh      12.69838458      13.03840595      14.48388284
Rh      12.63234651      13.03875160      17.07242204
Rh      10.37584023      13.05275163      15.76731982
Rh      14.48320063      14.37453194      15.80294158
Rh      11.92451731      15.18944668      15.78053831
Rh      16.30945097      13.01706070      14.54736774
Rh      16.30896866      13.01711259      11.52490137
Rh      13.79851944      16.51720367      14.52070699
Rh      13.79758272      16.51686867      11.55280044
Rh      13.75620758       9.54732109      11.55240504
Rh      13.75635279       9.54753880      14.52016473
Rh       9.72839138      15.18317218      14.31332415
Rh       9.72736635      15.18260236      11.76118846
Rh       9.70227894      10.93054547      14.31332327
Rh       9.70228676      10.92998022      11.76120338
Rh      16.23999801      10.37647893      11.70312230
Rh      16.24032371      10.37648474      14.36896724
Rh      16.27153360      15.65828749      11.70324742
Rh      16.27210506      15.65838867      14.36912410
Rh      11.24512839      17.24691811      11.73215287
Rh      11.24633231      17.24742127      14.34325144
Rh      11.19539172       8.84767017      11.73076844
Rh      11.19520893       8.84810884      14.34175702
Rh       8.24897433      13.06495832      11.78223334
Rh       8.24946131      13.06589137      14.29277769
Rh      17.97466729      11.74257018      13.03583821
Rh      17.98981859      14.27153359      13.03591127
Rh      15.50492404      17.74102023      13.03611622
Rh      13.06295511      18.50243574      13.03663981
Rh      15.44844188       8.30308929      13.03624291
Rh      12.99747245       7.57099487      13.03656946
45
Properties=species:S:1:pos:R:3 config_type=qcd gap_pre_relax_energy=-268.8281639314915 gap_pred_energy=-269.2122812512194 gap_fmax_final=0.0008318385181179186 gap_converged=1 pbc="F F F"
Rh      11.91772576      10.50713428      10.00627874
Rh      11.86114734      10.54771954      12.75035706
Rh      14.43765294      11.29401125      10.00038793
Rh      14.48726419      11.40816099      12.74950710
Rh      12.63387449      12.66732873      11.31798729
Rh      12.62218285      12.65933735       8.72250030
Rh      10.35805336      12.69693279      10.00653750
Rh      14.46897058      13.97446860      10.00423607
Rh      11.92542817      14.82110016      10.00071157
Rh      10.37817226      12.62975451      12.75055694
Rh      14.50003114      13.99630514      12.74914532
Rh      12.04971006      14.83027049      12.74974245
Rh      11.91913130      10.50770443      15.49428740
Rh      14.43911484      11.29461089      15.49869864
Rh      12.63471928      12.66770413      14.18176485
Rh      12.62436720      12.66019429      16.77725456
Rh      10.35955016      12.69730224      15.49447138
Rh      14.47045508      13.97510332      15.49422968
Rh      11.92686143      14.82165935      15.49892981
Rh      16.29753927      12.63257472      14.23637149
Rh      16.29679061      12.63223248      11.26136919
Rh      13.79873742      16.14064836      14.23650878
Rh      13.79799862      16.14038731      11.26176076
Rh      13.71400851       9.22031917      11.46260502
Rh      13.71464621       9.22055984      14.03743245
Rh       9.72974053      14.81507109      14.03791910
Rh       9.72914342      14.81497556      11.46316054
Rh       9.64080118      10.53528698      14.22715386
Rh       9.64012657      10.53516051      11.27458124
Rh      16.16553044       9.98298615      11.44029200
Rh      16.16616962       9.98325523      14.05815714
Rh      16.27737291      15.26239439      11.41826746
Rh      16.27804617      15.26267451      14.07885766
Rh      11.25139552      16.88244978      11.44082899
Rh      11.25195480      16.88258456      14.05856749
Rh      11.25453925       8.43589701      11.44025972
Rh      11.25516686       8.43611729      14.06104750
Rh       8.18390320      12.74705840      11.44077473
Rh       8.18455257      12.74710270      14.06149461
Rh      17.93697045      11.29896947      12.74864338
Rh      17.99786054      13.85740311      12.74827235
Rh      15.51205645      17.34745841      12.74855835
Rh      13.07419873      18.12621130      12.74920156
Rh       7.53836189      10.62691521      12.75131679
Rh       9.04006945       8.51859757      12.75110685
46
Properties=species:S:1:pos:R:3 config_type=qcd gap_pre_relax_energy=-275.21647380017913 gap_pred_energy=-275.55068300121445 gap_fmax_final=0.0009577469748804439 gap_converged=1 pbc="F F F"
Rh      12.24072032      10.73329718      10.30944601
Rh      12.32155272      10.74119683      13.04738995
Rh      14.81247618      11.54308733      10.31456340
Rh      14.78456765      11.52445266      13.04760586
Rh      12.98298840      12.89466758      11.61987495
Rh      12.97062300      12.86305088       9.01955408
Rh      10.70341813      12.87710732      10.30295853
Rh      14.82482249      14.16963151      10.28808327
Rh      12.27756076      15.02870829      10.29144344
Rh      10.74940259      13.00742332      13.04752932
Rh      14.80743500      14.24983853      13.04785735
Rh      12.35411431      15.07711525      13.04782754
Rh      12.24051745      10.73260389      15.78524276
Rh      14.81225652      11.54239327      15.78050861
Rh      12.98281781      12.89439057      14.47540047
Rh      12.97033293      12.86202719      17.07571302
Rh      10.70319564      12.87635795      15.79214085
Rh      14.82470963      14.16882443      15.80760123
Rh      12.27736378      15.02798802      15.80436091
Rh      16.63722494      12.83440831      14.36713989
Rh      16.63721530      12.83485729      11.72820003
Rh      14.13034727      16.35890784      14.58297764
Rh      14.13042742      16.35943649      11.51325873
Rh      14.06572170       9.38561685      11.58932666
Rh      14.06559394       9.38516453      14.50523542
Rh      10.03414480      15.06284885      14.50814341
Rh      10.03421206      15.06329926      11.58744084
Rh      10.03094791      10.78961958      14.32985179
Rh      10.03104771      10.78999591      11.76467082
Rh      16.55306120      10.23400828      11.72436296
Rh      16.55294468      10.23355534      14.37071274
Rh      16.58785380      15.46484895      11.66607167
Rh      16.58783362      15.46437927      14.43006745
Rh      11.62522632      17.14187038      11.71987897
Rh      11.62515353      17.14144994      14.37642345
Rh      11.51224635       8.68531866      11.74204267
Rh      11.51214773       8.68494143      14.35209662
Rh       8.53860594      12.87293042      11.74428005
Rh       8.53852594      12.87254379      14.35058864
Rh      18.29466061      14.26547063      13.04788345
Rh      15.90049316      17.48499630      13.04839425
Rh      13.49846078      18.33063344      13.04842466
Rh      15.79675538       8.16298564      13.04716337
Rh      13.32148708       7.40282698      13.04695040
Rh       9.40158591      17.07993138      13.04808505
Rh       7.90770032      14.99149300      13.04772758
46
Properties=species:S:1:pos:R:3 config_type=qcd gap_pre_relax_energy=-274.29748373759213 gap_pred_energy=-274.63142351830083 gap_fmax_final=0.0008208057688607977 gap_converged=1 pbc="F F F"
Rh      12.41177952      11.87431408      12.74556904
Rh      12.33393716      11.87431388      15.26708182
Rh      13.11569772       9.65962576      13.88558145
Rh      10.51240834      10.52395417      13.71929786
Rh      10.51191605      13.22455088      13.71850986
Rh      13.11580562      14.08864089      13.88608242
Rh      14.69994488      11.87427485      13.80755637
Rh      11.60403487       9.72997332      11.43703968
Rh      10.02179988      11.87400131      11.41566521
Rh      11.60385421      14.01840026      11.43666095
Rh      14.13312022      13.22435996      11.48327533
Rh      14.13338843      10.52425125      11.48354875
Rh      12.29399841      11.87408256      10.01287132
Rh      10.20205226      10.59478679      16.18534225
Rh      10.20306428      13.15638904      16.18489093
Rh      10.98658648       8.24681731      14.63950548
Rh       8.49607654       9.23289893      14.62634467
Rh       8.44629431      11.87461267      14.63695742
Rh       8.49573203      14.51629293      14.62587745
Rh      10.98682374      15.50096981      14.64069951
Rh      14.74686346       8.24838628      12.32187373
Rh      12.26835264       7.55216338      12.50986681
Rh       9.61673302       8.36716270      12.41036287
Rh       8.05731184      10.51511356      12.41348943
Rh       8.05744304      13.23378448      12.41321801
Rh       9.61715614      15.38200900      12.41057393
Rh      12.26811112      16.19581553      12.51049674
Rh      14.74680060      15.49990439      12.32249607
Rh      16.47566516      13.15597581      12.31490259
Rh      16.47608682      10.59384043      12.31453212
Rh      13.36643282       8.36698729      10.09777936
Rh      10.84502714       7.62708265      10.20584663
Rh       9.24636646       9.70158149      10.14707340
Rh       7.77213335      11.87431875      10.19203274
Rh       9.24640798      14.04708131      10.14720345
Rh      10.84507370      16.12165566      10.20596887
Rh      13.36635185      15.38200571      10.09811104
Rh      15.84931809      14.51573740      10.08874485
Rh      15.88153490      11.87456131      10.04992080
Rh      15.84956672       9.23339434      10.08872409
Rh      11.50954519       9.70138373       8.75083770
Rh       9.95006269      11.87438307       8.75601056
Rh      11.50957627      14.04732121       8.75089671
Rh      14.06780088      13.23351477       8.70492829
Rh      14.06799402      10.51540055       8.70481251
Rh      12.21041610      11.87437152       7.45338590
47
Properties=species:S:1:pos:R:3 config_type=qcd gap_pre_relax_energy=-281.7869858732373 gap_pred_energy=-282.2396305164173 gap_fmax_final=0.0008228808865595283 gap_converged=1 pbc="F F F"
Rh      12.12725997      10.77459976      10.30783187
Rh      12.26536818      10.78902433      13.05416592
Rh      14.67702145      11.55867352      10.30344097
Rh      14.73600579      11.62397165      13.05418517
Rh      12.88491502      12.93370105      11.61830651
Rh      12.85880941      12.91534565       9.02112805
Rh      10.59663055      12.92304978      10.30799160
Rh      14.71082719      14.23465806      10.29245045
Rh      12.17060426      15.07680854      10.30372408
Rh      10.65553494      13.04862618      13.05430566
Rh      14.72320584      14.24327457      13.05433754
Rh      12.25182766      15.11093366      13.05441312
Rh      12.12734850      10.77425990      15.80049163
Rh      14.67709855      11.55833570      15.80489837
Rh      12.88494141      12.93353727      14.49025397
Rh      12.85891933      12.91484867      17.08743215
Rh      10.59670120      12.92269762      15.80062483
Rh      14.71090741      14.23430555      15.81622230
Rh      12.17067599      15.07646441      15.80512709
Rh      16.52775903      12.88485666      14.54529804
Rh      16.52770320      12.88504733      11.56316349
Rh      14.02891472      16.39242887      14.54556395
Rh      14.02887472      16.39262973      11.56339512
Rh      13.96638562       9.42497437      11.59453196
Rh      13.96643706       9.42478375      14.51357432
Rh       9.92195395      15.10183751      14.51397539
Rh       9.92190889      15.10203645      11.59492737
Rh       9.94153150      10.83661153      14.33038317
Rh       9.94148168      10.83678621      11.77800010
Rh      16.44729236      10.24579560      11.72687207
Rh      16.44733684      10.24562560      14.38125973
Rh      16.50275336      15.51115248      11.72077837
Rh      16.50279569      15.51097757      14.38800498
Rh      11.50820801      17.17870127      11.72737819
Rh      11.50824447      17.17852377      14.38174921
Rh      11.40846678       8.73885512      11.75359952
Rh      11.40852056       8.73868103      14.35451656
Rh       8.43780794      12.90859196      11.75386681
Rh       8.43785294      12.90840612      14.35477690
Rh      18.19668159      11.59852230      13.05412142
Rh      18.22620363      14.13426800      13.05427578
Rh      15.76451556      17.58971271      13.05453962
Rh      13.35826740      18.39014971      13.05462214
Rh      15.66272351       8.16253641      13.05394272
Rh      13.19800643       7.44023273      13.05393567
Rh       9.28306631      17.11755625      13.05459561
Rh       7.79516646      15.02406596      13.05448340
47
Properties=species:S:1:pos:R:3 config_type=qcd gap_pre_relax_energy=-281.51324413763206 gap_pred_energy=-282.1861175433477 gap_fmax_final=0.0009593049700524085 gap_converged=1 pbc="F F F"
Rh      15.56981057      14.19416447      12.39673665
Rh      13.80660841      13.14939087       8.46987658
Rh      15.72325763      12.78776445      10.26082481
Rh      14.64584847      14.11127998      14.81618005
Rh      11.34376377      12.66221748       7.75065120
Rh      11.62155734      11.82550286      14.08145307
Rh      11.33609273      16.73553338      13.65780625
Rh      11.09945074      13.04949405      10.22102642
Rh      11.06422258       9.20981424      14.24548188
Rh      16.34823972      11.72687831      12.55958714
Rh      12.00125563      14.98355728       8.86571020
Rh       7.98631032      13.46644594      11.20713779
Rh      13.61843192      15.72530423      13.04204394
Rh       8.48408239      13.41558909      14.13290264
Rh      15.22623696      10.23159058      10.76351680
Rh      15.18584527       9.57632946      13.32229770
Rh      11.29090762       8.06795511      11.92418714
Rh       9.87527399      12.25232440      12.31512921
Rh       9.71773564      15.01769957      12.59337920
Rh       9.50276906       8.56468166      10.07699102
Rh       9.20534730      10.97592046      14.67999340
Rh      12.85969499      10.11310773      12.45994508
Rh      14.44160346       8.75615932       8.84068474
Rh      11.18118581      10.69852482      16.40270826
Rh       8.98393765      12.80151811       8.88249518
Rh       8.42434419      10.91062386      10.45978867
Rh      11.72217845      16.05369495      11.22178909
Rh       7.43207721      11.45370281      12.81284884
Rh      13.99217019      12.31735699      13.18779099
Rh      13.12131150      12.45111321      16.03322188
Rh      12.81530357      10.70638327       8.50421046
Rh      12.10017833      14.60265601      14.89872289
Rh      13.23178504       7.83622985      13.69331579
Rh      13.85643948      14.66878061      10.60129396
Rh      15.47978856      11.57881025      15.08779484
Rh      15.36384331      11.12042204       8.34004909
Rh       9.28035490       9.60223193      12.48795256
Rh      10.31732204      13.06755637      15.88394666
Rh      11.09824144      10.54554233      10.71000122
Rh      12.06213053      13.81238453      12.43570184
Rh      13.85005226       8.12827841      11.20956539
Rh       9.68803231      15.38980007      15.12817617
Rh      13.35178364      12.01434840      10.73373882
Rh      13.37522291      10.01963897      15.13852873
Rh      10.12588104      10.49691758       8.40328080
Rh      12.01486318       8.49537335       9.46205770
Rh       9.61599910      15.06817945      10.03625037
48
Properties=species:S:1:pos:R:3 config_type=qcd gap_pre_relax_energy=-287.4223474219785 gap_pred_energy=-287.8420619549711 gap_fmax_final=0.0009932663793833806 gap_converged=1 pbc="F F F"
Rh      10.09095052      10.92609020       8.69541376
Rh      10.02223021      11.00177921      11.38971468
Rh      12.59897434      11.77382346       8.66458557
Rh      12.51709416      11.80934642      11.27075829
Rh      10.62869845      13.14983353      10.01203662
Rh      10.75058443      13.08465697       7.40170390
Rh       8.44452754      13.07462159       8.72039540
Rh      12.55084900      14.41945938       8.72372539
Rh       9.97402763      15.24610837       8.73357252
Rh       8.27713989      13.21953642      11.32382424
Rh      12.43370162      14.42859823      11.41957768
Rh       9.75370948      15.32065058      11.33606725
Rh       9.75290598      11.04539630      14.21673295
Rh      12.32651612      11.92001261      14.09492894
Rh      10.52451979      13.19764953      12.73814864
Rh      10.41552418      13.25220855      15.40950003
Rh       8.24521615      13.19735856      13.91114980
Rh      12.27489345      14.63738694      14.24510913
Rh       9.73953904      15.32656024      13.92454943
Rh      14.20251416      13.17368555      12.75285997
Rh      14.44264541      13.13215301       9.96684093
Rh      11.65817932      16.55218809      12.65140898
Rh      11.78783430      16.51441954      10.06894596
Rh      11.93265142       9.56577235       9.93566314
Rh      11.78993836       9.74544786      12.72308019
Rh       7.75567602      10.99183270      12.60539790
Rh       7.84957027      10.92151172      10.02073950
Rh      14.39415221      10.49993001      10.01936975
Rh      14.28341848      10.55263806      12.76975788
Rh      14.26827885      15.75027921      10.22105475
Rh      14.18346752      15.82246532      12.82556069
Rh       9.40646904       8.84372773      10.16633451
Rh       9.29780919       8.86242172      12.77120991
Rh      16.16117723      11.85760524      11.45085608
Rh      16.04001692      14.49294348      11.56558835
Rh      13.70225572       8.36114426      11.41830248
Rh      11.18176812       7.58185951      11.50190675
Rh      16.14555318       9.25569634      11.47320756
Rh      16.59130555      13.10608682      13.69602354
Rh      16.62087397      10.52246196      13.75957335
Rh      14.72673923      14.37967313      14.96173094
Rh      14.77088003      11.76250829      15.12596001
Rh      12.89267976      13.09567547      16.30222296
Rh      11.40143157      10.96588128      16.28425764
Rh      13.29841922       9.65920097      15.10640938
Rh      10.82138068       8.81961370      14.91990878
Rh      15.09641776       8.34791547      13.73704316
Rh      12.65286791       7.51015751      13.64526410
48
Properties=species:S:1:pos:R:3 config_type=qcd gap_pre_relax_energy=-287.7288003328109 gap_pred_energy=-288.150117245532 gap_fmax_final=0.0009790547849202315 gap_converged=1 pbc="F F F"
Rh      11.24440749      10.94170712       9.12624602
Rh      13.46147205      11.71012001       7.81100789
Rh      11.67627009      13.44984128       8.67413213
Rh      13.76876098      14.36638547       7.65957122
Rh      13.12719247       9.24474812       8.70760419
Rh      12.22466805      16.01487784       8.93408552
Rh      11.53596668      10.86517847      11.80187639
Rh      15.28703655      10.55230736       9.35884002
Rh       9.39240589      12.67978751       9.66026908
Rh      10.02656636      15.19253712       9.76170922
Rh      11.11650057       8.71000069      10.44476736
Rh      13.34002860      12.05532268      10.32149631
Rh      15.35713386       8.05299714       9.74913494
Rh      15.37604111      13.09861118       9.08025535
Rh      13.02641453       7.08333583      10.28213640
Rh      13.74769290      14.62802175      10.36324696
Rh      11.39962589      13.49731516      11.24187766
Rh      11.73650123      15.98446244      11.57834633
Rh       9.16578217      10.29066814      10.64346695
Rh       7.69410186      14.48121947      10.43865068
Rh       9.96680221       9.12568579      12.83895328
Rh      13.65718700       9.50872075      11.18994912
Rh      16.13647934       9.54492822      11.75731777
Rh      15.88899322      12.08503828      11.36203330
Rh       9.40270978      12.32471410      12.28720232
Rh      13.34366051      14.43700377      12.89396636
Rh       9.41017568      14.95908325      12.27813523
Rh       7.75209761      10.47099781      12.88633862
Rh       7.23858636      13.58116525      12.81518153
Rh      14.75950093       7.33864574      12.21448681
Rh       7.20286148      11.97375558      10.84219529
Rh      15.69936736      14.40159577      11.99048070
Rh      12.26530407       8.01239126      12.71138983
Rh       9.56893510      11.01816524      14.63228682
Rh      13.80772318      11.79239757      12.81053709
Rh      11.54693798      12.64166054      13.75368937
Rh      15.22083227      13.45089112      14.31546715
Rh      11.92598736      10.03114092      14.31702904
Rh      11.20935702      15.20610117      14.09952827
Rh      16.15371189      11.14394072      13.76621751
Rh       7.20743301      12.04685527      14.85307697
Rh       9.15980681      13.70491686      14.55698073
Rh      13.00561820      13.87875355      15.49264809
Rh      14.32515133       9.34942448      13.74288741
Rh       9.04517429      12.34181283      16.73083440
Rh      11.52753173      11.83176672      16.18166963
Rh      13.92651280      11.40558255      15.32059206
Rh      10.71578261      14.26821047      16.49499505
49
Properties=species:S:1:pos:R:3 config_type=qcd gap_pre_relax_energy=-293.826245798499 gap_pred_energy=-294.24321537190355 gap_fmax_final=0.0007444757263502948 gap_converged=1 pbc="F F F"
Rh      10.21814676      10.86519352       8.79058395
Rh      10.10049713      11.00074142      11.55030540
Rh      12.69162490      11.71471715       8.72006906
Rh      12.58434017      11.75149421      11.29713170
Rh      10.66295381      13.12913184      10.10156003
Rh      10.84418983      13.01085164       7.47442802
Rh       8.52060691      12.91777834       8.74849444
Rh      12.63238223      14.35764302       8.77520319
Rh      10.10373492      15.20876562       8.76111967
Rh       8.26435571      13.16450061      11.38077352
Rh      12.56207816      14.33097535      11.47574630
Rh       9.75996013      15.35087965      11.39894519
Rh       9.78488549      10.96917984      14.27076205
Rh      12.29861977      11.82919902      14.02828012
Rh      10.53465250      13.24782909      12.76018596
Rh      10.49127893      13.17878538      15.44227132
Rh       8.30533350      13.12490701      13.99037296
Rh      12.36542478      14.55672147      14.29645498
Rh       9.83189548      15.31372937      14.04604477
Rh      14.28652866      13.09534960      12.88391104
Rh      14.52830891      13.07204529      10.01074402
Rh      11.74214855      16.45661291      12.70128032
Rh      11.90128827      16.43814602      10.15024881
Rh      12.07761974       9.47555432       9.98578393
Rh      11.91186736       9.61749199      12.70215845
Rh       7.78557372      10.93784270      12.68015764
Rh       7.99022841      10.78894620      10.12028133
Rh      14.49955439      10.44326355      10.06092935
Rh      14.38146464      10.50157338      12.76726789
Rh      14.36507599      15.69876773      10.26564929
Rh      14.26723628      15.75291873      12.88543645
Rh       9.58318071       8.79150438      10.22235183
Rh       9.36233983       8.81415013      12.77295047
Rh      16.26041247      11.81487845      11.48713202
Rh      16.09942167      14.41980881      11.62088392
Rh      13.83534020       8.26328951      11.46811311
Rh      11.29615771       7.45453385      11.55869338
Rh      16.26036258       9.20049575      11.50175039
Rh      16.70263572      13.06599385      13.74075938
Rh      16.76143323      10.47559692      13.75517020
Rh      14.82616608      14.32072720      15.05449480
Rh      14.88884870      11.66163610      15.10121961
Rh      12.99132461      12.91698768      16.23110945
Rh      11.43293366      10.88002225      16.29889127
Rh      13.33859862       9.63722960      15.11316348
Rh      10.89927549       8.73625656      14.88923955
Rh      15.19615698       8.35537073      13.80414859
Rh      12.79886254       7.41644915      13.71021727
Rh       7.80364433      15.10448430       9.77808135
49
Properties=species:S:1:pos:R:3 config_type=qcd gap_pre_relax_energy=-293.87438102363416 gap_pred_energy=-294.2076401184545 gap_fmax_final=0.0009709936838024365 gap_converged=1 pbc="F F F"
Rh      14.54644444       9.80487232       8.34578260
Rh      13.37566182      11.90936363       7.36557255
Rh      13.90043389      14.17520752       8.52789189
Rh      14.91295641       8.26135680      10.60166518
Rh      14.24305555      11.93368603       9.85799519
Rh      13.27070441       7.45017021       8.68576848
Rh      12.05459600       9.48343285       7.56258687
Rh      13.83380885      15.56991193      10.90597795
Rh      10.80631357      11.56423748       6.55629195
Rh      11.41282567      13.82722465       7.74389956
Rh      12.00378989      16.02595834       9.04378386
Rh      14.51987155      10.44158357      12.06445401
Rh      12.80622604       9.52854880      10.12766038
Rh      14.10408148      13.25720747      12.18168530
Rh      11.49214253      11.56311071       9.01020098
Rh      12.17670889      13.79174271      10.30589447
Rh      14.13420214       8.05524348      13.05310845
Rh      12.48348684       7.17845008      11.21395688
Rh      14.49783494       9.85651280      14.79767985
Rh      10.79580879       7.87583574       9.29078129
Rh      13.94630909      13.58652175      14.95269924
Rh      12.27997681      11.57597237      11.48342545
Rh      13.05782978      15.34201005      13.35624815
Rh       9.52141148       9.95908354       8.18822190
Rh      11.37006751      13.53303989      12.86440175
Rh      11.99035652       9.33337561      12.68865891
Rh       9.13253323      12.59137197       8.29832157
Rh      10.21933306       9.95610209      10.74773272
Rh      11.68374144       7.08175288      13.76068463
Rh       9.97381275       7.63876093      11.86034354
Rh      12.96180396      11.57636539      13.88444703
Rh       8.33253372       8.41411816       9.94689938
Rh       9.76453494      14.85630146       9.58220898
Rh      12.09996105       9.25091831      15.24176431
Rh       9.83091352      12.58703245      10.85797387
Rh      11.20175801      15.85128570      11.57600620
Rh      10.43957742      15.50492778      14.11271976
Rh       7.87599833      10.98690511      10.01558964
Rh      12.85979306      11.45702225      16.38284399
Rh      10.16705442      11.19590758      13.10784342
Rh       9.78089618       8.86279437      14.19316193
Rh       8.13369124       9.58661486      12.27241911
Rh       7.56965503      13.57845111      10.16291367
Rh      11.48156000      13.43514603      15.41698860
Rh      10.38550139      11.12208851      15.64622738
Rh       8.93989451      14.63540138      12.15320215
Rh       7.74574956      12.21269748      12.38232317
Rh       9.13689871      13.22136430      14.37562368
Rh       8.05644707      10.82355707      14.55601572
50
Properties=species:S:1:pos:R:3 config_type=qcd gap_pre_relax_energy=-301.2384446753103 gap_pred_energy=-301.35119939006 gap_fmax_final=0.0005668265102772099 gap_converged=1 pbc="F F F"
Rh      15.31336683      16.21047412      14.19722992
Rh      15.26586547      18.79244786      14.26014528
Rh      12.68416879      16.14350090      14.14853737
Rh      10.09200400      16.13205490      14.04273958
Rh      12.64029667      18.73313047      14.10579821
Rh      12.68416879      13.51827174      14.14853737
Rh      10.09200400      13.52971773      14.04273958
Rh      12.64029667      10.92864217      14.10579821
Rh      15.31336683      13.45129851      14.19722992
Rh      15.26586547      10.86932477      14.26014528
Rh      13.86608694      14.83088632      16.09796538
Rh      11.19944325      14.83088632      16.04511165
Rh      13.85186919      17.62983578      16.11625676
Rh      13.85186919      12.03193685      16.11625676
Rh      11.27478735      17.43227348      15.89810984
Rh      11.27478735      12.22949915      15.89810984
Rh      14.06176167      14.83088632      12.33993311
Rh      16.78906385      14.83088632      12.25992033
Rh      11.33895973      14.83088632      12.17140445
Rh      14.07758225      17.57332340      12.26675197
Rh      14.07758225      12.08844923      12.26675197
Rh      16.69237473      17.43289521      12.38708317
Rh      11.44935777      17.42506792      12.26122487
Rh      11.44935777      12.23670472      12.26122487
Rh      16.69237473      12.22887743      12.38708317
Rh      12.53471030      16.19027218      17.84506645
Rh      12.53471030      13.47150046      17.84506645
Rh      15.36991429      16.13174166      10.52176021
Rh      12.81468548      16.12395117      10.46843995
Rh      12.81468548      13.53782146      10.46843995
Rh      15.36991429      13.53003098      10.52176021
Rh      14.62475520      14.83088632      18.65443382
Rh      16.05929467      16.14360176      16.71902970
Rh      16.05929467      13.51817087      16.71902970
Rh      17.43649873      14.83088632      14.91035125
Rh      17.50305192      17.57325513      14.87601841
Rh      17.50305192      12.08851750      14.87601841
Rh      14.74650740      12.22972402      18.54273808
Rh      16.11202936      10.92873690      16.75050972
Rh      14.74650740      17.43204862      18.54273808
Rh      16.11202936      18.73303573      16.75050972
Rh      18.84191563      13.53002607      13.16628223
Rh      18.84191563      16.13174656      13.16628223
Rh      16.84959441      16.13197894      19.18986072
Rh      16.84959441      13.52979369      19.18986072
Rh      18.32260188      14.83088632      17.49061614
Rh      18.20694646      17.42505469      17.40830473
Rh      18.20694646      12.23671794      17.40830473
Rh      19.57224926      13.53787784      15.61540268
Rh      19.57224926      16.12389479      15.61540268
50
Properties=species:S:1:pos:R:3 config_type=qcd gap_pre_relax_energy=-300.4977025986413 gap_pred_energy=-301.51018384281724 gap_fmax_final=0.0008798616350355205 gap_converged=1 pbc="F F F"
Rh      13.03483815      13.60828430       9.09456815
Rh      13.86665582      11.75557555       7.51779555
Rh      14.43611039      14.71527199      10.85720770
Rh      15.39590684      12.66639262       9.45192235
Rh      16.60178699      13.60354990      11.48342630
Rh      11.40988059      12.11405281       7.91697147
Rh      12.28533648       9.64142490       7.78336688
Rh      11.66328702      10.60512328      10.03940982
Rh      14.22914101      10.29072604       9.45657019
Rh      12.62131208      16.05775460       9.73168679
Rh      15.02834324       8.63506898      11.26438104
Rh      15.01936250      15.04647317      13.28480078
Rh      15.90815137      11.01866217      11.33340517
Rh      15.34525317      12.48943328      13.31453391
Rh       9.70442304      10.28218759       8.27779875
Rh       9.00406561      12.87656661       8.00827451
Rh      10.71139552      14.55086327       8.77866197
Rh      12.68161109       9.49203108      12.14189229
Rh      13.53420826      12.09405882      11.21059951
Rh      10.62178196       7.95634367       8.90037039
Rh      12.88770132       8.15760551       9.95560419
Rh      10.78249076      15.47260557      11.26944095
Rh      11.03953717      12.98147730      10.84703211
Rh      13.90384458       7.62674100      13.31624513
Rh      13.00792405      16.48564335      12.26438421
Rh      12.62354616      14.02317401      12.63939805
Rh       9.34588563       9.25888899      10.63792322
Rh      15.14475920       9.87297535      13.50950090
Rh       8.64272085      14.35423570      10.25024425
Rh      10.98967366       7.61560392      11.59076557
Rh      12.95831770      11.47766233      13.67456541
Rh      10.83937707      15.53078113      13.83376703
Rh       8.82799947      11.76375434      10.20109722
Rh      13.11908679      16.04029209      14.80404419
Rh      10.46223265      10.93857362      12.36119492
Rh       8.61663522      15.48263975      12.62112087
Rh      13.77701236      13.63643044      15.05128226
Rh       8.73290717      13.02063512      12.44227412
Rh      14.84763400      11.35117373      15.60267433
Rh      10.81607831      12.84465111      14.00970851
Rh      13.23701231       9.40129420      15.21133394
Rh       7.78513576      10.56046796      12.21459198
Rh       9.34392491       8.85217252      13.25721518
Rh      11.52351372       7.94144468      14.03306577
Rh      11.49961443      14.30309989      15.99367909
Rh       8.84905442      14.13810125      14.85490187
Rh      12.38122894      11.78575832      16.20128895
Rh       8.61589830      11.41274389      14.43850727
Rh      10.77269774      10.21492170      14.98009534
Rh       9.89581656      12.32671893      16.45752196
51
Properties=species:S:1:pos:R:3 config_type=qcd gap_pre_relax_energy=-307.3586468569642 gap_pred_energy=-307.6698885288669 gap_fmax_final=0.0009662121367835782 gap_converged=1 pbc="F F F"
Rh      12.75428317      13.52738071      11.58729171
Rh      12.78143798      16.10824344      11.54795004
Rh      10.11847074      13.44529799      11.53739964
Rh       7.51415588      13.44737227      11.44345904
Rh      10.10739855      16.06823755      11.55130581
Rh      10.12008997      10.83053948      11.55813630
Rh       7.52697022      10.84407722      11.44489384
Rh      10.07687006       8.24182226      11.49894005
Rh      12.74229714      10.77431258      11.60696738
Rh      12.70596075       8.18737075      11.65825315
Rh      11.29654012      12.15447677      13.50467404
Rh       8.63201648      12.14098233      13.44810893
Rh      11.23310064      14.88610963      13.58434116
Rh      11.29229638       9.33450931      13.51433862
Rh       8.70718980      14.73754031      13.28778615
Rh       8.71041595       9.53531758      13.29557228
Rh      11.50250561      12.14369757       9.73743442
Rh      14.22783033      12.14047670       9.65273881
Rh       8.77280493      12.16485491       9.57815931
Rh      11.51130071      14.88374080       9.65091536
Rh      11.51240980       9.40784199       9.66729155
Rh      14.14168932      14.73287487       9.76229993
Rh       8.90342843      14.78039190       9.71173979
Rh       8.88663989       9.56583856       9.66068860
Rh      14.12343069       9.54549816       9.79353258
Rh       9.93530756      13.46067866      15.29176617
Rh       9.97579058      10.76686957      15.24239418
Rh      12.79352797      13.43329768       7.91255942
Rh      10.22955134      13.45748430       7.87802027
Rh      10.24786305      10.86937208       7.87182329
Rh      12.80626713      10.83360364       7.91449005
Rh      12.06147416      12.14473889      16.05778081
Rh      13.50500745      13.44893138      14.11444738
Rh      13.48810958      10.83419312      14.12111770
Rh      14.87279817      12.14735469      12.30210143
Rh      14.95004377      14.88743705      12.26766791
Rh      14.94141658       9.41148526      12.27657356
Rh      12.19113401       9.53906744      15.94430233
Rh      13.56030503       8.24564036      14.14972539
Rh      12.19242939      14.74130380      15.93998523
Rh      13.49100383      16.07185904      14.12618337
Rh      16.28386046      10.83733125      10.56085382
Rh      16.28562563      13.43705526      10.56991703
Rh      14.28988298      13.45470123      16.59940960
Rh      14.28851227      10.85142960      16.59017178
Rh      15.75386257      12.17238681      14.89040088
Rh      15.58678322      14.78754538      14.79738496
Rh      15.64745522       9.57316909      14.80544717
Rh      17.00705239      10.87656996      13.01521722
Rh      17.00248347      13.46471600      13.03182161
Rh      11.49858313      17.41063736      13.23188348
51
Properties=species:S:1:pos:R:3 config_type=qcd gap_pre_relax_energy=-306.86968303822556 gap_pred_energy=-307.2687721072272 gap_fmax_final=0.0009685594889052524 gap_converged=1 pbc="F F F"
Rh      10.18546088      10.88018356       8.69386338
Rh      10.07266316      10.95202161      11.36927209
Rh      12.67539174      11.73802179       8.66743412
Rh      12.58518971      11.77482418      11.26084231
Rh      10.66398175      13.13739668      10.03996702
Rh      10.83635405      13.04272895       7.41379183
Rh       8.51789008      12.94023322       8.68121767
Rh      12.63794430      14.37111928       8.72839789
Rh      10.13464349      15.24137303       8.70433498
Rh       8.20349407      12.93010702      11.29391360
Rh      12.50832551      14.41568655      11.40271129
Rh      10.01306351      15.50519540      11.31980229
Rh       9.84173503      10.97077412      14.15734052
Rh      12.41704711      11.86338990      14.03104852
Rh      10.55566934      13.18800186      12.65725363
Rh      10.50587888      13.19454385      15.32754419
Rh       8.31375099      13.06132391      13.88398518
Rh      12.38437592      14.58829694      14.19420274
Rh       9.90232000      15.32233037      13.90719849
Rh      14.29988554      13.12144905      12.69917821
Rh      14.53862207      13.07284763       9.94686009
Rh      11.94073427      16.57500415      12.64699872
Rh      12.01684743      16.54603222      10.00856347
Rh      12.03992178       9.51477528       9.91022960
Rh      11.88636696       9.68486388      12.66172644
Rh       7.83648005      10.73609929      12.58835772
Rh       7.91655009      10.70982498       9.94997448
Rh      14.47595460      10.45920322      10.01770622
Rh      14.38172090      10.49706662      12.78494394
Rh      14.40796930      15.66799751      10.22324570
Rh      14.39964556      15.72273388      12.81537213
Rh       9.55190014       8.75603705      10.15329638
Rh       9.47113063       8.70952099      12.74356867
Rh      16.27510939      11.79144380      11.40892197
Rh      16.21295245      14.40936596      11.48596253
Rh      13.81984554       8.29553954      11.37316152
Rh      11.33472635       7.46523652      11.41531970
Rh      16.24012546       9.20544919      11.42603098
Rh      16.67267725      13.08506798      13.64385085
Rh      16.77050530      10.50194757      13.67655507
Rh      14.82821971      14.29803973      14.95408722
Rh      14.89133075      11.70442157      15.14060211
Rh      12.96216868      13.04679040      16.23844120
Rh      11.46755996      10.92102755      16.21758624
Rh      13.39648033       9.57713537      15.11944126
Rh      10.93732853       8.76004046      14.89609806
Rh      15.17883605       8.23652234      13.65366846
Rh      12.71636066       7.45318389      13.58660906
Rh       7.75124606      15.15927100      12.50446137
Rh       7.87893414      15.09528575       9.93310586
Rh      15.86702925       9.42356802      15.76229764
52
Properties=species:S:1:pos:R:3 config_type=qcd gap_pre_relax_energy=-314.3097973436343 gap_pred_energy=-314.5237323507299 gap_fmax_final=0.0008375640383820908 gap_converged=1 pbc="F F F"
Rh      12.85818256      13.43229993      11.45984743
Rh      12.81416601      16.06194772      11.51433596
Rh      10.15664080      13.33462216      11.43708761
Rh       7.59262581      13.42311019      11.43976619
Rh      10.14067958      15.99553216      11.50902704
Rh      10.15434759      10.75033353      11.49977370
Rh       7.56079139      10.81178381      11.39848428
Rh      10.10850903       8.16859878      11.45911447
Rh      12.78537141      10.72666859      11.55910196
Rh      12.73694907       8.14301017      11.62623034
Rh      11.33443363      11.99035575      13.46543419
Rh       8.67207639      12.09464545      13.40262344
Rh      11.43198518      14.62475070      13.33359437
Rh      11.31851334       9.24943762      13.48986311
Rh       8.81349380      14.73971361      13.25570630
Rh       8.74788615       9.49617054      13.25202292
Rh      11.54925341      12.07046977       9.66368819
Rh      14.29876178      12.06949511       9.56741055
Rh       8.78985938      12.10189588       9.51223436
Rh      11.56369184      14.83090975       9.59681280
Rh      11.54967873       9.34417114       9.62639001
Rh      14.20240206      14.69415794       9.69066008
Rh       8.96204370      14.71893051       9.63746750
Rh       8.91421673       9.50189758       9.61810172
Rh      14.16014292       9.48963028       9.75307291
Rh       9.98229488      13.38224374      15.24148158
Rh       9.99546699      10.71327367      15.22765965
Rh      12.84404943      13.37225424       7.86086605
Rh      10.28011475      13.38509319       7.81937947
Rh      10.27887520      10.79327886       7.82196287
Rh      12.84614634      10.75916074       7.85594180
Rh      12.10596357      12.09797022      16.01409181
Rh      13.60201895      13.33807272      14.05718266
Rh      13.54548687      10.75373295      14.07863233
Rh      14.94047646      12.07373314      12.24267787
Rh      14.99760472      14.83427507      12.20819514
Rh      14.97975237       9.34757553      12.23498420
Rh      12.23418416       9.49961845      15.90328359
Rh      13.60009110       8.17202882      14.11446622
Rh      12.20640487      14.74302801      15.83602809
Rh      13.53359376      15.99886720      14.08928435
Rh      16.33776969      10.76258078      10.51120265
Rh      16.33028924      13.37564510      10.51207560
Rh      14.28417760      13.42977233      16.52862480
Rh      14.33577957      10.81854528      16.55082975
Rh      15.82352500      12.10887319      14.86129753
Rh      15.65363609      14.72557955      14.72628701
Rh      15.69155569       9.50857058      14.77228799
Rh      17.05627376      10.79993637      12.97611775
Rh      17.05510636      13.39175111      12.97175621
Rh      11.40317489      17.22152660      13.36818883
Rh      10.08938023      15.97836872      15.09725766
52
Properties=species:S:1:pos:R:3 config_type=qcd gap_pre_relax_energy=-313.518686157258 gap_pred_energy=-313.8862066777315 gap_fmax_final=0.0009211132860210248 gap_converged=1 pbc="F F F"
Rh      10.29505030      11.04673156       8.71435909
Rh      10.20368051      11.08523653      11.39800281
Rh      12.78343911      11.89848625       8.72558769
Rh      12.70093921      11.92698920      11.33715627
Rh      10.78370397      13.29304615      10.08404173
Rh      10.95139614      13.20473424       7.45071226
Rh       8.63238401      13.11286480       8.71605525
Rh      12.74973280      14.52821202       8.75408914
Rh      10.24513197      15.40046194       8.74217260
Rh       8.35086773      13.12288156      11.33048982
Rh      12.65386029      14.56063653      11.43807782
Rh      10.11283379      15.62217871      11.35901954
Rh       9.94776071      11.11664770      14.21257732
Rh      12.56994949      11.98807323      14.11682195
Rh      10.71828857      13.30887551      12.71502986
Rh      10.64531664      13.33038379      15.37819604
Rh       8.45560965      13.23298348      13.92529388
Rh      12.50805695      14.74863835      14.25364183
Rh      10.01632936      15.44702318      13.95048965
Rh      14.43088512      13.29241736      12.78309607
Rh      14.63940646      13.22580025       9.99935846
Rh      12.01102780      16.72227531      12.69706636
Rh      12.12834434      16.67871597      10.07741564
Rh      12.14320512       9.68552925       9.95903662
Rh      11.98038243       9.81757008      12.74399317
Rh       7.93914630      10.94499548      12.63098371
Rh       8.04644737      10.88960103      10.01098987
Rh      14.58254365      10.61455872      10.08662302
Rh      14.47252559      10.66035213      12.87558295
Rh      14.53916874      15.83659774      10.17941303
Rh      14.47797016      15.93647732      12.76968295
Rh       9.64858420       8.90047973      10.10122753
Rh       9.50745439       8.88451729      12.69028919
Rh      16.36313266      11.94923087      11.48836335
Rh      16.29439925      14.58370058      11.50764874
Rh      13.90867068       8.46824107      11.44881601
Rh      11.40473691       7.64769989      11.42833243
Rh      16.33266289       9.36423494      11.52256964
Rh      16.85175571      13.30809702      13.65090698
Rh      16.87180079      10.67146000      13.75596972
Rh      14.97316770      14.60902659      14.93798859
Rh      15.11730512      12.05176714      15.14545352
Rh      13.10969914      13.24052924      16.29156528
Rh      11.54856336      11.02623881      16.26661958
Rh      13.35467229       9.55190952      15.11722159
Rh      10.90005203       8.83174602      14.87357240
Rh      15.25870392       8.38367150      13.73009804
Rh      12.76962093       7.51942096      13.58516379
Rh       7.85712038      15.32776283      12.55391571
Rh       7.98054272      15.27049525       9.96550120
Rh      13.95859170      10.97448091      17.17011216
Rh      15.80501360       9.68694922      15.88524284
53
Properties=species:S:1:pos:R:3 config_type=qcd gap_pre_relax_energy=-320.4681286765906 gap_pred_energy=-320.8415315529226 gap_fmax_final=0.0009944274296144948 gap_converged=1 pbc="F F F"
Rh      12.90023522      13.49972262      11.41044700
Rh      12.86107147      16.13733192      11.45992332
Rh      10.19981147      13.41538900      11.39180447
Rh       7.62707153      13.47692247      11.39699092
Rh      10.18785437      16.08235744      11.45489513
Rh      10.19800445      10.83747023      11.43768290
Rh       7.63212564      10.84067077      11.40064708
Rh      10.15327275       8.25267674      11.38396408
Rh      12.82870323      10.78287103      11.50671629
Rh      12.84025936       8.17714740      11.49357028
Rh      11.38045792      12.07224127      13.41336838
Rh       8.71415547      12.18122599      13.35329061
Rh      11.47912172      14.70820178      13.28137118
Rh      11.44246994       9.26706008      13.33388227
Rh       8.85967771      14.82471059      13.19833984
Rh       8.84628819       9.54236441      13.24270457
Rh      11.60289407      12.14471862       9.61477403
Rh      14.34802803      12.16485888       9.50442271
Rh       8.82472918      12.16628655       9.48210475
Rh      11.60111725      14.90781981       9.55025135
Rh      11.59907712       9.42291268       9.56121736
Rh      14.24157132      14.77802049       9.64260916
Rh       8.99462213      14.78890599       9.60087603
Rh       8.94998274       9.57465534       9.55630746
Rh      14.21876134       9.58875529       9.67670029
Rh      10.02946611      13.48925531      15.19182582
Rh      10.00278577      10.91370603      15.22894070
Rh      12.87705463      13.46265402       7.80691448
Rh      10.31053311      13.45871586       7.78486241
Rh      10.32056399      10.87519728       7.77160863
Rh      12.88868730      10.85237392       7.79071779
Rh      12.15480265      12.18321377      15.96538660
Rh      13.64391238      13.41739578      14.00658732
Rh      13.60215935      10.83944019      14.02205758
Rh      14.97947835      12.14670244      12.17825317
Rh      15.04000679      14.90987594      12.16106200
Rh      15.03414539       9.42496016      12.16905036
Rh      12.22776505       9.54431369      15.80987287
Rh      13.66790028       8.25472849      14.05218436
Rh      12.26299072      14.82669297      15.78208695
Rh      13.58434331      16.08437263      14.03349166
Rh      16.39186667      10.85446823      10.45026959
Rh      16.37739895      13.46474063      10.46439475
Rh      14.33031472      13.48081682      16.48604468
Rh      14.32738928      10.84455799      16.48358709
Rh      15.85385577      12.17042301      14.81853923
Rh      15.69178433      14.79285358      14.68534627
Rh      15.75069734       9.57866172      14.71927231
Rh      17.10042560      10.87923829      12.91876767
Rh      17.08837944      13.46275838      12.93056633
Rh      11.45810502      17.31014079      13.30697836
Rh      10.14551460      16.07539395      15.03697002
Rh       9.98502578       8.42576704      15.25421580
54
Properties=species:S:1:pos:R:3 config_type=qcd gap_pre_relax_energy=-326.59588847159534 gap_pred_energy=-327.06183636135756 gap_fmax_final=0.0007359961345903391 gap_converged=1 pbc="F F F"
Rh      11.31234520      12.77949917      12.77721067
Rh      11.46883276      12.77876877      15.39674315
Rh      12.29623622      10.65917531      14.10364557
Rh       9.41415176      11.51781946      14.06963372
Rh       9.41779732      14.04627769      14.07000956
Rh      12.30200003      14.89659410      14.10445296
Rh      13.84248319      12.77577346      14.13536737
Rh      13.84320428      12.77629674      11.41980392
Rh      12.30261636      14.89706872      11.45114194
Rh       9.41831411      14.04678111      11.48413974
Rh       9.41462317      11.51833657      11.48372955
Rh      12.29679889      10.65975477      11.45037768
Rh      11.46989682      12.77981159      10.15775370
Rh      12.24173905      10.64405340      16.76963430
Rh       9.67210641      11.46915706      16.65104655
Rh       9.67585398      14.09308923      16.65142958
Rh      12.24770362      14.91085020      16.77040943
Rh      13.80567172      12.77522699      16.77786207
Rh      14.58068067      10.60753662      15.55878975
Rh      12.90555461       8.53003217      15.37887532
Rh      10.43986791       9.40558690      15.32554353
Rh      10.44933731      16.15510376      15.32681831
Rh      12.91753970      17.02349736      15.38045787
Rh      14.58671600      14.94120287      15.55963558
Rh      16.07625960      12.77225527      15.37282054
Rh      14.53537190      10.68149645      12.77741472
Rh      12.74108145       8.41080644      12.77664799
Rh      10.37661844       9.42702626      12.77643561
Rh      10.38608155      16.13491037      12.77766015
Rh      12.75350254      17.14420294      12.77829042
Rh      14.54107769      14.86863335      12.77821498
Rh      16.28447864      12.77243533      12.77808257
Rh      16.07742133      12.77321434      10.18320401
Rh      14.58790267      14.94223553       9.99673866
Rh      12.91865754      17.02444332      10.17613803
Rh      10.45043952      16.15607020      10.22855485
Rh      10.44085186       9.40663912      10.22736741
Rh      12.90653360       8.53107489      10.17454897
Rh      14.58178396      10.60858696       9.99595472
Rh      13.80726018      12.77672996       8.77736648
Rh      12.24932086      14.91234982       8.78513627
Rh       9.67738184      14.09461749       8.90285165
Rh       9.67358255      11.47071064       8.90240573
Rh      12.24325372      10.64559653       8.78435584
Rh      11.52462250      12.78022716       7.52598744
Rh      16.72131743      10.54853916      14.08963961
Rh      16.72742997      14.99457405      14.09046768
Rh      16.72181808      10.54903355      11.46592806
Rh      16.72796534      14.99504296      11.46681267
Rh      15.09545694       8.52105684      14.05422674
Rh      15.10751917      17.02683986      14.05589060
Rh      15.09594687       8.52156247      11.49997565
Rh      15.10807699      17.02727753      11.50156909
Rh      11.52263593      12.77823893      18.02852281
55
Properties=species:S:1:pos:R:3 config_type=qcd gap_pre_relax_energy=-334.62727992520263 gap_pred_energy=-334.8637389227164 gap_fmax_final=0.0009631327664020499 gap_converged=1 pbc="F F F"
Rh      11.24152948      11.34774614      13.55845117
Rh      12.66861971      11.30847792      11.28044303
Rh       8.63644361       9.19254815      15.06255483
Rh       7.32494050       9.19966608      12.83984111
Rh      11.22361148      13.42386660      12.01245334
Rh      13.88242984       9.21227284      15.02713652
Rh       9.95459508      13.52585356      14.35267463
Rh      13.98146667       9.13742437      10.46946361
Rh       9.92798033      11.30668314      15.78399526
Rh      12.56985852       9.20217584      12.80606032
Rh      13.95316589      13.50623775      12.09558208
Rh      12.58505976      11.31678861      15.76607101
Rh       8.62748732       7.07431158      12.11733018
Rh      15.21056535      11.33283733      11.26871875
Rh      11.19165663      13.44632708       7.39004289
Rh      13.86724938       7.09350038      12.08164554
Rh       8.45856682      11.22008673       8.98268593
Rh      12.51230551      11.28459589       6.78627849
Rh       9.91877283       9.19252734      12.82411171
Rh       9.82906645       9.10808262       8.26819897
Rh       9.87888470      11.27491158       6.80398898
Rh       8.51005490      11.39074536      13.63338610
Rh      11.21070825      11.24418180       9.02987962
Rh       8.57086715      13.39036563       7.53857512
Rh      11.24794745       6.93829443      12.10520524
Rh      15.12028434      13.43115879       9.75065556
Rh      11.19869177       9.18403924       6.10062734
Rh      13.97274244      11.41109000      13.59627366
Rh       9.88182533      13.39608686       9.75866829
Rh      13.81471751      13.40956654       7.50287845
Rh      12.52214564      13.53581224      14.33526106
Rh       7.29610177      13.40270073       9.80395358
Rh      12.51892679      15.54694356      12.73145244
Rh      15.16335535       9.22863727      12.78681470
Rh      12.59807361       9.11836498       8.24953023
Rh       9.92266298      15.53701128      12.74931850
Rh       9.78373789      11.29831123      11.30048704
Rh      11.21715838       7.04084998       7.65197418
Rh      11.20475113      15.66934728      10.48311552
Rh       8.49416852      13.48626204      12.13282028
Rh      12.53418097      13.40557861       9.74040381
Rh       8.59661240      15.51960816      10.49660073
Rh      11.22878363       9.18626139      10.54351463
Rh      13.96278962      11.24017129       8.94521160
Rh      13.81381170      15.53848071      10.46061634
Rh      12.54762078       7.05714776       9.85194212
Rh      12.58434587       7.08849995      14.32547718
Rh       9.87241622      15.51104651       8.25311322
Rh       8.47623986       9.11735237      10.50690249
Rh       9.94096096       7.07860139      14.34342193
Rh      12.50733786      15.52066799       8.23496807
Rh       7.24172482      11.30359624      11.32272142
Rh      11.26061416       9.14866162      15.18072533
Rh      11.25413193      13.30161243      16.53733934
Rh       9.91665462       7.04742532       9.86983901
