3
Properties=species:S:1:pos:R:3 config_type=qcd gap_pre_relax_energy=-11.323208212267755 gap_pred_energy=-11.34747036890175 gap_fmax_final=0.00023176155510460332 gap_converged=1 pbc="F F F"
S        8.57975020       9.07003346       7.32064358
S        9.33204799       8.36001626       8.96325302
S        8.92047205       9.40222050      10.54837363
4
Properties=species:S:1:pos:R:3 config_type=qcd gap_pre_relax_energy=-15.552704895228198 gap_pred_energy=-15.645042140337063 gap_fmax_final=0.0004328706768181078 gap_converged=1 pbc="F F F"
S        9.81538491       8.59058844       7.58348762
S        7.48020739       8.12770093       8.76633658
S       10.34247353       9.69500220       9.05640904
S        8.00737330       9.23214755      10.23920589
5
Properties=species:S:1:pos:R:3 config_type=qcd gap_pre_relax_energy=-19.424596530661937 gap_pred_energy=-19.94315221777756 gap_fmax_final=0.00028970171541203816 gap_converged=1 pbc="F F F"
S        8.15929090       8.43526146       7.39314206
S        8.31309987      10.46499422       8.13614488
S        9.04609565       7.12784807       8.72058239
S        9.36259510      10.32500465      10.02706398
S        9.82825044       8.35622355      10.43239866
6
Properties=species:S:1:pos:R:3 config_type=qcd gap_pre_relax_energy=-24.061692507111893 gap_pred_energy=-24.20819278927882 gap_fmax_final=0.0006686162578966738 gap_converged=1 pbc="F F F"
S        9.99349080       9.76332319       7.40504225
S        9.63483470       7.73165051       7.69549483
S        8.05790238       7.35578186       9.00396726
S       10.13248919      10.83457418       9.18640222
S        8.55552165      10.45875979      10.49498568
S        8.19700329       8.42715248      10.78534977
6
Properties=species:S:1:pos:R:3 config_type=qcd gap_pre_relax_energy=-23.701161565368402 gap_pred_energy=-23.726203299172248 gap_fmax_final=0.0007125948745464233 gap_converged=1 pbc="F F F"
S        9.15015140       9.16018611       7.43852961
S        7.63090050      10.19593385       8.33157647
S        9.06595180       7.29963609       8.28347019
S       10.34851273       9.70933404      10.07633968
S        8.52506679      10.60570574      10.29969635
S        9.95926694       7.70905431      10.25023785
7
Properties=species:S:1:pos:R:3 config_type=qcd gap_pre_relax_energy=-28.196758904754653 gap_pred_energy=-28.36732047109509 gap_fmax_final=0.0004966820972714935 gap_converged=1 pbc="F F F"
S        9.99171465       9.06138306       7.69444598
S        8.40742552      10.27099205       8.24952000
S       11.66066399       9.73896166       8.71264046
S        7.75920330       9.55276239      10.07702105
S       10.69708606      10.39882396      11.82014991
S        8.64823091      10.73658528      11.52709833
S       11.52972410       8.93454012      10.61317278
7
Properties=species:S:1:pos:R:3 config_type=qcd gap_pre_relax_energy=-27.957221151082386 gap_pred_energy=-28.249049590135847 gap_fmax_final=0.0005647944690983969 gap_converged=1 pbc="F F F"
S        8.18313607      10.58281405       7.67533952
S        9.91815958      10.51995150       8.79968466
S        7.61357354       8.73874380       6.86107646
S        8.17068075       8.10469066      10.60139882
S        9.68090774       9.52350289      10.63211220
S        8.88469718       7.17336144       7.32173099
S        8.77266785       6.58075834       9.33248004
8
Properties=species:S:1:pos:R:3 config_type=qcd gap_pre_relax_energy=-32.46441499388697 gap_pred_energy=-32.48940851770134 gap_fmax_final=0.0006974336692512169 gap_converged=1 pbc="F F F"
S       10.50094626       9.41317981       7.49053270
S        8.55742157      10.08461001       7.69074633
S       10.72573616       7.79217707       8.75143117
S        8.59579169      11.71111703       8.96394763
S       11.66204158       8.46932854      10.46401971
S        8.03121125      11.04213267      10.83525367
S       10.19950618       8.74969641      11.89601808
S        9.75679358      10.76720671      11.93749894
8
Properties=species:S:1:pos:R:3 config_type=qcd gap_pre_relax_energy=-32.24657050539121 gap_pred_energy=-32.38258343562415 gap_fmax_final=0.0006572240805801944 gap_converged=1 pbc="F F F"
S        8.84834110      10.51447908       7.62540691
S        9.65680209       8.62602639       7.93592831
S       11.63162453       8.93557581       8.44500582
S        8.19922530      11.46024700       9.37361056
S       11.82387903       8.60878096      10.47801083
S        7.76274747      10.13726860      10.90980698
S       11.21131741      10.31803975      11.45675883
S        9.34380573       9.87732508      12.25321444
9
Properties=species:S:1:pos:R:3 config_type=qcd gap_pre_relax_energy=-36.361087726568506 gap_pred_energy=-36.40457674792676 gap_fmax_final=0.0008993322972579938 gap_converged=1 pbc="F F F"
S       10.20548737       7.29355817      10.18828981
S       10.86052496      10.99036810      11.46249651
S        9.39465103      11.56444753       8.47982100
S        7.49698216      11.05618501       9.09070853
S       11.80846036       8.36542520       9.42987818
S        7.44504454       9.19048603      10.05437122
S       12.43979634       9.91027347      10.70534570
S       10.36426322      12.44656131      10.08017967
S        8.53832021       7.73622539       9.06243959
9
Properties=species:S:1:pos:R:3 config_type=qcd gap_pre_relax_energy=-36.31842595531568 gap_pred_energy=-36.39878409574364 gap_fmax_final=0.0007764389857794406 gap_converged=1 pbc="F F F"
S        9.49473795       8.03338430       8.82392259
S        7.95260048      10.95015253       8.88162348
S        7.63704130       8.90835892       9.03723025
S       11.85443421      11.77384169      10.05079776
S       10.24561079      12.97488020      10.55915085
S       12.41138495       8.39836599      10.69712732
S       10.47210584       7.69134037      10.65893522
S        8.51640341      11.84274508      10.69178984
S       12.30038966      10.31163950      11.48413126
10
Properties=species:S:1:pos:R:3 config_type=qcd gap_pre_relax_energy=-40.33875467726675 gap_pred_energy=-40.43145046039926 gap_fmax_final=0.0008736848146882131 gap_converged=1 pbc="F F F"
S        9.82525973       9.20688541       7.26809156
S        9.42363972      11.13204940       7.98221532
S       11.73332310       8.52887361       7.69030982
S        7.59548944      11.26671260       8.99058879
S       11.68608917       7.87584494       9.65733626
S        7.69972856      12.25822908      10.80303655
S       12.57037569       9.22923626      10.99872381
S        8.43369941      10.87996688      12.16686545
S       10.46094999      11.17601649      12.63057428
S       11.54596852       9.42070865      12.78678150
10
Properties=species:S:1:pos:R:3 config_type=qcd gap_pre_relax_energy=-40.383816404412116 gap_pred_energy=-40.81161606616779 gap_fmax_final=0.0006324207005084003 gap_converged=1 pbc="F F F"
S       11.32618234       8.63838976       7.37458804
S        9.45942711       9.55581311       7.45995929
S        9.40814810      11.24106457       8.70278281
S       11.70550352       7.85534533       9.24429898
S        7.61349433      11.66654693       9.66379734
S       12.86825728       9.22788524      10.25847161
S        7.45967082      10.33823805      11.23754202
S       11.56739331      10.66640698      11.00943766
S        8.58923099      11.09462093      12.78828751
S       10.44829934      10.16129626      12.70644189
11
Properties=species:S:1:pos:R:3 config_type=qcd gap_pre_relax_energy=-44.4968148470892 gap_pred_energy=-44.58570213704327 gap_fmax_final=0.00031505080464953747 gap_converged=1 pbc="F F F"
S       10.99772264      10.16903962       7.77235018
S       11.00300744      11.96243831       8.84549584
S       12.56713869       8.89044634       8.26297727
S        9.14929500      12.91683490       8.87593257
S       11.85505628       7.71471981       9.79555663
S        8.31768641      12.53794533      10.71000356
S        8.15661882       9.08866403      11.09888303
S        7.15661319      10.82504785      10.50378669
S       11.15350531      10.13995588      11.98563295
S       12.43086411       8.56652835      11.58996259
S        9.39825516       9.37414266      12.74518177
12
Properties=species:S:1:pos:R:3 config_type=qcd gap_pre_relax_energy=-48.72871512500966 gap_pred_energy=-48.77153368666801 gap_fmax_final=0.0006123514850810074 gap_converged=1 pbc="F F F"
S        9.69876723       8.47120116       6.75117833
S        9.42036431      11.78005839       7.13713349
S        8.48424020       9.97132432       7.49153859
S       10.99518648       7.96363794       8.27927028
S       10.64690957      12.12984951       8.76409714
S       10.08631907       6.50205010       9.42448963
S        9.53460447      13.12016016      10.19768544
S        8.97378991       7.49292961      10.85758785
S        8.62756132      11.65824947      11.34400490
S       11.13831686       9.64962868      12.12984007
S       10.20034273       7.84194038      12.48474173
S        9.92580499      11.15117741      12.87063970
12
Properties=species:S:1:pos:R:3 config_type=qcd gap_pre_relax_energy=-48.60941447135643 gap_pred_energy=-49.0333764787823 gap_fmax_final=0.0005336897749661359 gap_converged=1 pbc="F F F"
S       10.63749397      10.15641343       6.34941679
S        9.34311613       8.62014547       6.85370954
S        7.50728486       9.45069743       7.24474904
S       11.79853561      10.55019057       8.01881632
S       11.04588726      12.23214141       8.92301718
S        7.41077424       9.72295903       9.31692794
S        7.02232803       8.07476116      10.54567710
S        9.75503368      11.56652920      10.42896985
S        8.78125436       7.02574934      10.68245652
S       11.23643690       8.95639188      11.84678981
S       10.56176058      10.85769994      12.22453141
S        9.74661639       7.63284315      12.41146051
13
Properties=species:S:1:pos:R:3 config_type=qcd gap_pre_relax_energy=-52.6120554030298 gap_pred_energy=-52.73747950818178 gap_fmax_final=0.0009201888572196444 gap_converged=1 pbc="F F F"
S       11.92637250       9.09833831       8.63381996
S       10.65876445       7.58525093       9.24679667
S       13.73641234       8.78520903       9.58028456
S        7.84906212       9.12746591      10.12710877
S        8.19282221      11.15493143       9.90035203
S       11.45833584      13.76988050      11.24882088
S        9.60022815       8.31198223      10.86827215
S       14.37939642      11.87734992      11.06221056
S       13.67647007       9.91293330      11.31599634
S        7.48003367      12.08095889      11.60692388
S       13.30173985      13.28052373      12.13176481
S        9.93853857      14.06691491      12.62400843
S        9.06949608      12.21593315      12.92131322
13
Properties=species:S:1:pos:R:3 config_type=qcd gap_pre_relax_energy=-52.58179675349983 gap_pred_energy=-52.961673758738826 gap_fmax_final=0.0008125068269796777 gap_converged=1 pbc="F F F"
S        9.30023574       7.95142354       9.30294657
S        8.88814746       8.08338802      11.31932834
S       12.04764892      11.16256531       7.96973088
S       11.78325037       9.25030007       7.24609225
S       10.78506842      13.90741478      11.10409195
S       12.52864642      13.03535641      11.74439680
S       12.25977213      12.48551576      13.72301370
S        8.92665290      10.04352260      12.07262933
S       10.17541641      12.04324715       8.08596487
S       11.75546029      10.47954521      13.74702921
S        9.73011652      12.40089132      10.08728030
S        9.71411545      10.36101883      13.97858563
S       11.35928167       8.04962373       8.87272289
14
Properties=species:S:1:pos:R:3 config_type=qcd gap_pre_relax_energy=-56.69766625708091 gap_pred_energy=-56.96156045326681 gap_fmax_final=0.0008842956761263707 gap_converged=1 pbc="F F F"
S        8.82820026       7.36161898      11.41985377
S        7.23803405      10.43873172       7.62075512
S        7.20025604       8.56880816       6.67539563
S       11.30067474      10.79671814      10.91932756
S       10.03412246      10.73980888       9.24996165
S       11.30064280      10.79676268       7.58068461
S        7.23808076      10.43875040      10.87925521
S       10.38984969       8.04507538      12.60122945
S       11.79851975       8.84157621       7.18545594
S        7.20018502       8.56877631      11.82452525
S        8.82820728       7.36147805       7.08018248
S        5.95484709      10.65509943       9.25004401
S       11.79851851       8.84163571      11.31450273
S       10.38986156       8.04515995       5.89882659
14
Properties=species:S:1:pos:R:3 config_type=qcd gap_pre_relax_energy=-56.545501663993875 gap_pred_energy=-56.9086127976738 gap_fmax_final=0.000873528257681385 gap_converged=1 pbc="F F F"
S        9.88495153      10.94246981       7.42421599
S        9.81027840      14.16319629       8.25286290
S        8.93999748      12.31148797       8.63402869
S       11.52067353      10.21832663       8.45707097
S       11.32174326      14.61669572       9.59926150
S       10.84361187       8.63924308       9.61252163
S       10.25619540       9.22554761      11.55016224
S       10.78464548      14.22753364      11.59929983
S       13.11377460      12.07121851      12.74506687
S       11.13130074      12.27097768      11.93893824
S       10.76829192       7.99340506      13.14252323
S       12.71949007       8.44145899      13.63066961
S       12.83723063      11.75459952      14.73835931
S       12.65132171       9.70734608      15.25852557
15
Properties=species:S:1:pos:R:3 config_type=qcd gap_pre_relax_energy=-60.742032847435844 gap_pred_energy=-61.41224503813596 gap_fmax_final=0.000780974532951178 gap_converged=1 pbc="F F F"
S       11.13076694       9.33577486       7.41569934
S       12.27611428      10.81477935       8.30828106
S       11.69217346      12.81607897       8.03533750
S        9.66942141       8.78235682       8.77731367
S        8.74123435      13.10800930       9.52607335
S        8.32346229      11.22905179      10.31987977
S       10.76754019      13.40873506       9.76895207
S       10.10469973       7.21724909      10.11214236
S       12.97624740      10.25943101      11.37078412
S        8.24865578      10.99667491      12.40584396
S       10.53182828       8.08072292      11.92417753
S       12.57870242      11.87510132      12.65242239
S       12.57754421       8.32479268      12.02887638
S        9.38573516      12.40166875      13.41690461
S       11.10436128      11.45806034      14.04579905
16
Properties=species:S:1:pos:R:3 config_type=qcd gap_pre_relax_energy=-64.88293777585429 gap_pred_energy=-64.94821015656314 gap_fmax_final=0.0002592232148961795 gap_converged=1 pbc="F F F"
S       11.65557346      13.99694938       9.99997955
S        8.34442603       6.00305125       9.99997741
S        6.00304639      11.65557143       9.99998257
S       13.99695653       8.34443076       9.99998163
S       13.99695354      11.65557169       9.99998030
S       11.65557195       6.00304718       9.99998342
S        6.00304803       8.34442945       9.99997888
S       13.36182219       9.99999438      11.06763973
S       12.37717423      12.37718055       8.93239076
S        9.99999921      13.36182719      11.06764667
S        7.62282294      12.37717613       8.93239627
S        6.63817656      10.00000160      11.06764742
S        7.62282327       7.62281995       8.93239166
S       10.00000916       6.63817248      11.06764949
S       12.37717003       7.62282263       8.93239520
S        8.34442648      13.99695399       9.99997904
16
Properties=species:S:1:pos:R:3 config_type=qcd gap_pre_relax_energy=-64.70093340633909 gap_pred_energy=-65.69270807573 gap_fmax_final=0.0006604866291658819 gap_converged=1 pbc="F F F"
S        6.38819368       6.74255382       5.65780530
S        9.93118808       6.33515691       5.47802018
S       11.31797994       7.43912287       6.56827107
S        8.14806348       5.98947434       6.50519305
S       11.10737501       9.39224172       5.98638296
S        6.10924237       8.76069252       6.03250878
S        7.01076806       9.42028671       7.81591674
S        5.91055581      10.48673435       9.23892607
S       10.03013589      10.39640183       7.47428348
S        4.82258847       9.09084478      10.29597433
S       10.27112205       7.48893092      10.23408987
S       10.94140569      10.70624118       9.32187029
S        8.34499937       7.04080050       9.52015686
S        6.11078000       8.23097914      11.67373897
S       10.20474074       9.45221942      10.82505595
S        6.80823463       6.48469225      10.82917939
17
Properties=species:S:1:pos:R:3 config_type=qcd gap_pre_relax_energy=-68.86676399178441 gap_pred_energy=-68.97438048008053 gap_fmax_final=0.0009615332407125114 gap_converged=1 pbc="F F F"
S       10.18613913      13.91806895       7.71020059
S        9.63369902       7.43189705      13.81851553
S        9.91840490       7.45532531       7.76259483
S       11.53099618      13.34100398      13.50440826
S       10.82772782      15.08148680      10.75412133
S       11.05637883      10.30328804      14.72265527
S        9.00241724       6.34684629      10.74346858
S       10.05108292      13.71654607      12.09175287
S       11.65351013      14.04471386       9.17200082
S       11.81502473       8.19731881       8.11993787
S        8.79333343       7.93110174       9.43419332
S       10.53087985       6.85995244      12.04996517
S        9.38896689       9.48015457      13.79100058
S       12.11048552      11.36569579      13.29347901
S       12.11682790      10.12992298       7.34453235
S       10.45555943      10.89833958       6.38269897
S        9.42856607      11.99833774       7.80447466
18
Properties=species:S:1:pos:R:3 config_type=qcd gap_pre_relax_energy=-72.89090975073535 gap_pred_energy=-74.10632335235053 gap_fmax_final=0.0009113363124255309 gap_converged=1 pbc="F F F"
S       10.25335135      14.00206948      11.20665601
S       11.35243244       6.24764220       9.34506994
S       11.51719276      12.00908446       8.26130116
S        7.32025136      10.02620086      11.93195263
S        9.48352540       8.99053185       8.26074700
S       10.35612169      13.67186900       7.72814619
S       11.99079672       9.81626455      12.04866039
S        9.01030481      11.18315548      12.04862116
S       13.67975605      10.97492365      11.93198919
S       12.24209595      14.23884971      11.79716446
S        9.64703081      14.75170462       9.34413126
S       13.29819152      12.73095229      10.84291319
S       10.74561292       6.99809509      11.20708472
S        7.70164603       8.27055573      10.84233342
S       10.64443747       7.32711190       7.72845236
S        8.75649422       6.76184126      11.79665567
S       10.50037395      10.49948432       9.26977258
S       10.50038455      10.49966354      13.40834867
19
Properties=species:S:1:pos:R:3 config_type=qcd gap_pre_relax_energy=-77.0080918246245 gap_pred_energy=-77.13321747736842 gap_fmax_final=0.0009942909008449545 gap_converged=1 pbc="F F F"
S        9.88680244       5.90271189      11.59800280
S       10.24989687      14.62439085      12.80537968
S        9.44518762       9.74141748      13.65584078
S       11.96202753      14.34601227       9.98460869
S        9.11216031      12.20147105       7.58511807
S       12.05473945      11.75871839      13.65583132
S       10.14469314       7.85635020      14.25784874
S       11.78276924      10.74699216       8.93158531
S        9.71736822      10.75309383       8.93139619
S       12.38795665       9.29871083       7.58516813
S       10.76878686       6.52865081       8.44702140
S       11.25007762       6.87549038      12.80557260
S       12.55965177       7.53493685       8.65561610
S        9.53792361       7.15363854       9.98442620
S       11.61307583      15.59731564      11.59780397
S        8.94035332      13.96513378       8.65593245
S       11.35545618      13.64375326      14.25777421
S       10.73109341      14.97129399       8.44707431
S       10.74997992      10.74991781      12.40799906
20
Properties=species:S:1:pos:R:3 config_type=qcd gap_pre_relax_energy=-81.05302771928163 gap_pred_energy=-81.87828046415652 gap_fmax_final=0.00027587653619742 gap_converged=1 pbc="F F F"
S       12.43741893       6.11933921       9.32228197
S       10.65699500       7.14513559       9.52128602
S        8.22022937      14.23358479      11.37374529
S        8.82643937      12.94298504       9.82294377
S       10.66116640       8.68420029       8.15498283
S       14.26632832      10.05399656      10.21351408
S        8.10121226      16.26000821      10.95095938
S       13.72921604       6.83117201      10.78180676
S       15.02138233       8.13573526       9.86333875
S       14.82983611      11.04983387      11.96444512
S       10.01557010      17.01056030      11.18285050
S        9.90327012      11.29630406      10.50406068
S       11.26617847      10.39316314       9.18909746
S       10.29120246      17.32746652      13.20091129
S       14.63584083       9.89374018      13.68304859
S       11.21893022      12.21022603      13.26618099
S       13.53995164      10.85232929      15.18617929
S       11.30134182      15.66923927      13.95155164
S       11.57057108      10.66588025      14.64146878
S       10.18495707      13.90313806      13.90338476
21
Properties=species:S:1:pos:R:3 config_type=qcd gap_pre_relax_energy=-84.31533988576541 gap_pred_energy=-85.40632681002546 gap_fmax_final=0.0006310780423362315 gap_converged=1 pbc="F F F"
S       11.08523888      13.65710300      16.02416160
S       11.14493641      11.82890963      16.96780688
S       10.41762221      15.28551089      11.18453297
S       11.44214081      11.22765507      10.79699871
S       11.21809276      10.40178578      15.43817925
S        9.08955891      11.36665567      13.10600385
S       12.44818682      15.36219636      11.44691752
S       13.04096543      14.22401873      15.67116378
S        9.42517120       9.88624874      14.49494523
S        9.87359849      13.79881693       9.67812466
S       13.64722771      13.54699516      13.79019233
S       13.68478221      15.39557862       9.73291962
S        8.23148729      12.83259300      10.05507925
S       13.63939587      13.50411038       8.96038057
S       13.38382211      11.51532053      13.36024440
S        9.57355237      10.80643631      11.12360253
S       13.91543529       9.27157662      10.08343943
S       15.22872308      12.26468356       9.62523868
S       15.04498635      10.25297516      13.15611549
S       15.18145071      10.36911436       8.83301939
S       14.71433809       8.63242851      11.90164688
22
Properties=species:S:1:pos:R:3 config_type=qcd gap_pre_relax_energy=-87.98816338317889 gap_pred_energy=-89.44592743144236 gap_fmax_final=0.000933350538587654 gap_converged=1 pbc="F F F"
S       16.53656937      11.57897300      11.30236240
S       17.02334384      12.17730068       9.40474238
S       15.94622534      13.27581031      12.39028572
S       13.81041149      10.99629745       8.75947964
S       14.10892909      12.23630669      14.84524899
S       15.36009162      12.18830761       8.09352808
S       13.59130880      10.27254460      14.34990202
S       14.35711379      14.34594929      11.60050565
S       12.63125042      12.20213225       9.93981046
S       12.60883419      13.65068024      14.53136786
S       12.98445081      15.05162572      13.02296798
S       12.45740689       9.31118853      15.80731807
S       10.10374668      14.61028164      10.02785635
S       11.00333070       8.04267295      15.02957249
S        8.57429117      13.25548378      12.55891433
S        9.93931290      12.10136072      13.65968967
S        9.17960285       9.02205387      14.66277095
S        9.18886713      10.99923635      15.26236413
S       10.97972326      13.21204043       8.98941783
S        8.74976193      10.91073035       8.83149023
S        7.16557080      12.17625368      11.49963953
S        7.75189178      12.43480471       9.48280010
23
Properties=species:S:1:pos:R:3 config_type=qcd gap_pre_relax_energy=-92.40019307542269 gap_pred_energy=-93.08780866123988 gap_fmax_final=0.0008450571045102443 gap_converged=1 pbc="F F F"
S       12.03924354      17.22956486      11.77349165
S       11.38806463      16.22154328      13.44908446
S       12.96629814      14.98972036      14.01547735
S       13.18454072      16.34392722       8.59681629
S       11.62721018      16.23841387       9.96298974
S       12.72944306      12.99890494      13.42229512
S        8.12287125      11.29013675      12.45150067
S        9.49694803      12.22530377      11.40105912
S       13.40878544      12.36054368      10.38190710
S       13.22355359      11.47415969      14.77969936
S       14.81936648      13.57775561       9.41303998
S       13.80801873      14.47989654       7.87782195
S        9.97911517      10.04869371       8.92545351
S       11.89856133      10.41632428       8.16487902
S        9.11775332      11.83679563       9.32457016
S       10.56295036       9.64501667      15.19038459
S        8.95045878       7.65156716      13.17344164
S        9.65217591       9.42070388      12.91539999
S       14.67600057      10.13058105      14.17773053
S       11.11218282       7.81702920      15.55093008
S       13.16898765      10.37131269       9.76594785
S       13.63626634       8.58112406      13.23809309
S       13.06984489       7.28962209      14.68662773
24
Properties=species:S:1:pos:R:3 config_type=qcd gap_pre_relax_energy=-96.28704126467048 gap_pred_energy=-96.76598267437632 gap_fmax_final=0.0005380078451444113 gap_converged=1 pbc="F F F"
S       18.50938761      13.96972377      10.84442371
S       15.80977887      14.12505156      12.76892142
S       17.07225554      12.90104239      11.58236766
S       15.05745795      16.69019855      10.80020125
S       14.37281998      14.86078830      11.51992499
S       15.65807814       8.21343845      14.52164247
S       10.82355919      16.17778304      16.29862218
S       11.55166071      17.91946836      15.38963282
S       14.09446666       9.00570658      15.57941105
S       14.81778098       7.53802485      12.71317605
S       13.92395645      11.11521840      15.39957609
S       12.12713059      10.74867205      11.15839287
S       14.31137004      18.13772319      12.06455343
S       14.87955105       8.91370359      11.19990494
S       10.63248550      13.87983523      13.93155477
S       10.93294221       9.71346332      12.83656489
S       10.37485623      18.59226069      13.82011478
S       12.30665105      11.88687519      16.40512826
S       12.94953571       9.20712217      10.27375058
S        9.49294232      15.11412118      15.10530106
S       12.50453841      18.77330947      11.27591884
S       10.95494176       7.85016851      12.39677334
S       10.79509136      12.06701072      14.97001034
S       11.04271322      17.59524196      12.14008375
25
Properties=species:S:1:pos:R:3 config_type=qcd gap_pre_relax_energy=-101.14694014022075 gap_pred_energy=-103.01644680804725 gap_fmax_final=0.000994585241020057 gap_converged=1 pbc="F F F"
S       11.61164206      14.54641408      10.37101727
S        9.36421868      12.29010175      10.11921433
S       14.67873420       9.69273796      11.40566420
S       16.07915947      13.44538399       9.84291024
S       10.05214557      10.33995526      10.15993542
S       13.56220135       7.96648409      11.11492570
S       13.27287368      13.99925085      11.53079890
S        7.48225906      12.70023964      10.93068111
S       16.98874714      11.83999742      10.85424583
S       10.70250657      16.35915548      10.81982303
S       15.17438971      14.78967720      11.10967360
S       11.75010398       7.94303481      12.21174958
S       10.73146581       9.71828828      12.07511269
S        7.79511487      13.59043726      12.78314256
S       13.62795050      11.04430973      12.69250097
S        9.76610853      16.08474246      12.66857919
S       17.97831689      12.29008498      12.63276219
S        8.05451615      12.38868205      14.47353768
S       17.44886707      11.08102655      14.24520924
S       10.88173005      16.26073019      14.42685384
S       14.08749538      11.05628116      14.69954614
S       12.15235107      14.62229538      14.47062294
S       10.02773864      11.74918685      14.42702843
S       15.89765521      12.01796783      15.19998978
S       11.51334948      12.86517585      15.41611624
26
Properties=species:S:1:pos:R:3 config_type=qcd gap_pre_relax_energy=-103.34532396181592 gap_pred_energy=-104.73404089646627 gap_fmax_final=0.0008170965623555697 gap_converged=1 pbc="F F F"
S       11.53471817       9.29055396       7.78001914
S       10.69248570       9.82984277       5.93558578
S       12.99665983      10.56275449       8.60178251
S        9.01318270      10.89476150       6.30246232
S       12.25015171      12.17639513       9.37763551
S        9.13501106       8.50635192       9.78003264
S        7.48955638       9.66014460       7.30911687
S       16.05432155      13.26448241      10.36070966
S        6.61103636      10.56138011       8.78699154
S       15.83533992      12.10603511      11.88245471
S       10.30866685       9.22091927      13.90425754
S       15.03484371      15.30158540      11.78325995
S        9.70563378      12.00418421      10.92799877
S        8.41461130      12.78517551      12.22120101
S       15.43098585      14.75214205      13.55147703
S       11.78978068       9.07392280      15.31285949
S        8.30180169      10.05889247      10.54004429
S       12.47564727      14.40081410      12.06599496
S        8.72262784      10.23473427      14.77734129
S       13.94182005      10.96095298      11.85301313
S        8.90808771      12.21269329      14.23271566
S       14.04287499       9.10653372      11.27703680
S       12.26531610      15.11684128      13.83155665
S       13.14003025      10.63399279      14.95002123
S       12.98852461      12.37275626      16.09638981
S       11.59660099      13.59147466      15.23835877
27
Properties=species:S:1:pos:R:3 config_type=qcd gap_pre_relax_energy=-107.7054367104027 gap_pred_energy=-108.9031751060582 gap_fmax_final=0.0008031487929792031 gap_converged=1 pbc="F F F"
S       15.23676805      12.43747852       9.63362311
S       14.76187293      10.60953733       9.33527274
S       15.38985219      13.86437218       7.65060352
S       15.26515134      14.55271626      13.20696479
S       16.51832537      15.96344537      12.35590301
S       13.39696104      13.15281774      11.07120479
S       11.02527864       8.23640657      11.52338410
S       12.95811437       9.22167324      15.16895951
S       12.07201827      11.80738972      10.53755856
S       16.30711564      15.29395979       8.64349732
S        8.97709343       8.49937619      11.10012680
S       14.25294828      15.03238430      14.99673083
S       13.92359561      13.39865173      16.22088778
S       14.92402003      16.79802308       9.36645874
S       15.24046252      17.27297578      11.32976765
S       10.82880687      12.38581645       8.87170029
S       11.14529535       8.28484660      14.83303955
S       11.38665319       7.06339795      13.18398395
S       12.23217180      12.45838455      15.49317666
S        7.00315870       8.96890022      13.70022194
S        7.56963756       7.50464547      12.23652664
S       12.88082595      11.02238137      14.15150202
S        8.82560258      12.65436368       9.40507919
S        8.57046023      11.47868097      12.41348826
S        5.55521971      10.04522731      12.92079700
S        6.72544962      11.89389981      12.17672080
S        7.89108187      10.96218900       9.33676166
28
Properties=species:S:1:pos:R:3 config_type=qcd gap_pre_relax_energy=-112.504955385535 gap_pred_energy=-113.90939054392115 gap_fmax_final=0.0009849696505990666 gap_converged=1 pbc="F F F"
S       17.87866349      10.14546837      12.24429600
S       18.18889916      14.05455688      14.08404889
S       18.76086489      15.91065734      14.79733495
S       16.66524111       9.83618493      13.86142228
S       16.60001739      13.17617286      15.13007825
S       17.70018136      17.31898938      13.70919068
S       14.74292281      15.45815774      16.36390867
S       16.40409603      11.57345985       9.63201868
S       16.37421970      18.22861614      15.01126305
S       16.74107039       9.75624323      10.53956870
S       15.59337070      11.59304533      14.20230237
S       14.65348310      17.11879588      15.00815195
S       13.11023754      15.00746898      17.43195565
S       14.68593632      12.39701902      10.41544477
S       11.98167349      10.46017822      10.40279272
S       13.09604791      11.73505549       9.24022176
S       11.82513362      14.61020489      14.28678892
S       11.29038525      11.69620568      15.46243948
S       12.92550493      10.62177875      15.70040245
S        9.63926448      10.99139444      14.25824161
S       10.44676782      11.63406818      11.21296039
S       11.28142641      14.83896166      16.09745506
S        9.24485726      15.23243110      11.12645902
S        8.19906117      13.94896724       9.86616388
S        8.04721080      12.27036197      14.28630380
S        8.02389363      15.58420338      12.74496602
S        8.72411753      11.94202600      10.07223754
S        8.63699382      14.32086922      14.27312462
29
Properties=species:S:1:pos:R:3 config_type=qcd gap_pre_relax_energy=-116.99417788793914 gap_pred_energy=-119.23611423133741 gap_fmax_final=0.0006597408329566671 gap_converged=1 pbc="F F F"
S        6.03757286       8.83484416       9.43167275
S        7.82674895       9.38925586       8.61037073
S       13.90273918      11.34657213       9.21864944
S        6.09533499       9.14157100      11.50654867
S        9.49630669      14.38232003       9.02375158
S        7.75655361      11.40162269       8.09526801
S        9.45679042       9.02660036      11.40143923
S       13.62540008      11.29095325      17.20835794
S       11.68638964      15.19549159      13.02466864
S       11.54169092      14.04018479       8.93445020
S       14.53153220       9.44937615      17.03933940
S       12.20304461      16.93365953      12.07534076
S       13.24134254      16.36285400      10.35176983
S       12.68484398      11.65822878      15.38992691
S       13.20228377      14.65697741      14.37452532
S        8.41001575      12.69057555       9.60503336
S       15.10132260      14.35487508      13.57530750
S       10.74266045      10.89071764      15.09163117
S       15.19010725      15.63747506      10.62534935
S       15.93041029      14.30942511       9.20926027
S       12.24728775      12.33297170       9.95329502
S       10.03376049      11.00597085      11.81062056
S       15.55002928      12.36682191      13.13604124
S       17.24876867      11.54008779      14.03070232
S        9.65222552      11.88946489      13.67236297
S       15.57266872      12.38870458       9.93619024
S       16.55958871       9.76946304      16.75618353
S        7.79257279       8.38516473      12.44910403
S       16.96008337       9.60784644      14.74291509
30
Properties=species:S:1:pos:R:3 config_type=qcd gap_pre_relax_energy=-121.50940725297815 gap_pred_energy=-122.78394925541662 gap_fmax_final=0.0006004213092669606 gap_converged=1 pbc="F F F"
S       12.98931392      13.59575139       6.99788877
S       11.32953371      13.76766318       8.21269576
S        9.83437853      12.62487732       7.35859307
S       14.36137228      12.18396753       7.73601417
S       15.98091393      13.45554354      10.19254995
S       15.21149305      15.33002902      10.71197434
S       16.82907834      16.50032612      11.18387930
S       13.60047395      10.39352659       8.45602901
S       10.01868319      10.71894421       8.13518268
S        8.87486520      10.62131946       9.84537096
S       10.13418463      11.23976353      11.39851409
S       16.25257576      12.05088964      11.71584472
S       13.14714144      10.75699254      10.45689354
S       17.12338281      16.34059371      13.23389262
S       14.66464095      10.72104724      11.91501036
S        8.46746229      11.75915237      16.76252362
S       10.00898773      13.23869527      11.99225931
S        9.05488537       9.85104810      16.25435101
S       16.03907758      17.85861322      14.11359003
S        8.60404401      13.28036287      13.49720247
S       14.24926532      17.02209481      14.74934576
S       12.09343172       8.15947317      16.33881048
S       10.62149507       9.10014077      17.44832658
S        9.42366507      13.03382755      15.42708116
S       12.61058042      12.79932948      15.43400080
S       13.26076843      10.91648701      14.77055051
S       13.68728623       9.45307062      16.19145831
S       15.05299236      14.55531797      16.83514387
S       14.49638982      16.55135059      16.74328351
S       13.34449106      13.48665537      17.25859340
31
Properties=species:S:1:pos:R:3 config_type=qcd gap_pre_relax_energy=-123.88466810262474 gap_pred_energy=-125.41911680460629 gap_fmax_final=0.0006200030883678065 gap_converged=1 pbc="F F F"
S       13.51024770       7.27074448      10.00520521
S       10.10421209       8.01489972      10.25184833
S       12.13408243      15.00954658      13.95503638
S        7.61681779      13.37589265      14.57302259
S       11.02217923      13.27899859       9.77439314
S       10.03362377       9.65792534       9.23627910
S       10.23969870      15.82595207      14.25164328
S        8.69439936      14.71634299      13.38707160
S        8.59960648      11.57474675      14.50404473
S        7.39484877      13.24456311       9.36227717
S       13.06550301      10.51960099      14.37255072
S       11.83134412      12.02707559      15.14330736
S       15.75870587      13.10681827      16.54549997
S       13.66738965      15.63031000      15.24746866
S       12.82704128      10.04058321      12.35992269
S       13.89134541      11.43832351      11.29161144
S       12.84892743       6.44595398       8.24374495
S       15.58591030       7.59673662      10.07768072
S        9.05992630      13.99890586      10.31133243
S       11.58432102      14.26312203       8.17738139
S       15.89167759      11.94646499      14.99116826
S       12.68686016      16.03725293       9.08467883
S        7.06683181      11.32665618      10.09704978
S       13.86765282      14.07037682      16.59822335
S       15.82346491      10.73109324      11.10497722
S       15.86819848       9.51827741       9.42006333
S       13.00868520      15.53473284      10.91897271
S       10.52848899       8.37977478       6.92899560
S        9.99426321      11.57959411      16.03317470
S        7.97401766      10.04689086       8.77802536
S       10.74729578       6.71941078       7.90091628
32
Properties=species:S:1:pos:R:3 config_type=qcd gap_pre_relax_energy=-128.03726239364184 gap_pred_energy=-130.2879834564737 gap_fmax_final=0.0005276039974890683 gap_converged=1 pbc="F F F"
S       12.62411222      15.38520930      12.21371420
S       15.24935567      17.16416892      13.24758688
S       13.56716115      15.15920478       8.75019411
S       13.38066378      17.31295452      12.40015702
S       13.27831170      14.22522848      10.58857246
S       11.68725975      15.53598684       7.99282090
S       15.01878732      16.58825438      15.24052828
S       15.93675118      11.04806274       9.68259888
S       12.16323055      17.68340101      16.50369337
S       14.35975047      12.16570908      14.64037460
S       10.99001487      14.05660955       6.67696433
S       15.42490088      12.06448017       8.14646352
S       14.19135152      17.98777704      16.55935505
S       13.26679084      13.91787534      14.99150925
S        9.74322695      11.67879341       9.96908961
S        9.09288884      13.37093597       7.18546025
S       13.42549723      11.16763659       7.50943196
S        9.29786323      11.47889338       7.94044285
S       11.66951923      16.69115439      18.26784741
S       11.76233118      11.41457850      10.36367263
S       12.93818865      10.13835829       9.09851950
S       11.57432465      13.87033524      16.22227191
S       15.22938281      11.27309943      16.31793496
S       11.81211127      14.61638274      18.15124438
S       12.08264584      10.28186312      13.36170469
S       13.86366483       9.93966023      17.03588926
S       10.81205252      10.74341609      16.38261080
S       12.85074461       8.26578813      13.27195957
S       14.02726745       7.89073668      16.30367519
S       10.36795079      10.69180673      14.47529332
S       14.77442005       8.08747448      13.18503316
S       12.36181047       6.92849693      16.14771820
33
Properties=species:S:1:pos:R:3 config_type=qcd gap_pre_relax_energy=-132.70677392908328 gap_pred_energy=-134.95465126825093 gap_fmax_final=0.0009819821888889045 gap_converged=1 pbc="F F F"
S       17.60952034      13.92769965      14.89137867
S       17.01125548      13.44723865      16.81275933
S       17.50981602      15.05159932      18.01706350
S       15.61100885      11.21045608       9.33703154
S       15.60351871      11.63565807       7.26343580
S       13.85362897      12.57348118       6.86338558
S       14.63898577      13.71573191      13.07788005
S       15.10290500       9.29985911       9.94737428
S       12.46848371      11.07952448       6.27139881
S       14.82541919      15.70360615      19.86930735
S       15.80675184      16.22766576      18.13646035
S       16.04270747      14.96073271      14.03546838
S       14.48973741      13.68588036      10.99347596
S       13.61257110      14.08582188      19.38937587
S       13.04242750       9.21187736      10.15274077
S        9.81239527      14.47385521      14.45958298
S       12.22271910       9.50348957      12.06781540
S       12.96439989      14.79751557      10.05991805
S       13.91310503      11.07223974      14.69099305
S       13.49083800       9.28180185      13.70038838
S       11.68859003      14.32136488      14.18742130
S       13.68297045      11.18641439      16.77418962
S       12.47636460      16.61496318      10.92004326
S       10.26288731      13.06648807      10.24580873
S       11.37095824      10.59415468       7.80491245
S       10.42968915      12.14957374      12.19575620
S       11.76949006      14.61471143      18.57091947
S       10.67843318      16.37484179      11.96310488
S       11.08202126      13.24710299      17.13518926
S       11.68092708      11.23209347      17.16467581
S        8.66400184      14.32854332       9.96808255
S        9.01337971      12.45796822      13.52322963
S        8.90913411      16.20708688      10.85047441
34
Properties=species:S:1:pos:R:3 config_type=qcd gap_pre_relax_energy=-136.72725589796758 gap_pred_energy=-138.41779170979592 gap_fmax_final=0.0009386638174067879 gap_converged=1 pbc="F F F"
S       11.83759662      14.37098568       8.15789309
S       14.17764920      17.42357091      16.39022646
S       10.55967273       8.21746085      11.44133615
S       12.31557546      10.18282923      19.42456616
S       11.22059919      12.43999405      11.09220802
S       11.29921344      16.71517012      10.46712662
S       10.48522398      18.83135252      14.54865340
S       14.50394462      10.60370027      13.53689111
S       12.30152031      12.68873473       9.30561176
S       12.70067271      15.96438249       9.12833021
S       15.97667043      14.76619163      10.51145121
S       10.96166192      15.46312041      12.11933889
S       11.39326055       8.66603139      18.64891868
S        9.35941282      15.91424767      13.36300626
S       13.56779906      11.07795447      17.96827004
S       10.14729417      16.85582532      15.02536703
S       16.23107102      17.36082087      16.15232243
S       11.57329783      11.57970013      15.37208235
S        9.58581406       9.63265746      12.35520308
S       14.92166897       8.46471011       9.53285687
S       14.77134279      15.19737447      12.13110885
S       15.44519730      12.85829864       9.87212344
S       12.48279936      18.95675363      13.98300851
S       13.53439931       7.59311945      12.44301959
S       16.87978401      16.56551004      14.33181030
S       12.86646328      11.90921491      13.77927735
S       12.43883217      12.49329797      17.01792907
S       14.84453150       6.96127226      10.93209709
S       15.89763198      14.80501492      13.81858981
S       14.29329669       8.61982853      14.08306313
S       16.69168856       9.48926227       9.83093504
S       16.20903603      11.19509891      10.91279846
S       13.56262651      19.28676231      15.70793426
S        9.45524871      11.34224865      11.10714253
35
Properties=species:S:1:pos:R:3 config_type=qcd gap_pre_relax_energy=-139.99434066056216 gap_pred_energy=-141.92482396754218 gap_fmax_final=0.0008759250750889135 gap_converged=1 pbc="F F F"
S       15.03879154      10.78574335      14.47847811
S       14.83151474       9.96761495      16.41804481
S       10.98164793       9.53338217       7.71947719
S       15.61727924      14.98865383      17.36822864
S       12.07604129      15.20835045      16.93134871
S       13.54779293      10.17160249      13.17718103
S       10.79495838      16.47000373      13.82166314
S       11.96459776      15.65148382      12.36043907
S       16.67187002      15.42925363      11.60228071
S        9.24939426      10.39810142       7.10201970
S       13.85272513      14.17136393      16.59335282
S       14.67505613      10.16778389      10.17503454
S       12.28560381      12.40306701       9.32477973
S       11.73224817       8.29291565      15.33660836
S        9.57201866      10.80587522      15.69486943
S       17.66129223      15.08001109      14.75881025
S        7.85645070      16.35703747      10.65967305
S        8.85451306      10.70451563      11.26836792
S       10.23936460      12.11486052      14.21367864
S       15.69438769      13.01349945       8.83353735
S        9.05753849      12.36859824      12.50716990
S       11.54789846      10.59346572       9.51840641
S       16.35092152      16.22180623      15.89804309
S       10.69877424      14.68339721      11.00453529
S       17.70475536      13.10927423       9.20875490
S       18.24579050      14.70909619      10.47737002
S       14.57659369      12.08808827      10.40452102
S       16.54039338      14.20451972      13.26693150
S        7.35338895      10.79064141       9.80978404
S       13.61171700      11.08221463      17.44512837
S        9.44559487      15.80185380       9.70678085
S        9.76363327       8.89035132      14.99679532
S        7.69245527       9.54417474       8.18583548
S       10.69953927      15.06079263      15.37195784
S       12.67335389       8.29650238      13.52000918
36
Properties=species:S:1:pos:R:3 config_type=qcd gap_pre_relax_energy=-143.57306819094183 gap_pred_energy=-145.71027695975098 gap_fmax_final=0.0003196024050277443 gap_converged=1 pbc="F F F"
S       16.70341054      14.50236415      16.37000281
S       15.72898788       6.98904291       8.59876250
S       14.74516475      11.53509778      16.47202499
S       15.13381606      13.38795019      15.57215821
S       15.23460622      17.37035961      17.14570199
S       14.49604417       8.43758676       8.27082139
S       10.78225753       9.49382488      16.72077851
S       13.23424693      11.87802749      17.80711514
S       12.60746347      15.24330731      16.28367526
S       15.21410183       9.96403008       6.83285265
S       16.60124862      16.54075867      15.88391433
S       12.85655636       7.10618737       6.77079175
S       11.44961172      11.46638636      16.77626265
S       13.35351629      17.16100722      16.20521993
S       11.93527264       8.53185410      15.30648231
S       11.11222503       8.60706266      13.37547220
S       10.98296503      14.75885214      14.96967961
S        7.85345820      10.12741858      13.00952737
S       11.22116458      13.04238847      13.96610712
S       12.63713257      11.61229803      10.05645698
S        9.94859842      10.30820061      13.06644180
S       13.85100976      11.35656407       6.44384567
S       11.40797271       7.29345368       8.07444306
S       10.18158588      16.77325322      10.92439036
S       11.83643470      15.82601260      11.96657617
S        8.45496291      15.73280347      11.02786311
S        7.65568166       8.38484762       9.91430877
S       11.04144511      11.73534707       9.00227727
S       11.89565104      13.85188120      11.77661114
S        7.36089206      10.16505304      11.00101228
S       14.29695587      12.81841968       8.06083615
S       10.07630475       8.96622749       7.70851019
S        8.05348491       8.67523438       7.90605680
S        8.52677918      14.34052694       9.42463236
S       12.90311751      14.13328774       7.96183906
S        9.25952710      12.51673641       9.98020211
37
Properties=species:S:1:pos:R:3 config_type=qcd gap_pre_relax_energy=-148.96467283761115 gap_pred_energy=-152.6115584925002 gap_fmax_final=0.00028331217326479143 gap_converged=1 pbc="F F F"
S       17.15072806      14.95623867      11.78677679
S       11.94827628       9.67130258      16.60932094
S       11.77751348      14.82843723      11.42000465
S       13.95766762      18.24365624      10.30267456
S       13.14592099       8.68727581      12.37665954
S       16.94752597      12.50218253      13.99134814
S       13.18874314      14.95419639       9.87464643
S       12.19846929       7.40752525      11.03818875
S       11.77422250       8.11449729      15.21463691
S       13.60588047      16.76776091       8.91065686
S       11.11699411      12.52782471      15.48349564
S        8.50635425      14.56788736      15.34666196
S       11.83289323      11.13048282       9.01957689
S        7.82644817      14.02533970      10.90301736
S       15.27702478      11.38523400      11.50505600
S        9.75106085       6.32662243      12.99491819
S       12.70355549      13.50721238      14.52825263
S       15.80486426      11.95112578      17.35646604
S       13.08029959      12.39798961       7.92080135
S        9.41469725      12.67985310      11.01626211
S        8.30059824      16.99215467      12.73238418
S       16.05766419      16.64661503      12.36217344
S       18.23148772      13.96101147      13.26930490
S       15.66055527      13.01447502      15.58043593
S       13.50004446       9.62740599      18.00058813
S       12.30002238      15.21815172      13.39856752
S        9.84835151       7.47118071      14.73613683
S       15.60838129      12.81187834       9.95150913
S        9.84079596      11.69793849       9.22193793
S       13.34558568      10.70681343      11.82268112
S        9.36987134      16.19365984      14.30978202
S       10.17440385       7.58920230      11.42283241
S        8.76292981      15.89806174      11.02833863
S        9.80328177      13.64546337      16.65882160
S       15.93335751      18.09534908      10.86673381
S       15.27389280       9.97159296      17.02521708
S       15.12317712      11.96994175       8.15667423
38
Properties=species:S:1:pos:R:3 config_type=qcd gap_pre_relax_energy=-151.60158175159782 gap_pred_energy=-155.4502383764008 gap_fmax_final=0.00011439481626374802 gap_converged=1 pbc="F F F"
S        8.45940652      10.79398009      13.34159871
S       15.32248221      18.49989103       9.85888420
S       15.21376962       8.54448457      15.69307831
S        8.10294513      14.12271301      13.19498858
S       14.08735029      12.62342181      15.23235285
S       15.49898007      16.71283161       9.09469155
S       15.24371543      13.33030168      16.81743003
S       11.84139863       8.86890050      14.63349769
S       11.37320642      12.35849633       7.94156504
S       15.05508410      18.02904294      12.23002686
S        7.21050504      12.29622903      12.71898864
S       11.92400481      16.42880995      15.21446586
S       15.51477459       6.55047242      14.32194174
S       16.16631076      15.07319096      16.11481032
S       10.89680654       9.13075890      16.42939514
S       14.92276377      16.08656003      12.24117804
S       17.40961962       8.59262313      12.27066012
S        9.61067849      14.66351050      11.85811828
S       15.26681148      16.89389054      16.56194964
S       11.47650103      12.04546228      12.02812376
S       13.65161350      16.18121140       8.11130068
S       16.72112699      15.06558978      12.95557989
S       12.52814788      15.27787240       9.51504040
S       10.75267559      12.70735282      16.52974708
S       17.14687679      13.27760151      12.07391419
S        9.56999901       9.85591525       9.21899304
S       13.84991859      17.25893327      15.07061660
S       12.08942222      13.23288621      15.01489760
S       13.91860537       9.47547846      14.55651353
S       10.30101080      10.47986938      12.27337986
S        9.77311297      10.89341978      16.25421869
S       16.08269735      11.67254799      12.90368066
S       12.72457357      13.17902757       9.23741164
S       10.61514319      16.47734421      12.18588753
S       10.38464331      17.25138637      14.08029449
S       15.54467826       7.44619523      12.59208040
S       17.22386027      10.07339247      13.63946775
S        9.75355053      11.78118780       9.22052073
39
Properties=species:S:1:pos:R:3 config_type=qcd gap_pre_relax_energy=-156.88202344380642 gap_pred_energy=-159.9609746271537 gap_fmax_final=0.0005433932365768362 gap_converged=1 pbc="F F F"
S       15.24877948      11.48692652      10.23053078
S       19.14711774      14.54009840      10.53860074
S       14.00484624      13.04951201       9.57135380
S       10.04313600      14.77695457       7.85691479
S       11.53254578      13.82219630       7.05159016
S       12.33547649      12.47347331       8.47664817
S       17.62726877      15.87673776      10.20284909
S       17.26815035      11.56835445       9.77790280
S        8.39254121      10.73344303       9.42214590
S       10.19677775      11.07787950      10.39772562
S       10.34016573      15.34495289      10.96867020
S       18.31334335      12.73516239      11.16577275
S       12.92325381      12.03430877      13.84590899
S       13.52264055      15.03312045      12.05728622
S       12.02931077      16.40146553      11.57415545
S       10.15777048      12.13112169      12.21571653
S       17.58956057      17.14832159      11.85244714
S       14.45830400      10.72433627      13.23313323
S        6.02721450       9.48215938      11.64628558
S       12.66768640      11.32837259      16.97090906
S        7.57575976       9.04963791      10.30317079
S       15.30931518      18.33263723      14.40735547
S       16.00264747      16.78818337      13.16146296
S       10.22151312       9.14986327      15.78191629
S        9.00109235      10.34882697      14.59346230
S       13.38660619      14.05248890      13.89978766
S        9.37161425      14.06307170      12.30141053
S       15.21459696      17.07751622      17.66243550
S       16.12880967      10.66059720      14.41932909
S       13.18654839      12.95504341      18.18392707
S       10.86497754      10.33153234      17.36167137
S        6.91540702      10.19483089      14.75947813
S       16.32129746      18.12500816      16.17650504
S        6.33171414       8.65998904      13.53518632
S       17.13656823      12.53275149      14.11723061
S       16.39415118      16.01304181      18.95420986
S       16.43628610      14.16117438      15.00657678
S       15.02451940      12.72340858      19.10604181
S       16.37611636      14.03693047      18.23772617
40
Properties=species:S:1:pos:R:3 config_type=qcd gap_pre_relax_energy=-159.78994485118457 gap_pred_energy=-162.08703385211876 gap_fmax_final=0.0005425696138428632 gap_converged=1 pbc="F F F"
S        9.92384468      10.13492254       9.63741926
S       11.62258949      15.33385367      10.25163714
S       13.94514390       7.28090268      10.01393058
S       15.07293101       9.87176177       8.29164142
S        5.85234827      12.26898549      10.90133231
S       13.68327680      12.66371171      11.44062702
S       13.82802940      12.98283711       7.17683533
S       17.16117557      13.93441923      10.39439751
S       11.19325487       9.26884896      10.85150530
S       14.22322023       8.04403885       8.07197976
S        6.86598548      11.53937401      12.53570268
S       11.95188338       7.29709737      10.38806975
S        9.45726520       9.40887083      13.58467342
S        8.07577947       9.78061043      12.24763555
S       11.90653377      11.43008821      14.25984015
S       15.98334476       8.56382974      17.67863033
S        6.84084377      15.41563823      10.66385830
S       14.65241102      12.79657217      17.67982235
S       13.64359183      11.49787637       8.45107061
S       12.57923289      16.93982282       9.23969111
S        7.78188978      15.84442588      12.56513772
S       15.45814862      14.44834022      16.64660891
S       13.16934424      11.04166077      12.64927136
S       17.18112713      12.05173533      10.75896237
S       10.54206884      14.34082261      14.14564865
S       12.53622944      10.93362370      16.20028557
S       12.70609167      14.49061548      11.79335703
S       16.93824441      10.39584579      17.61953705
S        7.20423987      13.54235722       9.94456025
S       14.73665223       8.46038911      16.02812616
S       12.83707962       8.92012565      16.66615973
S       15.92155302      11.66430465      18.88363758
S        8.65911542      13.84635120      13.75127660
S       15.76498150      16.15863895       8.59998861
S       14.47690068      17.28816097       9.88449518
S       15.50610889      14.15917125       8.76037163
S        9.43669209      16.75927334      12.15833712
S       12.87590920      16.33659553      15.80981358
S       11.05558498      15.40805955      15.95068095
S       14.35772206      15.06381008      15.03181350
41
Properties=species:S:1:pos:R:3 config_type=qcd gap_pre_relax_energy=-165.11294849541423 gap_pred_energy=-168.6827712851316 gap_fmax_final=0.0009767759329345602 gap_converged=1 pbc="F F F"
S       13.90692448      15.91129843       9.03677187
S       12.46674185      11.36378587       8.83199570
S       10.72870239      10.48305574       8.16588086
S        9.66795757      11.43860764       6.62948113
S       15.10199293      14.64986264       9.91797475
S        7.95303597      12.22884342       7.47728830
S       13.72405122      17.79668807      10.01385056
S       15.71762985       8.89452546      10.70962336
S        8.09118818      14.19795637       8.17850029
S       11.00826045      14.55560047       9.47350509
S       14.89594979       9.87522126      13.94199717
S       15.83296739      10.38805380      12.12466542
S       12.25008989      13.13866376      10.03740001
S        9.35686287       8.35179909      11.74153695
S        7.12911277      10.68206822      10.18522146
S        9.03657490      10.23392881      10.87511764
S       13.53581567      17.69277383      12.06641958
S       13.71732200       8.73974728      10.15594417
S       16.64050748      16.07852756      12.37497907
S        6.63782555      14.81858446       9.54397437
S        6.04304453      12.06679524      11.31508905
S       15.30415198      17.49869595      13.15373107
S       12.35186986      11.80798416      14.22573319
S       16.04781488       9.51567047      15.63821994
S       11.98521708      15.27475875      13.51285146
S       12.43735271       7.52072754      11.30742977
S       13.00748848      13.46343842      13.15786310
S        9.39697588       8.32198875      13.81812266
S        7.07553192      13.85147271      11.30934070
S       16.73714019      11.26066875      16.54624507
S       17.28468061      14.57127654      13.64583474
S       15.74417851      13.83752600      14.86102448
S       13.92266202      16.48912542      15.89611585
S       11.61473207      12.19699066      16.15726926
S       11.93765802      15.92125373      15.47333760
S       12.81123076       7.51690491      13.34590578
S       15.18117800      14.98028019      16.50069374
S       11.15425598       7.54764627      14.63334614
S       12.69895301      11.32712714      17.66939304
S       16.12612993      11.55609386      18.52558958
S       14.29419162      12.50993355      18.38068723
42
Properties=species:S:1:pos:R:3 config_type=qcd gap_pre_relax_energy=-169.2461020233998 gap_pred_energy=-172.8637310263919 gap_fmax_final=0.0009890577705682566 gap_converged=1 pbc="F F F"
S       11.12420469      10.92182777       6.37848069
S       12.64966553       9.60244939       6.83474830
S       10.73195893      12.29651417       7.91625867
S        8.92567746      12.05585106       8.91929711
S       11.91157742       8.33459557       8.29612319
S       16.04523742      10.51268826       8.62900493
S       14.37347570       7.26120277      11.87935817
S        9.48116126      15.39740965      11.33679794
S       17.88830062      10.76046987       9.54391030
S       13.52511196      18.62720133      12.28022853
S       17.89241463      10.28370564      11.57861466
S       15.00140629      12.29530499       8.81712822
S       15.30202825      17.61923111      12.52298787
S        9.39614775      11.09812818      10.69454679
S       11.42380715      15.88856567      11.85529055
S       11.93942036       9.19244787      10.22340046
S       12.41886874       8.02113294      11.88678472
S       12.41267200      17.49525529      10.92878666
S        7.97917758      16.26908119      12.53150982
S       15.97861880      10.17413069      12.40740275
S       13.23116488      12.11037942       9.92776743
S       14.44085769      12.85455627      13.26832707
S       11.21496282      16.66825506      14.95715886
S       15.28176519      16.09989270      13.98720304
S       15.99381240      14.23680799      13.43238862
S        9.91862307      12.35628347      12.29739485
S        9.27299309      16.36986058      15.65175580
S        8.06363046      15.29431484      14.32736162
S       13.00101213      13.10691010      11.76196912
S       15.35072766       8.39724320      13.28937649
S        9.32646728       9.92561926      14.71828547
S       12.64414373       9.57619712      14.74118286
S        9.23211208      11.92792735      14.23047297
S       13.42061979      16.51595486      17.81681198
S       14.48839107      12.05519936      17.73430263
S       15.90884574      14.73076039      19.06843577
S       11.07588467       9.79584593      15.88835532
S       16.15139622      13.21041031      17.64832867
S       15.48367140      16.45458926      18.05070738
S       12.77472261      15.73346621      15.97314324
S       13.05557587      12.47780292      16.13888284
S       11.23561052      12.96245288      16.59765058
43
Properties=species:S:1:pos:R:3 config_type=qcd gap_pre_relax_energy=-171.82192787085552 gap_pred_energy=-175.18274112854198 gap_fmax_final=0.09781456280137368 gap_converged=0 pbc="F F F"
S       14.98767719      10.89992569       8.26830301
S       10.92232141      14.19977061       8.42987117
S       12.46161297      15.68902127      11.30279814
S       15.12136426      12.78582840       9.16192886
S       13.46519904      17.38442836      10.65240963
S       16.57100497       9.81758483       9.01755493
S        9.04976001      14.11034258       9.35092362
S        8.92094941      11.73383884      11.49333482
S       16.40411515      14.21394389       8.32441866
S       15.93947570      10.01114096      12.27667587
S       12.31908299      14.08054811       9.96437651
S       15.88170398       8.74326888      10.64536982
S        9.35383890      16.23242145      11.89514656
S        8.25786271      15.85473446      10.18485870
S       15.42495063      17.27505082      11.34161160
S       20.62155971      14.64674516      11.23215337
S       20.90427272      16.43589316      12.19795513
S       17.41282758      15.34854497       9.74849418
S        6.81360663      10.08998797      15.48948847
S       14.02403521      10.71993402      12.52169044
S        8.50839547      10.81536482      14.79175342
S       18.56401790      14.31614307      11.16865510
S        7.47935464      11.85771061      12.78110110
S       21.26503183      16.03233258      14.19686892
S        7.31589023      13.78783036      13.69957431
S       19.51151283      16.42917945      15.22371961
S       12.92732414       9.64975535      13.99657359
S        5.79052307      11.46314785      16.83900897
S       15.79439440      17.30497051      13.41280302
S       10.01656333      12.81972925      16.93920971
S       15.38771039      15.43192279      14.10299106
S        6.69723050      13.29217588      16.81409584
S       18.58253345      14.63109670      15.58405573
S        8.96254160      15.05295279      13.59995850
S       13.15761631       7.78146951      16.96311697
S       17.19749986      14.36511320      14.04569332
S       14.04066442       8.30569753      15.05125937
S       11.65347862      13.36664798      13.95800675
S        8.42652862      13.51819437      18.02652272
S       10.73615807       9.74709938      17.23530046
S       11.22909379      14.13286624      15.66252682
S       13.85748838       8.99288816      18.30531922
S       12.10276446      10.69429464      18.16405950
44
Properties=species:S:1:pos:R:3 config_type=qcd gap_pre_relax_energy=-176.36884280797707 gap_pred_energy=-180.3239143382742 gap_fmax_final=0.06978795397109591 gap_converged=0 pbc="F F F"
S       10.25069714      13.78448446       5.63557853
S       12.49334156      10.35281975       6.92373838
S       16.08893237       9.04096048       8.54727518
S       15.58806063      10.73105094       9.65695568
S        8.94926227      10.66123147       6.60849411
S        9.69676406      15.56675623       5.21807988
S       17.59349543      13.13162228       8.94581669
S        8.73577146      12.64859945       6.80144316
S       19.20755379      12.91057696      10.26585523
S       10.60444848      10.10451954       7.78246406
S       14.33636384       7.98190558       8.31979191
S       14.61353366      15.06090460       9.05441658
S       13.50639844      16.04832913       7.59253305
S        9.33368326      11.02609387      13.53785511
S       16.68672682      15.01892269       8.85315532
S       13.48844176       8.58205747       6.53295971
S       10.63421538      15.08743392       9.62951520
S       15.54677817      10.53603995      11.76012360
S       10.69562042      11.63840851      10.59990135
S       15.89369902      12.21591707      12.93643550
S       20.29519122      14.64841909      10.62604424
S       11.42856226      15.83428476       7.84140747
S       19.18836874      15.54805866      12.15626070
S       17.89141607      12.79009248      13.22649707
S       11.44831727       8.53295950      13.45480110
S       17.53524041       7.50549953      14.40063398
S       17.58042466      16.68498433      11.46016045
S       13.54198135      14.37922389      12.82764809
S       14.54631144       7.61682120      12.61488493
S       12.43942015      10.06839376      12.90722112
S       14.18026412      16.19384961      12.03030229
S        8.90469123      11.60951045      11.70901702
S       11.70041200      13.45004368      10.36646897
S       19.16651503      11.49549035      14.25286851
S       18.05180457       8.73752530      12.73248784
S       15.98439411      16.94135820      12.77582453
S       12.85972076       6.76695656      12.15363092
S       12.34592235      14.35714283      14.53399017
S       15.54641891       7.07340041      14.49875236
S       11.97371896       8.28489670      16.05990844
S       11.74094710      12.42595382      15.09794866
S       12.66351603      11.47415491      16.68037144
S       19.68328743       9.98237674      12.94327042
S       13.41823009       9.57465971      15.96145424
45
Properties=species:S:1:pos:R:3 config_type=qcd gap_pre_relax_energy=-179.5234438512524 gap_pred_energy=-183.28976546119463 gap_fmax_final=0.000634347070176484 gap_converged=1 pbc="F F F"
S       14.08110438      12.36116466      17.56133569
S       14.82761751      13.87842415      16.43424222
S       19.42223933      11.56007385      11.43534767
S       17.32552868      10.48734150       9.39462848
S        9.90806673      16.36328579      16.86724882
S       17.82094239       8.85199882      10.28521306
S        7.20293673      11.96727165      10.02795495
S        9.14553178      13.16713852      16.76521844
S       18.48898956      13.85041021      13.77413798
S       12.24596577      11.56327316      16.83839418
S        7.37235843      12.33322415      13.57947743
S       13.30699560      11.74195321       7.55058232
S        9.88365303       9.94675038       8.72290553
S       17.50706949      16.06434617      16.07441861
S       13.59811680      18.04763630      15.31354906
S        9.49854716       9.01018973      12.06026123
S       17.00191032      14.27371105      16.54031727
S       18.73410001      10.03651885      12.39909963
S       13.31732252      17.00870759      13.53553554
S       12.28574524       9.54034478      14.38216436
S       13.64697874      10.43333772       9.11827725
S        9.83764400       8.38772845      10.10200344
S       17.40294317      15.40503125      13.42587201
S       17.33826617      10.82082693      13.80740724
S       11.99961953      13.31693678       8.03338193
S       12.64736114      15.15518602       7.33759007
S       10.98532890      10.23607587      12.89125095
S       15.47837915      14.78505276      12.77190629
S        8.52776382      14.97446697      17.59107742
S       14.23717346       9.09034404      13.82179393
S       11.63537559      16.67215925      17.99398531
S       10.48584027      11.96256599      17.85070525
S       15.25785197      14.20439151      10.78414606
S       11.40042108      16.91800197      12.68312370
S        6.76975975      11.62377699      15.30183191
S       13.40210965      16.69236335      16.88681657
S        9.22070667      11.77463208       9.48965359
S        7.03527505      11.07478893      11.86139931
S       10.27941807      15.62208685      13.78484349
S       15.36742695      11.10732123      10.05790046
S       11.23787471      13.08543270      11.60901607
S       10.36842083      13.49486569      13.31092579
S       15.30386837      15.65164069       9.26436401
S       13.35068372      16.21801965       8.96783095
S       15.34559119      10.77602521      13.24768794
46
Properties=species:S:1:pos:R:3 config_type=qcd gap_pre_relax_energy=-184.207071072094 gap_pred_energy=-188.9642179638635 gap_fmax_final=0.0009113315295450937 gap_converged=1 pbc="F F F"
S       12.88695537      15.06352193      19.54484724
S       15.03398795       9.09194946      13.00768764
S       14.18619613      19.37300194      12.25905888
S       15.41680087      13.05275576      19.22347511
S       12.44476668      13.22174715       9.56520914
S       17.70505607      18.30337690      14.43129406
S       20.36689781      11.17406203      14.38083280
S       18.64571080      12.05991466      10.46122700
S       13.27182818      16.52241171      18.05403856
S       18.37565160      14.02397359      10.98604710
S       15.31200797      13.53338803      12.90641850
S        8.41745497      10.58143416      14.72917924
S        9.44804090      10.90774026      11.58613951
S       20.49442911      11.26266670      11.07916557
S       18.96926802      12.51691390      15.14837121
S       11.76839739      17.88696153      17.65106875
S        9.83337025      17.92942922      14.60558681
S       14.38663863      10.21930630       9.96162112
S        8.31813808      12.50776287      15.46559328
S        7.77318638      10.65193005      12.76467756
S       13.53674996      16.37228341      10.59962464
S       14.36029246      18.18247364      13.97662606
S       18.35349321      16.34334936      14.72532662
S       11.60775299      18.37235073      15.60562909
S       13.51876125       9.38702889      11.63243754
S       13.87090080      15.02533818      13.47578324
S        8.58151872      14.29916332      10.81104851
S       13.97341487      11.75912416      19.21934770
S       13.53924098      10.58073403      15.91335241
S       15.89938231      18.54137281      15.35381439
S       11.49042859      13.81896681      18.98598819
S        9.97229977      16.29087341      13.32202143
S       13.18268588      18.43517236      10.69718346
S       10.05968155      13.45142810      14.77501385
S       11.86098237      13.29289794      15.81416658
S       14.26493180      10.20507397      17.81194509
S       12.55944211      15.25521843       9.12977467
S        9.96481071      12.92865769      11.59547202
S       19.58536051      13.75894599      16.72547630
S       18.77772151      15.66348522      16.66847518
S       13.38522291      14.71090443      15.42189879
S        8.69246409      16.18797713      11.66641536
S       14.93284045      10.69014754      14.33163971
S       14.22225682      12.28221038      10.17300548
S       21.26271427      12.13355151      12.79115539
S       17.34289093      14.00004743      12.81886419
47
Properties=species:S:1:pos:R:3 config_type=qcd gap_pre_relax_energy=-187.95150263644467 gap_pred_energy=-191.3765414433605 gap_fmax_final=0.0009241453838573487 gap_converged=1 pbc="F F F"
S       11.48238517      13.02579188       6.75061062
S       15.21709954      11.34070687       8.39081603
S       16.13361514      13.10420195       7.76463466
S       12.09137048      11.30079134       7.77170743
S       13.73539612      15.38618920       7.40932226
S       11.90468575      14.60725504       7.98724878
S       15.68261364      10.58453652      10.29348645
S       13.86326170       9.57443673      13.68754905
S       15.15697938      14.64358604       8.71630986
S        8.87833393      15.67643221      14.08861441
S       14.71965841      12.48256184      12.66661780
S       17.54243249       9.69135766      10.58491408
S       17.94439666      14.09261092      12.29415658
S        8.47089772      14.45738113      12.49390617
S       10.86909100      10.54868912       9.27925683
S       12.71682901      17.49176472      13.96868290
S       11.76274440       9.52522016      13.45105101
S       14.69381584      17.00324189      13.60171159
S       16.63487332      19.89512816      16.20291987
S        7.72849981      10.65527417      10.90318915
S        6.72564224      13.18752925      12.63277529
S       10.80113387      12.27649224      12.07933546
S       15.87906567      14.14770983      12.79669488
S        8.30965965      10.34116111      12.70251333
S       17.50811009      18.70734498      14.75081447
S       18.88773355      12.87131652      13.64230413
S       14.54547053      11.28341573      14.58777492
S        9.90010535      12.06466964      10.38234665
S       16.12752783      18.52827918      13.24125731
S        9.59496161      14.62160393      15.78770906
S       15.42550555      14.87099416      15.89567518
S       18.21462149       9.76788611      12.55933097
S       10.61138127       8.97359151      15.09103481
S        7.13133155      11.82566334      13.98109428
S        9.98868176      10.71765952      15.98021496
S       15.40916458      18.69562198      17.37512003
S       11.07318805      11.21619395      17.73291345
S       19.65550405      11.23341407      12.62559579
S       12.61839161      17.88747621      16.01790841
S       15.68622362       9.98661066      16.58727344
S       13.95935233      13.76940076      16.67108854
S       16.27026070      17.07558864      18.41134545
S       10.01041830      15.83300616      17.38886266
S       12.04104094      16.29053273      17.24338540
S       12.57618401       9.92299127      18.18503033
S       14.52263273      10.83586200      17.91684185
S       16.99027572      15.67337508      17.11960151
48
Properties=species:S:1:pos:R:3 config_type=qcd gap_pre_relax_energy=-193.3806191043968 gap_pred_energy=-197.39876132511333 gap_fmax_final=0.0009840021889456678 gap_converged=1 pbc="F F F"
S       11.55955246      14.63845559       9.63002153
S       11.86799492       7.62837397       9.02773851
S       15.90083922      11.56300586       9.82588611
S       15.72708131       9.77126302      10.85668145
S       10.12137526      14.74430913       8.09541105
S       11.69257171      16.24041567      10.93633568
S       12.84296523       7.56995047      10.87145761
S       10.21873829       8.83143688       9.26629519
S       13.18076589      17.76153734      10.68726651
S        7.30743811      16.14007120      10.89679402
S        8.91340248      13.05448869       8.00992849
S       13.78575471       9.33674539      11.50337211
S        8.77782700      17.32054950      11.79403230
S       10.91022431      10.80564425       9.14294410
S       15.64500650      13.09829542      11.15786833
S       10.72631856       6.72009199      13.12302942
S       10.67352925      14.04976620      14.67103198
S        7.26580802      13.05681386       9.29321685
S       19.08209002      17.17576683      11.80676479
S       17.36758062      13.35802856      12.31629079
S       14.95935302      16.98734547      10.56314770
S       18.91014462      15.69848825      10.39899926
S       19.15128708      13.89641599      11.37728327
S        7.64969922      14.09585324      11.06004514
S        9.47380678       8.34256451      13.47441477
S       16.75254628      15.15470693      14.88659071
S       13.57822652       9.88494740      14.65640152
S       10.79328255      16.02800184      14.01045373
S       11.64248577      11.67110987      10.88136520
S       11.70300599       5.87795159      14.77670057
S       17.21341524      17.56611107      12.80827640
S       10.32023666      11.69702460      12.52333231
S        9.48875722      13.58406788      16.33575281
S       10.50180700      10.11812633      13.86539730
S       14.76951235      15.15685038      15.53766831
S       14.74503534      11.58661649      14.98266531
S       13.91441186       8.13050759      15.77407801
S        8.99230306      17.08423404      13.85980597
S       18.32090355      15.10050329      16.29018455
S       13.68473386       6.39384612      14.66853370
S       10.47656605      14.20011254      18.03686567
S       16.93090377      19.30963806      13.65354261
S       12.33577500      13.26970419      18.33732523
S       13.71540308      13.33873045      15.43104646
S       14.86781056      15.64272195      18.71139198
S       13.64120161      14.22123131      19.64742255
S       17.76922343      14.19893336      18.06864756
S       16.88777105      15.65511782      19.22676699
49
Properties=species:S:1:pos:R:3 config_type=qcd gap_pre_relax_energy=-196.03062606184676 gap_pred_energy=-201.19280073465143 gap_fmax_final=0.02582106106319007 gap_converged=0 pbc="F F F"
S       16.27661281      12.77240016       8.68838919
S       10.20135088      13.23722590       7.71526095
S       14.12203965      10.47969066      10.47271271
S       13.56570242      18.27642749       8.24585479
S       14.36692624      12.07353054       9.11991723
S       11.63685020      17.59833198       8.53924495
S       11.90564138      14.00891920       8.60343569
S       14.05626816      19.39288754       9.90885069
S       13.40514988       7.03847483      11.22668457
S       16.89635805      14.21923997      10.05747964
S       11.80395830      15.84350908       9.64042903
S        7.73633675      13.29919184      10.30718081
S        9.12588430      12.21806333       9.17765283
S       17.08598255      16.23819184       9.44609943
S       14.95903440      10.69554959      12.35550827
S       13.27154153      13.99542069      13.08800530
S       16.80773047      11.73594973      12.48369079
S       12.50104072      12.22005422      13.79930733
S       10.43876749       8.38240459      11.19414101
S        8.73595342      13.87389206      12.03088905
S       12.35229164       6.27965855       9.81304220
S       14.97459326      18.04927777      11.22733484
S       10.74718809      11.50657991      12.86282024
S        9.60424993       7.63335453      12.96709377
S       12.35438219      15.74601942      13.77261538
S        9.19049426       9.11827365      14.37828909
S        9.67588409      15.74988454      12.02313721
S       17.00497221      17.58455921      10.99397947
S       16.25128688      12.79101878      15.88828622
S       10.96008198      10.41691212      11.10865766
S       12.25956278       6.39551700      14.30355416
S        8.56376437      17.53742488      12.29488130
S       18.43271782      12.02579364      16.41666690
S       13.51865495       5.66385126      12.86324213
S       13.01732102       7.90746793      15.56024654
S        8.29326855      17.85353695      14.18409962
S       13.58844475      17.39670485      14.03696094
S       16.47919513      13.59166349      13.02209390
S       11.69891684      12.94334598      16.80948657
S        9.58579222       8.62640278      16.35694139
S       18.63210600      12.36341217      18.28964654
S       12.39341866      11.48988398      18.17036464
S       11.72067862      14.95738445      17.34829280
S       14.27426218      17.48601662      17.28124518
S       11.61132459       8.66455916      16.88842729
S       14.40344749      11.45004099      18.60157693
S       15.12433784      17.18510022      15.45474782
S       15.49907162      13.06651945      17.71773092
S       13.59901811      15.63033816      17.97366183
50
Properties=species:S:1:pos:R:3 config_type=qcd gap_pre_relax_energy=-199.38884785480607 gap_pred_energy=-205.02355374318452 gap_fmax_final=0.0008943763461680574 gap_converged=1 pbc="F F F"
S       13.07626020      15.18796839       8.25575299
S       17.41115852      13.82543210       8.48715847
S       16.47459531      17.75615612      13.37877172
S       16.31753853      14.89969714      11.35357971
S       17.48450965      16.58276805      12.06449564
S       10.24961660      13.46076101       8.12384894
S       14.96612735      11.39172848       8.94164131
S       13.02685582      12.05003394      11.44718739
S       17.05197251      12.14253216       9.36159320
S       12.39612307      17.13701481       8.71343256
S       15.13454505       9.44300072      12.59117301
S       16.12745342      16.86705926      15.27282256
S       16.94806766      10.29304160      13.11567031
S       18.16086207      11.90223339      15.97729874
S       11.15461201      11.65618055      10.65591028
S        8.71596112      14.81584149       8.59771829
S       11.83753618      14.15911870       6.97517254
S       13.60269199      10.76798845      13.00291414
S       17.04722490      13.10125442      11.69996912
S       12.47386750       8.96335529       9.26527753
S       14.58912620       9.48167999       9.38340622
S       12.36250791      16.75377917      12.02461693
S       13.35934333      15.01354628      12.62831984
S       12.87772753       9.15876723      17.80530856
S       13.16317321      17.89991344      10.46142256
S       13.77452491      14.74334005      14.66852942
S        9.73570808      12.42422454      11.94792172
S       17.60024783      10.12280983      15.11629214
S        9.19647252      16.67381698      11.59632012
S       11.87611805       7.56726121      10.59425283
S       13.87970324      12.81885310      15.47740191
S       12.08094460      18.48844136      14.72114857
S        8.37477282      14.99852462      10.64078939
S       15.04739317      18.05182796      16.58993011
S       11.13797738       8.77649183      12.26637077
S        8.06491890      17.64784001      13.05739570
S       16.57391228      12.52667366      17.17983829
S        8.90708845      17.55031744      14.95268001
S       16.12218329      11.39397566      18.88582303
S       12.28894945      12.14393878      16.67010688
S       16.26047251       9.32821830      18.68394239
S        8.78434520      11.12749017      13.34486937
S        9.20680288       8.67159448      12.61911266
S       14.85526679       8.64582960      17.32536005
S       13.07759820      17.45264150      16.25780615
S       10.15651517      19.17465533      15.11285930
S       13.07099649      11.72192100      19.85569729
S        9.85557212      11.04103862      14.96895345
S       12.54672322       9.69690751      19.79119038
S       11.98889114      12.97407064      18.56450179
51
Properties=species:S:1:pos:R:3 config_type=qcd gap_pre_relax_energy=-206.7858069864547 gap_pred_energy=-208.5379787016014 gap_fmax_final=0.0009591706884204374 gap_converged=1 pbc="F F F"
S        8.20522343      23.83422439      16.53459297
S       10.00938900      24.07002505      15.55393489
S       11.44058761      24.47941022      16.98159630
S       12.59465526      22.75643725      17.19188301
S       12.00290619      21.32911895      18.60740163
S       12.96342496      19.47572555      18.56624582
S       14.94909322      19.31379433      19.23176836
S       16.12618326      19.88302165      17.65814928
S       16.88555431      21.77747424      18.09720435
S       15.66528246      23.44246882      17.72515192
S       16.40059195      25.01023581      16.55626092
S       16.36943573      24.38528576      14.60313355
S       18.35837648      24.03280065      14.05817990
S       18.77978652      22.08638715      14.44425754
S       19.60277933      22.05851026      16.43273124
S       21.61823886      22.10100699      16.23683759
S        7.94841359      21.80962497      16.84485924
S        8.82774088      21.11846904      18.63636035
S        7.85817426      19.67268082      19.75983160
S        7.99040769      17.86542027      18.76785545
S        9.48110181      16.78050076      19.68306873
S       11.19748691      16.83568109      18.48649581
S       11.19881117      15.85447074      16.64634324
S       11.63643759      13.86403002      17.07162479
S       10.03804379      12.57434632      17.45414701
S       22.31108569      20.12250097      16.24924415
S       22.83666739      19.69993920      18.19128469
S       24.86797468      20.08596145      18.35978367
S       25.84270802      18.29296593      18.03647176
S       26.14993008      18.12808229      15.99996377
S       24.55406092      17.03221989      15.25893944
S        9.26912922      12.03588755      15.61685511
S       10.53478261      10.60663667      14.81974862
S       11.78953223      11.58576043      13.50112606
S       13.25170389      12.50948155      14.65034050
S       14.83482196      11.31677536      15.35073040
S       15.44520023       9.91335467      13.96404559
S       16.95700470      10.80283462      12.86723432
S       18.73171668      10.27618455      13.78219231
S       19.18048934      11.77673118      15.14159331
S       18.30836640      11.25208747      16.92321188
S       19.74862389      10.15118341      17.97415535
S       19.93062337       8.10460384      17.58840289
S       25.13794544      15.05632072      15.24800815
S       24.57508748      14.28495254      17.09604144
S       20.96178757       7.93034278      15.82221501
S       22.95439179       7.60361448      16.28928045
S       23.94531047       9.40056797      16.02996403
S       24.16856313      10.26338308      17.88172569
S       22.66788892      13.44035843      17.10714917
S       22.58299765      11.60263793      18.10689676
52
Properties=species:S:1:pos:R:3 config_type=qcd gap_pre_relax_energy=-210.3780561878435 gap_pred_energy=-213.05906472224942 gap_fmax_final=0.0009592352273074436 gap_converged=1 pbc="F F F"
S       11.87667485      21.29441307      16.96934967
S       13.37691806      22.73115209      16.95912648
S       15.01313285      21.84834196      16.06792399
S       16.13054304      20.99723001      17.61674410
S       17.73489410      22.11246451      18.36957668
S       19.42265967      21.34865905      17.49098965
S       20.25063761      20.04749725      18.90625821
S       21.77514734      20.78683682      20.14339026
S       21.32970270      22.34254426      21.45575033
S       21.35475235      24.07360607      20.35426894
S       23.24099834      24.92096339      20.55423944
S       24.23579380      24.61355977      18.77061588
S       25.46927054      22.98461307      19.00025376
S       24.38314327      21.31159920      18.38264487
S       24.01037694      21.04403059      16.33986220
S       10.70011018      21.64077538      15.30610540
S        9.00995739      22.63663506      15.97415540
S        7.53656634      21.20326000      16.19025932
S        7.64692584      20.47013218      18.11613792
S        8.93056033      18.84897690      18.09154888
S        7.83308885      17.19373183      17.51335372
S        7.08066488      16.29963373      19.20287463
S        8.40204190      14.76289321      19.71440741
S        9.52914974      15.16590882      21.41838537
S       11.05407118      13.76697485      21.75323715
S       12.79581299      14.66970395      21.19483299
S       13.06558933      14.28196268      19.15684281
S       12.05350269      15.54157917      17.84067944
S       13.07192916      17.34198488      17.52777381
S       13.57630181      17.75877445      15.55002160
S       15.62929721      17.67067131      15.17479977
S       16.80101593      17.92548966      16.89534775
S       16.10201506      17.03325181      18.63608357
S       16.15654962      14.95226724      18.57965677
S       17.56028135      13.99373356      19.81618910
S       18.60256269      12.48958590      18.86451921
S       20.02269304      13.43945645      17.65108443
S       19.43192640      14.53143126      15.95772394
S       25.49784946      19.81489174      15.63064820
S       24.81292741      17.87330006      15.85303791
S       25.61674401      17.19413010      17.64680460
S       27.50629954      16.27177417      17.58902111
S       27.90265843      15.34654782      15.78321078
S       26.96248845      13.50707249      15.87002013
S       24.95395692      13.55783005      15.23245818
S       23.83866518      11.95139072      15.88664400
S       19.65223539      16.59431989      16.22768592
S       21.07003575      17.22081038      17.64765136
S       21.55132449      15.85915171      19.13716765
S       23.58511964      15.35603734      19.29242527
S       24.11618135      13.34319577      19.18237207
S       22.99537458      12.29234241      17.77295801
53
Properties=species:S:1:pos:R:3 config_type=qcd gap_pre_relax_energy=-214.7378776103002 gap_pred_energy=-215.7875814845744 gap_fmax_final=0.0009224462232099252 gap_converged=1 pbc="F F F"
S       15.71740179      27.20468208      18.10146393
S       16.54060112      28.65306799      19.33847748
S       16.74720199      25.45083426      18.43773118
S       15.72058028      24.42781786      19.91770849
S       14.28728020      23.26221609      18.98886467
S       17.91723703      29.69025187      18.22029439
S       19.77818914      28.82164106      18.61242897
S       20.40188088      27.23473406      17.40309159
S       21.00274777      28.03489531      15.61623710
S       22.87750488      28.91372821      15.94166809
S       22.93495656      30.91733683      16.50526604
S       22.11936826      31.00724205      18.41846652
S       23.42555402      30.84654170      20.04399234
S       23.57205318      28.84295133      20.47956359
S       25.30563350      28.14556859      19.59950890
S       24.72667640      27.15648772      17.86248879
S       12.57838414      24.42021023      18.86007094
S       11.46637194      24.05367489      20.56398570
S       10.00691288      22.68092488      20.05723720
S       10.78114952      20.79951655      20.41897039
S       11.46617634      20.06287971      18.61101757
S        9.88387135      19.06275191      17.73073331
S        9.97614673      17.09696042      18.36348225
S       10.95554833      16.01982250      16.89486064
S       12.96275735      16.00751308      17.37487052
S       13.29177061      14.35351709      18.57274863
S       24.03427907      25.18349773      18.02400709
S       24.89206325      23.88636005      16.63930074
S       25.34215839      22.00556826      17.41758232
S       23.61603517      20.89504825      17.25716583
S       23.69578636      19.89532010      15.44542123
S       24.47814932      18.02065252      15.82847770
S       13.71170170      12.75537347      17.32948177
S       11.92070250      11.77583172      16.99421389
S       11.75250107      10.32787442      18.46176030
S       12.49159482       8.56700856      17.68003092
S       14.52591901       8.56149662      18.05587158
S       15.02969794       7.98935064      20.01476298
S       16.95732766       8.53378249      20.55724468
S       18.14593007       6.87919947      20.22814329
S       22.87606179      16.77283152      16.23441206
S       22.62426080      16.77518426      18.28610545
S       23.61270997      15.10670369      19.01007980
S       22.22103163      13.57455019      19.07838631
S       18.40928111       5.96039983      22.06876327
S       20.11404958       6.79720102      22.88645806
S       22.30792769      12.61013033      17.25432677
S       21.71910508       5.56765118      22.47059164
S       23.51031453      10.94219756      17.50207151
S       22.32675030       5.93821498      20.53423764
S       23.49253617       7.64707776      20.52176807
S       22.24439206       9.37285880      17.96846299
S       22.21807180       9.20516134      20.02993792
54
Properties=species:S:1:pos:R:3 config_type=qcd gap_pre_relax_energy=-216.88990893155656 gap_pred_energy=-221.47659214607498 gap_fmax_final=0.0006672180516099694 gap_converged=1 pbc="F F F"
S       10.06335995      16.59419300       9.36336009
S       16.41664935      12.84242781       7.94790378
S        8.17357459      17.23590511       9.99950920
S       11.62322520      17.78673843      10.05241201
S       12.40448410      12.15896512       9.34445693
S       13.96662907      10.81125422       8.69616907
S       13.97714380      15.15788677      10.14448980
S        7.75140679      19.26220961       9.82204742
S       12.59522916      14.15758619       8.91625721
S       16.81954215      12.46570355       9.79353124
S       16.73685620      16.20263636      12.93938778
S        8.44641550      20.13736366      11.58140016
S       19.11495012      11.72116210      10.43432388
S       15.29014243      10.71871201      10.12330737
S       10.97094226      11.32996585      12.08558657
S        7.93074045      10.58273560      13.16067820
S       13.15873945      16.81533791      11.09754732
S        8.26496652      14.55123181      13.70363241
S       10.18624414      14.31463409      12.94657189
S       14.79348191      14.15712543      14.42865452
S        9.14427015      10.29941707      11.65015282
S       18.22028458      15.51524817      11.59825387
S       10.51953713      20.27183624      11.77585753
S       18.83155321      12.33168028      12.27526378
S       14.39573942      10.79747679      13.21443395
S       16.29448461      18.24106061      13.10895656
S        7.57471473      16.38606847      13.03063861
S       15.24836958      12.08545372      14.57464341
S       19.62688842       8.84005432      19.11745288
S       11.22206985      19.81598223      13.68925024
S       12.99529588      14.89715530      15.16998273
S       17.57589823      18.99648706      14.52740116
S       11.70018228      15.56932529      13.67393443
S       19.63297246      14.31726782      12.43765294
S       12.31810844      10.48594878      13.42022812
S       11.12701400       7.83497836      14.87898148
S       17.35213366      15.35212227      15.96725512
S       18.89757760      10.18777576      16.16262744
S       17.05962947      16.93774230      17.30312129
S        8.71974033       8.45059204      14.32365009
S       20.36593332      10.02745902      17.58663743
S        8.14114304      18.11557321      14.09127624
S       18.96264977      10.10280914      20.60315031
S       10.15792709      18.23773744      14.57941610
S       16.62161027      18.74777913      16.36250716
S       18.71950106      13.81202144      16.36189868
S        7.98479831       8.12624008      16.04558139
S       11.07599018       8.55260691      16.68757309
S       11.69765250      10.61828086      16.58422228
S       17.80070866      11.93255016      16.51747660
S       16.89528499      10.18553647      20.42856564
S       16.20197303      11.80091793      19.29540718
S       13.67671363      10.86074185      17.09573790
S       14.15645471      11.86182654      18.87911249
55
Properties=species:S:1:pos:R:3 config_type=qcd gap_pre_relax_energy=-220.7023512210573 gap_pred_energy=-223.8425848801091 gap_fmax_final=0.0008686232622101137 gap_converged=1 pbc="F F F"
S       14.81081057      17.47003271      13.35724681
S        7.26188017       7.32371283      10.36060329
S       13.52059340       9.33229684      14.60098740
S        8.99648078      13.67704945      15.35476315
S       12.67604376       9.94087941      11.21870057
S       11.98237920      11.79527547      18.08016573
S       15.85724483      19.62474393      15.65808385
S       13.44146137      18.51052334      12.23245840
S       17.64495501      18.76283294      16.40953663
S       13.35880965      10.66177311      12.90844197
S       15.21271063       9.62839709       9.23359699
S       12.56456818      13.28528131      16.77726662
S        8.70952890      12.28229941      18.36025922
S       16.09469863      12.27459142      12.53956325
S        8.28678799      13.98870364      17.26833769
S       14.47847896       7.55002841      14.22386453
S       17.01558106      10.31473095      10.02129494
S       15.89765869      10.47605431      16.47155633
S       10.26914745      11.68381588      12.67914104
S        6.32564193      13.92132946      10.10211492
S       16.50229652       7.60136890      14.54121435
S        7.41121201      12.98079949      14.21614302
S        5.76116622       8.79658837      10.42996927
S       14.56049490      18.08422448      15.33412763
S        9.09704745       9.95567358      12.97114505
S       11.18618273      12.56089223       7.75582245
S       18.88020319      13.29485845      14.69452870
S       17.48128153      11.86860543      14.06947757
S       16.75176932      12.26986378      10.56031295
S        7.16085174      12.01739441       9.96270570
S       18.82158761      18.31748671      14.93684761
S       14.35601991      16.79858446       8.58398971
S       13.75459174      16.40135074       6.60389977
S       17.21916412       9.20811135      15.84957451
S        7.43551266      14.92145072      11.51706341
S       11.47581091       9.29217884       7.24974374
S       11.75589620      15.98047256      10.52101584
S       13.29267897       9.10865413       6.27997243
S       13.77580451      14.38891328       6.08883453
S       11.74005333      17.32159901      12.12984871
S        9.15229150       8.11573980      10.16718662
S       10.56561570      10.98935224       6.52588697
S        6.41459295      10.57356547      11.28211852
S       13.66104343      15.41884689       9.92991976
S       13.19854479      13.14731235       7.66150926
S        9.94432707       8.32501291      12.07691856
S       14.64525038      10.29392047       7.32776760
S       18.33281420      13.95253418      17.89445243
S       10.29426606      12.15819280      10.77950038
S       10.52477378      12.61247183      19.29426681
S       17.92016148      14.58828820      15.97468710
S        6.51264852      14.62373193      13.34869760
S       14.03654270      14.57600054      17.56581254
S       16.68516536      12.82631706      18.50019478
S       14.99317474      13.83158985      19.22316013
