3
Properties=species:S:1:pos:R:3 config_type=qcd gap_pre_relax_energy=-9.643526377611346 gap_pred_energy=-9.7335874286457 gap_fmax_final=0.00030808866050629395 gap_converged=1 pbc="F F F"
Sb       7.59604767       8.86496895       8.94350521
Sb       8.25852146       8.25705192       6.35372636
Sb       7.52920948       6.26175774       8.08654701
4
Properties=species:S:1:pos:R:3 config_type=qcd gap_pre_relax_energy=-15.218242204370647 gap_pred_energy=-15.218298614398911 gap_fmax_final=0.0006391219630009151 gap_converged=1 pbc="F F F"
Sb      10.11980220       7.98888902       8.23049917
Sb       8.31460293       9.52417561       9.81863803
Sb       7.48407703       7.02018180       8.73319555
Sb       7.87598018       9.26121591       7.01212960
5
Properties=species:S:1:pos:R:3 config_type=qcd gap_pre_relax_energy=-18.296380407949748 gap_pred_energy=-18.30691277498385 gap_fmax_final=0.0005800411406203796 gap_converged=1 pbc="F F F"
Sb       8.63125595       9.11847788      10.72184602
Sb       6.57821656       9.48115347       8.79814255
Sb       8.55588404       8.67660691       6.93031339
Sb      10.58425874       9.78700122       8.68280967
Sb       9.79711165       7.08348745       9.01361530
6
Properties=species:S:1:pos:R:3 config_type=qcd gap_pre_relax_energy=-22.89046205952444 gap_pred_energy=-22.896186755719544 gap_fmax_final=0.0009693285863759839 gap_converged=1 pbc="F F F"
Sb      10.19802260       7.22746429       7.83843849
Sb       7.64741066       7.26614720       6.51311903
Sb       9.74785365       9.99459547       8.78549010
Sb       7.19683651      10.03300039       7.46085277
Sb       7.38905086       9.13185587      10.18389762
Sb       7.83878549       6.36489657       9.23616178
6
Properties=species:S:1:pos:R:3 config_type=qcd gap_pre_relax_energy=-22.091784394901413 gap_pred_energy=-22.126528895711534 gap_fmax_final=0.0009870705718143487 gap_converged=1 pbc="F F F"
Sb      10.55851564       8.08905375       9.36629094
Sb       8.11555362       8.49196196      10.83731119
Sb       7.76712694      10.21376225       6.70409515
Sb      10.40970729       9.95055299       7.26251832
Sb       6.43880012       8.49987581       8.49581978
Sb       8.30522371       6.34972054       8.92889192
7
Properties=species:S:1:pos:R:3 config_type=qcd gap_pre_relax_energy=-26.339134683089682 gap_pred_energy=-26.479847491059658 gap_fmax_final=0.0007948132281204484 gap_converged=1 pbc="F F F"
Sb       7.87872193       9.10147956      11.03838649
Sb       9.06388782       8.91209125       6.04136446
Sb       7.44739617      10.17917438       8.20647846
Sb       8.50429024       6.55968044       9.86382904
Sb      10.37062857      10.37374673       8.10027284
Sb       7.13742597       7.36448773       7.44746696
Sb      10.57793497       8.48962557      10.28248741
7
Properties=species:S:1:pos:R:3 config_type=qcd gap_pre_relax_energy=-26.110879588404018 gap_pred_energy=-26.327405743402082 gap_fmax_final=0.0007443492376346368 gap_converged=1 pbc="F F F"
Sb       8.28363932       6.31491479       6.54406387
Sb       8.84800768      10.32577650      10.39986349
Sb       8.74290324      10.66277524       7.53945617
Sb      10.27307442       8.20055791       7.12384224
Sb       9.79017030       7.58392021       9.93467608
Sb       6.46251630       9.64363139       8.93339230
Sb       7.12450657       6.79324177       9.04952368
8
Properties=species:S:1:pos:R:3 config_type=qcd gap_pre_relax_energy=-30.83714477957254 gap_pred_energy=-30.869768362115778 gap_fmax_final=0.0008535128016692042 gap_converged=1 pbc="F F F"
Sb       9.85399973      11.20572375       7.78709327
Sb       8.77622187      10.61139134      10.41160397
Sb      10.22805427       8.59543579       6.68791541
Sb       7.63483022       9.78547917       6.54431288
Sb       6.54286377       9.18399596       9.16140638
Sb       9.87948851       8.08532721      11.30879961
Sb      10.24159724       6.68166274       8.84697198
Sb       7.65852148       6.66656112      10.06747358
8
Properties=species:S:1:pos:R:3 config_type=qcd gap_pre_relax_energy=-30.78911301630977 gap_pred_energy=-30.797527680073458 gap_fmax_final=0.0006740041146094538 gap_converged=1 pbc="F F F"
Sb      11.73605124       9.55956285       8.19827853
Sb       9.35175981      11.06325875       7.77643110
Sb       9.19888102       8.26421201       8.29218916
Sb       9.73845990      10.76882455      14.17003216
Sb      10.22995411       9.19961135       5.79852656
Sb       8.23262437      10.41061785      11.76991404
Sb      10.77107100      11.70353199      11.67669762
Sb      10.61541352       8.90459561      12.19214580
9
Properties=species:S:1:pos:R:3 config_type=qcd gap_pre_relax_energy=-34.44193280024477 gap_pred_energy=-34.471802748132845 gap_fmax_final=0.0009303969605983193 gap_converged=1 pbc="F F F"
Sb       6.85634309       8.07676595      11.00702910
Sb       8.51761669      11.38679658       9.73337504
Sb      10.83158586      11.77644501       8.06722908
Sb      10.34833895       7.43119729       9.35513676
Sb      12.02554657       9.19708698       7.82155409
Sb      12.33788393      10.68959672      10.23417945
Sb       7.63926722       7.10668533       8.43956088
Sb       9.71189641       9.36348984      11.37025644
Sb       6.44564983       9.68606483       8.68580770
9
Properties=species:S:1:pos:R:3 config_type=qcd gap_pre_relax_energy=-34.392437225384796 gap_pred_energy=-34.55561112194549 gap_fmax_final=0.0008875068751004467 gap_converged=1 pbc="F F F"
Sb      10.54372412       7.23016254       7.65369177
Sb       9.91710509       9.83840889       6.65748147
Sb       8.54553512       6.48550201       9.57681180
Sb       6.65669687       8.62354441       9.79775542
Sb      11.96188653       9.50645214       8.65127098
Sb       8.70138416       8.29052212      11.79157182
Sb       7.69884384      10.82447863       8.23347293
Sb      10.59491714      10.35297147      11.05782490
Sb       8.95143351      12.41948418      10.15164530
10
Properties=species:S:1:pos:R:3 config_type=qcd gap_pre_relax_energy=-38.61769900996431 gap_pred_energy=-38.69651110917174 gap_fmax_final=0.0006347121294613341 gap_converged=1 pbc="F F F"
Sb      11.91140757       9.70480608       8.67947417
Sb       9.59575549      10.57827229       7.18721601
Sb      11.80732945      11.93369138      10.53431204
Sb       9.73077491      13.00673707       8.81603446
Sb      11.45438905       7.17686978       9.95575029
Sb       8.82222164       6.44415938       9.11579621
Sb       9.11761103      12.15394831      11.47449389
Sb       9.30072191       7.36549910      11.82470019
Sb       7.55196676       8.95558794       8.31081358
Sb       7.70980043       9.68240692      11.10338742
10
Properties=species:S:1:pos:R:3 config_type=qcd gap_pre_relax_energy=-38.72884236948583 gap_pred_energy=-38.75421381349905 gap_fmax_final=0.0009559628071804185 gap_converged=1 pbc="F F F"
Sb      13.98991115       9.57697402       9.06486230
Sb      12.59826622      11.97823062       9.82992608
Sb      12.50810139       9.69631082      11.56273333
Sb      10.03525802      11.89463979       8.55667832
Sb      11.74498282       7.83378143       9.52180428
Sb       9.45965302       9.09790674       8.34840636
Sb       8.77197102      12.67871787      11.00353286
Sb       9.04324792      10.33051107      12.62508078
Sb       7.91879700       8.53418140      10.69476001
Sb       6.49932008      10.94825485      11.36172429
11
Properties=species:S:1:pos:R:3 config_type=qcd gap_pre_relax_energy=-42.551480612859656 gap_pred_energy=-42.67387022149726 gap_fmax_final=0.0008260151193351905 gap_converged=1 pbc="F F F"
Sb      11.31154852      12.55171469       9.17907928
Sb      11.05525992      11.29878915       6.58336402
Sb       8.74783668      12.25999073       7.96012803
Sb      11.71154716       9.94898475      10.40163115
Sb      11.45413840       8.69147863       7.79648253
Sb       7.47709419       9.85869117       9.24513710
Sb       8.73276340       7.92245859       7.56604213
Sb       9.12874730       9.85649238      11.57259739
Sb       8.28241895       5.82655056       9.51862320
Sb       8.53575271       7.06431977      12.08280069
Sb       6.10349372       7.26113054      10.63471543
11
Properties=species:S:1:pos:R:3 config_type=qcd gap_pre_relax_energy=-42.60393722282081 gap_pred_energy=-42.693059343763004 gap_fmax_final=0.0008041352191642866 gap_converged=1 pbc="F F F"
Sb      12.04433663       8.71154340      10.77623137
Sb      10.80627571      11.32341918      10.55210179
Sb      10.39506522       8.65853058       6.90736743
Sb      12.83897866       8.10860600       8.16818491
Sb       9.91598373      11.34509012       7.83308642
Sb       8.74171410       9.85367831      11.90844922
Sb       9.58457968       7.21835249      11.12934394
Sb       7.04520068      11.30797251       7.92752295
Sb       6.27067174      10.39650266      10.53856223
Sb       8.61979860       6.98920463       8.44559314
Sb       6.23463127       8.58433614       8.31079262
12
Properties=species:S:1:pos:R:3 config_type=qcd gap_pre_relax_energy=-47.02153148840896 gap_pred_energy=-47.044533703535286 gap_fmax_final=0.0007097090007480801 gap_converged=1 pbc="F F F"
Sb      11.04916432      13.14023703       9.14956175
Sb      10.36012782      11.65546478       6.78944785
Sb      11.68619379      11.24850885      11.20342133
Sb       8.29036414      12.75988419       8.44656564
Sb      12.40196072       9.03053555       9.59176551
Sb       9.08924046      10.79927324      12.24421599
Sb      11.37969576       6.91076224      11.22422516
Sb      10.58192918       8.87173473       7.42576543
Sb       7.26888492      10.63957458      10.07852624
Sb       9.31064329       8.01586283      12.88163222
Sb       8.62075612       6.53067113      10.52208078
Sb       7.98523733       8.42168873       8.46698999
12
Properties=species:S:1:pos:R:3 config_type=qcd gap_pre_relax_energy=-46.646184105436056 gap_pred_energy=-46.69962154080256 gap_fmax_final=0.0008152712213785304 gap_converged=1 pbc="F F F"
Sb      13.70115578       9.44614015       7.05800121
Sb      11.69812431       7.69152646       8.16698235
Sb      12.80900032      11.79414298       8.47631289
Sb      12.34468555      10.99239055      11.18931071
Sb      10.88852616      10.20779094       7.05747061
Sb      11.59712890       8.23081787      10.98069993
Sb       9.88054216      12.43207384      10.96050309
Sb       8.75387093       8.27375745      10.64958840
Sb       8.16795115      10.77173749       9.36863531
Sb       8.36482861      11.90527910      13.35964042
Sb       7.62044066       9.15428764      13.15403218
Sb       6.20893480      11.13524485      11.61401219
13
Properties=species:S:1:pos:R:3 config_type=qcd gap_pre_relax_energy=-50.80909143455367 gap_pred_energy=-50.85211780596885 gap_fmax_final=0.0008187209983126089 gap_converged=1 pbc="F F F"
Sb      10.74125023       9.49529771       7.06773807
Sb      12.95263323       6.74660448       9.17111743
Sb      10.85434291       6.59115737       7.18062874
Sb      12.84498581       9.65108573       9.06329317
Sb      10.94995126      12.70166067      10.82286872
Sb       8.84719627      12.54644635       8.82620338
Sb      11.52759768      10.02310956      11.54404882
Sb       8.30710761       9.78550548       8.48902327
Sb       8.95494308      13.18273185      12.88385048
Sb      10.28209467       6.14884664       9.92568649
Sb       9.04132699       8.77739224      11.02766533
Sb       6.85764405      13.03048706      10.89191463
Sb       7.36429345      10.84504207      12.63132872
13
Properties=species:S:1:pos:R:3 config_type=qcd gap_pre_relax_energy=-50.47995844030786 gap_pred_energy=-50.521751808286105 gap_fmax_final=0.0008755989213190157 gap_converged=1 pbc="F F F"
Sb      16.22456772      11.84743604      11.28521478
Sb      14.45593677      12.15607322      13.54219262
Sb      14.86927518      12.92488424       9.10495455
Sb      12.16553254      13.45863930      12.44182712
Sb      12.22846806      12.36855144       9.82969849
Sb      14.61957156       9.62817916      12.18889672
Sb      12.41436356       9.59672508      10.37531766
Sb       8.35398676      12.18675698       9.70019673
Sb       8.13925708      13.13687384      12.39949873
Sb      10.26328024      11.77778662      13.73921928
Sb      10.42629954       9.25537897      12.38980008
Sb       8.37946475       9.40502869      10.40439775
Sb       6.31864406      11.11633419      11.45743329
14
Properties=species:S:1:pos:R:3 config_type=qcd gap_pre_relax_energy=-54.94623699056363 gap_pred_energy=-54.98790956558194 gap_fmax_final=0.0008516612070000423 gap_converged=1 pbc="F F F"
Sb       7.05445142      10.30446675      11.52313203
Sb       9.63166169      11.34680056      12.06934060
Sb       7.21922407       8.12746503      13.43175848
Sb       9.71445891      12.94352403       9.70843900
Sb      12.35742336      13.80899817      10.36242532
Sb      11.28136566       9.15346055      11.35104674
Sb       9.83211559       7.11742672      12.84642381
Sb       7.61131528       6.25386893      11.26140233
Sb       7.44623496       8.43087790       9.35281965
Sb      13.90749621      11.45075362       9.84862986
Sb      13.91990978      13.64315561       7.95121429
Sb      10.22276546       8.52105497       8.79607316
Sb      10.10478523      11.08656770       7.55749674
Sb      12.93629197      11.05107907       7.17929761
14
Properties=species:S:1:pos:R:3 config_type=qcd gap_pre_relax_energy=-54.957350667963034 gap_pred_energy=-55.03003673569081 gap_fmax_final=0.0009946510871632385 gap_converged=1 pbc="F F F"
Sb      13.24088583       9.40960621      14.61261290
Sb      10.45211389       9.42451267      15.25435208
Sb      11.05046959       8.20183706      11.16450397
Sb      11.87528820      11.89741603      15.13770145
Sb      13.15584743      10.01949876      11.76027859
Sb       8.96280336       9.25122349      12.78525219
Sb      10.34113509       9.31126520       8.57550337
Sb       8.41445704      11.27080659       9.32125986
Sb       9.01634798      11.99596908      12.04168993
Sb      12.71160600      10.83804102       8.02623518
Sb      11.81587905      12.52039083      12.25728739
Sb       9.38094600      13.61888848       7.98976311
Sb      11.39607259      12.63655797       6.17155540
Sb      12.11628940      13.53412804       8.83214603
15
Properties=species:S:1:pos:R:3 config_type=qcd gap_pre_relax_energy=-58.39057974077807 gap_pred_energy=-58.68123919582761 gap_fmax_final=0.0009517542532553909 gap_converged=1 pbc="F F F"
Sb      11.69671680      12.26139871       8.45992737
Sb      11.47152168       9.54227390       9.30834614
Sb       9.10347592      15.57114029       9.34622595
Sb       8.91018832      12.79622241       8.62174417
Sb      11.69329976      15.97359047      10.52820320
Sb      12.94471926      13.40683249      10.74265841
Sb      13.88546384       9.40168553      10.78246190
Sb      13.22935891       6.69532910      11.61485347
Sb       8.28255957      13.58879346      11.29745865
Sb      10.81826435      13.84392549      12.61397491
Sb       9.54878623       9.57620601      11.43784542
Sb      12.68417936       7.63431896      14.28389334
Sb      13.32983925      10.35862604      13.48817445
Sb      10.51556285       7.04343193      12.49405071
Sb      10.59024542      11.01040678      13.68436348
15
Properties=species:S:1:pos:R:3 config_type=qcd gap_pre_relax_energy=-58.37328658574118 gap_pred_energy=-58.48036676133891 gap_fmax_final=0.000978616541669873 gap_converged=1 pbc="F F F"
Sb      10.74822834       6.51421503      13.34899085
Sb      11.80412687       7.81062557      10.97423663
Sb       8.19861844       6.73984963      12.02158019
Sb       9.25225579       8.98017650      10.38270729
Sb      12.51927387      11.20894909       9.11766698
Sb      13.31513723      10.16166799      11.65629958
Sb       8.73179273       8.22958192      14.42524137
Sb       8.95705525      10.59456440      12.76723491
Sb      14.41637040      13.36795800       9.24525903
Sb      11.57959231      11.46175997      13.53022911
Sb      10.14750345      12.72461493       9.65484787
Sb      13.45207514      14.97270593      11.42185889
Sb      10.88705534      13.89931129      12.15409086
Sb      12.92230762      15.76153841       8.69739735
Sb      10.38934311      14.89321724       7.92309496
16
Properties=species:S:1:pos:R:3 config_type=qcd gap_pre_relax_energy=-62.87152573894125 gap_pred_energy=-63.01839650754298 gap_fmax_final=0.0009613859889702683 gap_converged=1 pbc="F F F"
Sb      10.69508274      13.58718892      13.28898619
Sb       9.39384501      16.08117009      12.49968358
Sb      12.10086164      10.15390156      13.96552408
Sb      15.04206486       7.84347980      12.27519459
Sb      14.18036502      10.62407269      12.02722163
Sb      12.95994523       7.37275004      14.21536230
Sb       8.67556294      12.02830120      12.00984993
Sb      12.77431103      14.05705717      11.35034905
Sb      11.47547016      16.55133064      10.55875274
Sb      12.63500387       6.48643686      11.50715829
Sb      13.06351484      10.13779104       9.44633132
Sb       8.91875438      15.55864510       9.72001637
Sb       9.75604192       9.39011601      12.52944135
Sb      11.98276970      12.77577000       8.92640990
Sb       9.15317281      12.70102868       9.27929205
Sb      10.92304261       8.38076899      10.13023540
16
Properties=species:S:1:pos:R:3 config_type=qcd gap_pre_relax_energy=-62.70286819351529 gap_pred_energy=-62.86880633027247 gap_fmax_final=0.0008983522255015372 gap_converged=1 pbc="F F F"
Sb      11.84284738      13.08576076      11.03810076
Sb       9.13059462      12.90124469      10.32425612
Sb       9.59041831      12.07312007       7.66717824
Sb      11.50934800      12.13776225      13.67406415
Sb       6.70370455      11.85415638       7.31825342
Sb      14.39849334      12.32191307      14.02247115
Sb      15.29800402      10.97210858      11.64604264
Sb      13.05181174      10.83446400       9.76626597
Sb      11.71577926       9.23367160      13.63934617
Sb       9.79724916       9.16913769       7.63226948
Sb       6.00868339      10.33507367       9.66088296
Sb      12.17612304       8.40499070      10.98231604
Sb       8.25513072      10.47171113      11.54033643
Sb       6.90789486       8.98461756       7.28475134
Sb      14.60252633       9.45231963      13.98811444
Sb       9.46392361       8.22048054      10.26788298
17
Properties=species:S:1:pos:R:3 config_type=qcd gap_pre_relax_energy=-66.55935165549883 gap_pred_energy=-66.83146142994585 gap_fmax_final=0.0009621642644069231 gap_converged=1 pbc="F F F"
Sb      14.79780027       8.46036338       8.27840145
Sb      12.54509592       7.06845435       7.19704075
Sb      11.73509941      11.27233365       7.65313088
Sb      13.50609134      10.61236498       9.76848045
Sb      13.37932326       6.51061038       9.87632882
Sb      10.29191356       8.85495152       7.37882608
Sb      11.83569571      12.15049053      12.76133028
Sb       9.62219573      12.71714187       9.01915265
Sb      11.01363470      14.27464595      10.99530411
Sb      12.08403837       8.66147433      11.36532007
Sb       8.21454862      10.77904097      10.55558052
Sb       9.58292068       8.29410517      10.06187451
Sb      11.93056522      13.81786554      15.19052422
Sb       8.53126629      14.15289495      12.43023891
Sb       9.12431017      11.48669673      13.45591819
Sb       9.50992281      12.79452512      16.28186490
Sb       9.51310493      15.30956751      14.94821016
17
Properties=species:S:1:pos:R:3 config_type=qcd gap_pre_relax_energy=-66.60674799389628 gap_pred_energy=-66.68344244205284 gap_fmax_final=0.0007425085343564905 gap_converged=1 pbc="F F F"
Sb       9.87010211      11.43844086      16.08776530
Sb       7.21541474      11.36887062      15.03375158
Sb      11.50802577      11.61842535      13.65084291
Sb       8.74050022       8.95525930      15.14478909
Sb       9.87968222      13.67059478      12.54831608
Sb      15.70735982       9.66176104       9.35576588
Sb      10.37842233       9.13480501      12.70788172
Sb      14.13619372      11.37683527      11.10353187
Sb       7.40190244      12.31421608      12.31812079
Sb      13.01592664       8.91274086      10.16831637
Sb      15.49317011      10.72940231       6.79465566
Sb      10.34641147      13.63882052       9.69765242
Sb       8.14839414       9.86452805      11.10396094
Sb      13.19358915      13.41210440       9.32539228
Sb       9.22202973      11.16622002       8.75924666
Sb      11.44560363       9.56762769       7.86662522
Sb      12.94564292      11.81771903       6.98175638
18
Properties=species:S:1:pos:R:3 config_type=qcd gap_pre_relax_energy=-71.11753911941148 gap_pred_energy=-71.2689380348015 gap_fmax_final=0.0008718348319574451 gap_converged=1 pbc="F F F"
Sb      16.71314578       9.41947410      13.76216308
Sb      17.84930502      10.44998929      11.34409955
Sb      17.54033185      12.18429748      13.60204912
Sb      13.93414443      10.22888883      13.47208503
Sb      13.73879293       9.36568946      10.77992517
Sb      15.67689879      10.99167808       9.51907640
Sb      14.76383707      13.00396331      13.31118456
Sb      14.98744681      13.53722103      10.53537849
Sb      11.39713385      10.80410492       9.95430315
Sb       9.99939250      10.56972011      12.43811671
Sb      12.21252055      13.54174945       9.80225955
Sb       7.82531472      11.92370344      11.17431448
Sb      10.94930155      12.65865333      14.13500139
Sb       6.32637444      12.51161793      13.59715603
Sb       8.66302646      14.70504049      11.02623782
Sb      11.26045477      14.74647637      12.21544004
Sb       8.41269856      13.48764721      15.29249423
Sb       7.16090410      15.28110930      13.44973939
18
Properties=species:S:1:pos:R:3 config_type=qcd gap_pre_relax_energy=-70.80624826542905 gap_pred_energy=-71.05951617772504 gap_fmax_final=0.0009658840531868893 gap_converged=1 pbc="F F F"
Sb      19.05613317      12.97815021      12.79943587
Sb      17.79581260      14.76215641      10.90798428
Sb      18.31412349      15.62838445      13.58284370
Sb      15.73110163      12.49392290      15.59843672
Sb      15.31618538      13.24625998      11.16348846
Sb      15.81178050      15.30332357      14.97943288
Sb      16.58791224      11.45499776      13.07903172
Sb      13.79912586      14.97549838      12.90136513
Sb      12.77897243      10.70365980      12.95319542
Sb      12.94278364      12.94483309      14.82463540
Sb      11.57652324      12.16731341      10.72447922
Sb       9.75682955       9.90544355      10.94336112
Sb      10.12538608       9.79451375      13.79530951
Sb      10.04341177      14.04929959      12.28001214
Sb       9.11454138      12.37738305      14.47931291
Sb       7.11195948      11.01318262      10.63529297
Sb       7.43608818      13.83166077      10.98932167
Sb       6.51534082      12.18402816      13.17707234
19
Properties=species:S:1:pos:R:3 config_type=qcd gap_pre_relax_energy=-74.6400314092227 gap_pred_energy=-74.75013766592767 gap_fmax_final=0.0008961125110386778 gap_converged=1 pbc="F F F"
Sb      16.64817328      13.43206884       9.75290676
Sb      15.60928181      14.32286790      12.26241159
Sb      16.65094394      11.63899542      11.98167620
Sb      14.38183011      12.65922058       8.14166857
Sb      12.38239179      14.12918322       9.54739542
Sb      13.93502984      10.56462000      11.94036597
Sb      12.89681338      13.25682630      12.19865483
Sb      14.01412654      10.02234504       9.14074593
Sb       9.57130156       8.18402092       9.21608849
Sb      11.36288116      10.12766535       8.00318828
Sb      10.27841313      10.63793376      12.87166018
Sb      10.12629252      12.58988759       8.66500062
Sb       9.89061027       7.91192114      12.08995726
Sb       8.34317178      11.96633001      11.21415520
Sb       7.24087951       9.83509047       9.63264031
Sb       7.02556591       7.86456352      11.75757257
Sb       8.34353271      10.65973990      15.03397067
Sb       6.32439443      12.01642597      13.52530118
Sb       6.04290086       9.24882860      14.09317451
19
Properties=species:S:1:pos:R:3 config_type=qcd gap_pre_relax_energy=-74.34148343848958 gap_pred_energy=-74.5162057811651 gap_fmax_final=0.0009581346051766991 gap_converged=1 pbc="F F F"
Sb      12.64508865      11.16687322       7.45741927
Sb      11.00693097       9.09425114       6.38746164
Sb      10.60084306      12.89459036       8.67131223
Sb      12.60865893       6.78606612       7.12886382
Sb      14.97438032       7.71303027       8.48899799
Sb      10.92128976      11.99970264      11.35607488
Sb      13.83531374       9.99563883       9.80156900
Sb       8.20513435      11.49042795       7.80683432
Sb       8.99650460       8.83923982       8.40548284
Sb      13.98643007       6.13767174      10.75586986
Sb      11.31348833       6.11656580       9.62039965
Sb       6.69807807      11.13204379      10.23539996
Sb       6.69684755      13.70827269      11.48093342
Sb       9.43682451      14.26414768      12.23407936
Sb      12.07527427       8.28128705      11.32621853
Sb       8.95933862       9.95279951      11.58789766
Sb       6.18790394      12.69901434      14.15734736
Sb       8.91142972      13.30355150      14.92628217
Sb       8.13110904      10.61569405      14.36242454
20
Properties=species:S:1:pos:R:3 config_type=qcd gap_pre_relax_energy=-78.96161333407233 gap_pred_energy=-79.13288063706293 gap_fmax_final=0.0007546422981252283 gap_converged=1 pbc="F F F"
Sb      15.61070858      17.40612255      13.37773946
Sb      13.51276547      15.97730004      14.75650140
Sb      15.17442572      17.13312610      10.56040445
Sb      17.10384363      15.45988233      11.91175974
Sb      11.66297645      15.96004567      12.61932256
Sb      14.59687833      13.36236248      14.56104965
Sb      12.01558475      12.08809787      14.81981448
Sb      13.25953986      14.92363710      10.48442172
Sb      15.20584453      13.24499492      11.79713499
Sb      10.12080422      13.60824206      13.27962052
Sb      12.51439280      10.89124163      10.65828948
Sb      12.22487042       9.68495194      13.22660681
Sb      10.22059577      12.58000828      10.60570604
Sb       9.39970736       9.45036900      13.53765393
Sb       8.12733654      10.73735623      11.30819404
Sb      11.41570600       8.67843608       9.14514473
Sb       9.20334959       6.65908820      12.85140699
Sb      11.21151355       6.32049262      10.83980814
Sb       8.56498213       9.03461690       9.06550299
Sb       8.39240579       6.33785951      10.13214938
20
Properties=species:S:1:pos:R:3 config_type=qcd gap_pre_relax_energy=-78.9080470091603 gap_pred_energy=-79.05107572095673 gap_fmax_final=0.0008745334407201127 gap_converged=1 pbc="F F F"
Sb      15.97038025       8.31748410      15.83605478
Sb      13.91258435       8.23767977      17.82486668
Sb      16.11011171      10.10850688      18.06251641
Sb      14.84390899       9.75505864      13.56693418
Sb      12.11100577       9.37468391      14.21336414
Sb      12.11569652      10.32674251      16.90799215
Sb      15.26325392      12.41480020      14.49352316
Sb      14.32029949      12.21342221      17.16943401
Sb      13.18008801      11.47365007      10.52294630
Sb      11.23803149      11.69082667      12.63016109
Sb      11.58353067      11.79356268       8.10691518
Sb       9.07871719      12.00496900       9.42618438
Sb      12.86606834      13.77465008      13.82055990
Sb      13.95596421      14.17645583      11.15846751
Sb       7.62389925      13.31550269       7.28990158
Sb      12.09724381      14.53392535       7.52534564
Sb       9.36380794      14.47149291      10.89919386
Sb      11.79755192      15.72329902      10.08941489
Sb       9.51552288      15.30512238       6.48731604
Sb       7.85308300      15.78891481       8.76965783
21
Properties=species:S:1:pos:R:3 config_type=qcd gap_pre_relax_energy=-82.83562635754217 gap_pred_energy=-82.92391637409102 gap_fmax_final=0.0008332073643371224 gap_converged=1 pbc="F F F"
Sb      16.36831156      13.38315969      14.57632315
Sb      15.87119087      11.20985515      12.78954329
Sb      17.08440254      12.17219967      17.08529882
Sb      13.54283484      12.50483125      11.71800175
Sb      14.35746491      13.01669943      16.58662079
Sb      10.86254577      11.32936274       8.17350267
Sb      10.22421840      13.48362332       9.94132330
Sb      13.09020304      10.18688037      10.12439537
Sb      14.79660062       9.12957715      14.44835750
Sb      14.93975151      10.25083391      17.07328398
Sb      11.96023672       9.49176853      14.42429018
Sb      11.75820218      12.27136059      13.91946435
Sb       7.46260417      13.81343136       9.27067330
Sb       7.70714287      14.35610076       6.41981655
Sb      11.58637593       8.45618968      11.79797290
Sb       8.83054166       9.45134833       8.79338504
Sb       6.54250274      11.11162892       8.73627698
Sb       9.28557286      12.25052475      12.34417854
Sb       8.93355842       9.49938917      11.63116012
Sb       9.44978414      12.27088262       5.59118583
Sb       6.68442438      11.69882271       5.89341574
21
Properties=species:S:1:pos:R:3 config_type=qcd gap_pre_relax_energy=-82.4960419100914 gap_pred_energy=-82.61130688979185 gap_fmax_final=0.0007045144365279417 gap_converged=1 pbc="F F F"
Sb      14.22609876       9.68051328       9.29456953
Sb      15.85703561      10.76864743      11.39304810
Sb      13.00874700       6.78246745      15.02537948
Sb      14.00431153       6.66835073      12.28376097
Sb      12.22541006       8.34329249      10.83284526
Sb      13.86966929      12.35891117      12.76645419
Sb      12.66747549      12.12001636       8.54956840
Sb      14.08828478      13.84365893      10.32743891
Sb      14.80903302       8.95106453      15.70015722
Sb      12.03358409       9.43525766      15.32284797
Sb      11.60686838      10.60653206      12.55241989
Sb      16.07656101       8.48425853      13.11455555
Sb      10.27441913      11.46410812       9.97859556
Sb      12.71010489      16.34511903      10.88430899
Sb      12.44270262      15.77244199      13.65174391
Sb      10.28148890      13.85449274      13.75308891
Sb       9.03233192      13.75274914      11.19910318
Sb      10.01670631      16.12003416       9.98582847
Sb      10.69055231      18.02447713      14.23366651
Sb       8.51652833      16.13232796      14.38295273
Sb       8.84955061      17.77874319      12.05513034
22
Properties=species:S:1:pos:R:3 config_type=qcd gap_pre_relax_energy=-86.46589669734246 gap_pred_energy=-86.59522166314898 gap_fmax_final=0.0009106769675702609 gap_converged=1 pbc="F F F"
Sb      10.88741926      16.63791787      15.45579238
Sb       8.89251358      17.07961754      13.41662960
Sb      11.57692218      14.08294471      14.24242586
Sb       9.56837571      14.52774772      12.18925689
Sb       8.10849860      16.33150117      16.06480766
Sb      16.47592290      12.39605698       9.07018967
Sb      14.42001582      11.28342068      10.83571602
Sb      10.25870991      12.36349207      16.11712577
Sb       7.31514780      13.01567881      13.10832471
Sb      10.99191689      10.85880380      12.05980461
Sb       7.62253774      13.47609282      15.92223744
Sb       8.89309622      10.76557475      14.09199902
Sb      11.32671583       8.25776417      13.20554882
Sb      16.30987339      10.64835642       6.81325899
Sb      14.47914630      12.83421200       7.02846641
Sb      15.30802537       8.61188929      10.48455344
Sb      12.42950375      11.72046961       8.80055361
Sb       9.34153352       8.69424746      11.17521453
Sb      13.08024435       6.96073774      11.20642874
Sb      14.88971739       8.30256813       7.69823726
Sb      12.25187882       9.28307433       7.35942947
Sb      11.10021150       7.39575874       9.18192594
22
Properties=species:S:1:pos:R:3 config_type=qcd gap_pre_relax_energy=-85.79292306920749 gap_pred_energy=-86.5901228146599 gap_fmax_final=0.000796723632265692 gap_converged=1 pbc="F F F"
Sb      12.67808462       6.09954393      13.49511224
Sb      10.69683154       7.36265501      15.12278833
Sb      13.49136728       7.48136440      15.86759116
Sb      13.34744046       7.89148743      11.32043953
Sb      10.95418961      10.12282463      14.18407393
Sb      13.77415101      10.24073388      14.92602648
Sb      11.02476680       9.55217840      11.44020378
Sb      15.35374437       9.39430527      12.68428264
Sb      12.13239605      12.42683586      11.01212466
Sb      14.94374550      11.45743296      10.71991784
Sb      17.28667495      12.90270780       9.62667451
Sb       9.51187009      13.74559691      13.44636501
Sb      13.12529667      14.51182182       9.04084476
Sb      12.35434165      13.60885195      13.61788956
Sb      16.25440275      13.58457701      12.20192521
Sb       9.29002337      15.44680769      11.05865017
Sb      11.81359025      16.65659703      10.41041863
Sb      15.73074615      15.29948671       9.95628554
Sb      13.08006023      16.36077011      12.94982616
Sb       9.01869140      16.00418540      15.23087509
Sb       8.67114803      17.63274361      12.86943753
Sb      11.07452836      17.82458334      14.42633835
23
Properties=species:S:1:pos:R:3 config_type=qcd gap_pre_relax_energy=-90.23155384928415 gap_pred_energy=-90.50391683553536 gap_fmax_final=0.000979747601763377 gap_converged=1 pbc="F F F"
Sb      13.76325914      11.65818443       7.41112265
Sb      14.81964321      14.12138308       8.44709513
Sb      14.54540124      13.91871519      11.31512840
Sb      12.53626609      10.42760834       9.74470044
Sb      12.16866114      14.08085194       7.36400935
Sb      13.88299299       7.91303514       9.24631746
Sb      14.69944765      11.07850297      11.49708384
Sb      11.82071974      14.65872905      11.76181772
Sb      10.57816454      13.24844720       9.63901374
Sb      11.13435231      12.78776066      13.84920575
Sb      14.05727059       6.91221697      11.93124049
Sb      13.27636020      10.88832960      13.95618738
Sb      12.02561797       5.89812273      10.14161625
Sb       8.20763305      14.85464275       9.90213847
Sb       7.89361234      10.42401369       9.52452558
Sb      10.39104975       8.06974579      11.17316767
Sb      12.03138925       8.29563625      13.50751562
Sb       9.13141147      11.16981206      12.19054289
Sb       6.22674859      12.75402261       9.75426202
Sb       7.37227337      13.47707508      12.29192165
Sb       6.14893620       8.80660628      11.16317921
Sb       7.99973438       7.02650400      12.46121932
Sb       7.27531010       9.51630947      13.71324425
23
Properties=species:S:1:pos:R:3 config_type=qcd gap_pre_relax_energy=-89.24630149776496 gap_pred_energy=-90.08193623908048 gap_fmax_final=0.0008721150543840385 gap_converged=1 pbc="F F F"
Sb      12.54118627      16.08893720       8.63593979
Sb      13.03539168      13.43985591       7.61767435
Sb      10.34823281      14.38805405       7.91191528
Sb      12.98595327      15.88354773      11.50053768
Sb      12.67571271       8.81813523       7.46777992
Sb      10.32258431      10.34796389       6.96889119
Sb      14.85683583      13.67488739      11.31499624
Sb      13.08955668      11.82011740      10.06911442
Sb      10.29331855       7.53295565       6.58046291
Sb      10.40522559      14.88003405      12.25811616
Sb      10.30709534      12.69140401      10.41061038
Sb      10.43393816       8.59432725       9.25960195
Sb      10.33139683       8.59830606      12.98377002
Sb       8.61894854      10.71158496      12.09736869
Sb      11.60044386      12.78494584      13.81172225
Sb      12.97279771      10.10889840      13.28337325
Sb      15.41296958      11.94941700      13.59328536
Sb       9.00116864      11.97582329      14.67043644
Sb      15.04893499      13.36473853      16.06252238
Sb      12.26643106      14.03827238      16.29625475
Sb       9.71666509       9.35761328      15.70102057
Sb      12.60023847       9.39488853      16.03331955
Sb      13.29427012      11.71458805      17.63058255
24
Properties=species:S:1:pos:R:3 config_type=qcd gap_pre_relax_energy=-93.86619404435802 gap_pred_energy=-94.30071194919398 gap_fmax_final=0.0008845247129473797 gap_converged=1 pbc="F F F"
Sb       6.79828554      10.38447343      17.98704655
Sb       9.20738752      10.09388520      19.49056826
Sb       7.53033358      12.41693830      19.86453309
Sb       7.63325155      11.41406740      15.42691476
Sb      10.51494944      11.07280523      15.23642348
Sb       7.96561947      14.21637357      15.95095036
Sb      11.12432387      11.72322655      18.00583892
Sb       9.44764047      14.05440235      18.38769469
Sb      10.30203920      13.75640078      14.18414833
Sb      12.10373711      15.20008404      15.90184510
Sb      15.02688513      12.82868214      13.46365412
Sb      12.60883258      12.10104592      12.08245515
Sb      12.63947135      13.54240458       9.57547835
Sb      13.81284120      10.93269318       9.68266407
Sb      14.13341048      13.22263059      16.23826668
Sb      17.04099983      14.13474201      10.78755644
Sb      16.61323801      11.38453127      10.10747229
Sb      14.58217074      15.47782467      14.45803673
Sb      14.89562426      15.31376472       9.36063909
Sb      19.15069339      14.94580366       8.92218824
Sb      16.67533803      11.65638837       7.24151230
Sb      15.35120645      14.21377216       6.76961645
Sb      19.28993782      12.90709336       6.92332501
Sb      17.96728097      15.42146452       6.36666955
24
Properties=species:S:1:pos:R:3 config_type=qcd gap_pre_relax_energy=-93.42861703271407 gap_pred_energy=-94.30606966617594 gap_fmax_final=0.0009123436641387536 gap_converged=1 pbc="F F F"
Sb      12.35091948      13.26217764       8.69549114
Sb      14.19999854      16.03756677      10.78495007
Sb      14.78252488      13.29006250      10.24483801
Sb      11.00441429      10.77560434       9.32234132
Sb      10.27732668      13.18962542      10.71423634
Sb      16.74967663      16.65168124      11.97039520
Sb      12.45554756      15.93128595      13.04392132
Sb      13.17158426       9.68013562      10.82178816
Sb      14.05725191      11.84380025      12.56992470
Sb      15.86258342      17.98393757      14.30035635
Sb      11.60696399      13.15966049      13.23323481
Sb       9.71243573       9.89860634      13.20428437
Sb       9.22565963       7.71803252      11.32099338
Sb       8.05352250      11.92853038      14.93466941
Sb       8.01177763       7.66982062      13.94371846
Sb      11.83208117       7.81983027      12.54478862
Sb      14.09299674      16.04861611      15.38926062
Sb       6.13259712       9.90561664      14.23747813
Sb      17.44889564      14.08505976      13.00403789
Sb       7.35333784      11.57973417      12.24241068
Sb      18.18712968      17.41123687      15.91361441
Sb      15.71937626      13.73195882      15.28997082
Sb      19.51444744      15.13810940      14.78160574
Sb      17.76754257      14.82990192      17.06228163
25
Properties=species:S:1:pos:R:3 config_type=qcd gap_pre_relax_energy=-97.51525273389299 gap_pred_energy=-97.81355732032964 gap_fmax_final=0.0008640449970501952 gap_converged=1 pbc="F F F"
Sb       9.64052697      10.50484225       6.56502326
Sb       6.69350218      14.21311500      14.35118345
Sb       9.60247733       9.84535609       9.37935344
Sb       8.91343146      14.21073344       8.12269876
Sb      11.90500275      11.57817090       9.59005136
Sb      13.70949736      10.01015553       7.92271330
Sb      15.49413128       8.76427168      15.70888887
Sb       9.49416622      14.21050397      10.99735538
Sb      13.91078358       7.05359411      11.82676204
Sb       9.47528126      16.64112868      12.58295018
Sb      16.67096044      10.39185721      13.65328394
Sb      12.13588659      11.82684596      15.95747624
Sb      12.34652885       9.36177300      12.35482777
Sb      12.69675068       9.07890993      15.19849896
Sb      16.36044034       7.56486185      13.24658370
Sb      11.25687073      12.87543284       7.02311402
Sb       6.67598045      13.81953579      11.48475290
Sb       7.61017163      11.64259384       8.29646616
Sb      10.49960455      12.26989564      13.57352523
Sb      14.47971574      11.23954850      12.00349093
Sb      14.96170477       7.75607880       9.24707642
Sb       6.56216541      16.49915157      12.59354313
Sb      13.12408567      13.36233278      13.76193725
Sb      16.03385904      10.37100982       9.55954197
Sb       9.54532587      14.70715197      14.79775254
25
Properties=species:S:1:pos:R:3 config_type=qcd gap_pre_relax_energy=-97.26147229733644 gap_pred_energy=-97.88097672023534 gap_fmax_final=0.0009978184478229778 gap_converged=1 pbc="F F F"
Sb       9.07053842       6.74950925      11.47230656
Sb      19.09966682      16.98553621      12.05371458
Sb      14.20205619      14.96070943      13.71922400
Sb      11.44533297       5.98705109      12.88761037
Sb       8.81230258      13.35173841      11.20959241
Sb       7.82929415      15.90228608      12.19203663
Sb      14.10416870      12.08553644      13.32313798
Sb      15.57227224      11.54298265      10.91056852
Sb      10.45382158      10.30083204      13.98372077
Sb      17.47112423      17.62072513      14.35848719
Sb      10.64243730      15.50446867      11.97214463
Sb      14.64128278      15.89812742      11.07442918
Sb       8.23821533      12.35373064      14.02026126
Sb       9.05001823      15.86239127       9.62528536
Sb      12.23355624       9.28491239      10.51016184
Sb      16.47303401      18.07223609      11.71249826
Sb       8.91140627       6.07862835      14.26148462
Sb      12.83630558       8.49648212      13.15497526
Sb      16.87079571      14.79724392      14.69138657
Sb       6.88132481       9.94809107      13.31114069
Sb       8.50128471       8.72127554      15.33775386
Sb      18.47379460      14.16881612      12.36083771
Sb      16.67236524      14.09135527      10.17822492
Sb      12.75909886      12.10001549      10.75928579
Sb       9.26822932       9.64904579      11.43345790
26
Properties=species:S:1:pos:R:3 config_type=qcd gap_pre_relax_energy=-101.46487841366749 gap_pred_energy=-102.04419984645162 gap_fmax_final=0.0009761214167690925 gap_converged=1 pbc="F F F"
Sb      16.72014871      12.64360499      10.91874771
Sb      14.95374411       8.87678371       9.86100184
Sb      16.21291771      10.09806439      12.15430649
Sb      16.17327696      14.46034305      13.15816139
Sb      14.80212661      12.76254710       8.80515174
Sb      13.19786397       6.95910903      11.22657013
Sb      12.74468851      10.77602502       9.91282194
Sb      14.72091077      12.79112657      14.95956704
Sb      13.72657193      15.24362090       9.70979630
Sb      11.32728505       8.13004525       9.42239675
Sb      13.50627236      11.02782484      12.85296012
Sb      13.46752123      15.16009891      13.91472796
Sb      13.18405350       8.28751415      13.79374968
Sb      11.62727264      15.56728017       7.79543405
Sb       8.59767109       7.52207779      13.21689281
Sb      12.12142812      13.96150603      11.70176852
Sb      10.54096802       8.84897043      14.80474071
Sb       8.73682678       8.62069094      10.60118440
Sb      10.30811763      17.53735678       9.42437577
Sb       9.99523970      15.90113139      11.79078015
Sb       9.06849738      11.42556843      11.18012688
Sb       9.16308973      14.91138779       9.20907096
Sb       6.42400148       9.25634976      14.04506063
Sb      10.30172608      11.56106995      13.80506949
Sb       6.40983086      11.57591529      12.35781280
Sb       7.57349578      11.69953408      14.98327048
26
Properties=species:S:1:pos:R:3 config_type=qcd gap_pre_relax_energy=-101.96506395012463 gap_pred_energy=-102.473881504025 gap_fmax_final=0.0009611930608679069 gap_converged=1 pbc="F F F"
Sb       5.66270342      10.38550432      15.05349292
Sb       6.46414765      12.94090548      16.12843602
Sb       7.08748182      14.54534965      13.84417557
Sb       8.40205833      10.84785401      15.86739743
Sb       7.23532440      12.61404636      11.77265463
Sb       7.82092850      10.15576680      13.13870255
Sb      17.45094068      12.13493994      11.02909597
Sb      19.85615402      11.87164687      12.64200051
Sb      18.66652040      11.96811973      15.24843822
Sb       9.81534825      15.18491477      14.55737515
Sb      11.36141863      12.79660445      14.96049327
Sb      15.40231220      11.17492850      12.80347894
Sb      19.67827348      14.39088527      16.38169928
Sb      13.48128887      14.82004610      14.94860959
Sb      19.99729183      14.66861238      11.97311223
Sb      21.00541774      15.94808728      14.33759006
Sb      17.55318168      16.39655335      16.58172719
Sb      10.53849628      15.74875486      11.84987518
Sb      11.38090666      11.49266444      12.41332133
Sb       9.87954161      13.21507945      10.69116943
Sb      16.16505052      13.43561810      14.42188021
Sb      13.49624441      15.29174353      12.17641153
Sb      17.13902479      14.95036987      12.14877072
Sb      19.18755022      18.14277133      14.94601847
Sb      16.62881324      17.27951514      14.02870985
Sb      13.64453185      12.59966951      11.05631525
27
Properties=species:S:1:pos:R:3 config_type=qcd gap_pre_relax_energy=-105.63866855160833 gap_pred_energy=-106.00180185327574 gap_fmax_final=0.0009755043983141745 gap_converged=1 pbc="F F F"
Sb       7.97262474      12.50043054      16.11113714
Sb       7.12478811      12.11920127      13.38034424
Sb       6.53038137       9.40474601      14.07079576
Sb      10.42138974      13.98979572      16.52290685
Sb      10.47733307      11.12123403      16.28372387
Sb       9.10543777       8.14661702      14.22560057
Sb       7.46097042       7.76445797      11.88607431
Sb       9.49939360      11.87053135      11.77982799
Sb      11.65273522      14.76577947      11.70793307
Sb      11.59146823      15.66703935      14.46193027
Sb      10.98294121      10.21399743      13.58267051
Sb       8.27655143       9.83434763      10.11930007
Sb      12.17282540      12.12788753       9.50394948
Sb      10.35593170       8.23869948       8.90235160
Sb      14.40594207      15.35169075      14.85648453
Sb      13.21893554      17.13367862      10.97538010
Sb      13.78368064      13.27828678      12.87679647
Sb      13.70612430      10.37377234      11.15471946
Sb      15.13681970      17.48741771      13.08199477
Sb      15.65976793      10.13501247       9.02495808
Sb      11.49162972      10.31857602       7.34776139
Sb      14.78409690      12.96362961       8.50374341
Sb      15.93949484      16.29982385      10.58489131
Sb      15.99602146      13.45902069      11.01605720
Sb      12.38248120       7.78533678      10.85976790
Sb      14.50756886       7.24230126       8.98796802
Sb      14.03565380       9.07967730       6.86392056
27
Properties=species:S:1:pos:R:3 config_type=qcd gap_pre_relax_energy=-105.7273047553492 gap_pred_energy=-106.12538089818756 gap_fmax_final=0.0009852902825398257 gap_converged=1 pbc="F F F"
Sb       8.87916265      11.06614894      17.14810197
Sb       7.49204923      12.66869090      15.19007126
Sb       6.47125138      10.61826237      13.48735258
Sb      11.73062368      11.55155924      17.29382804
Sb      10.68623633       9.44235393      15.67747866
Sb       8.66513872       9.63587290      11.90800234
Sb       7.04183163      11.77461893      10.90044976
Sb       9.83861863      13.43843184      13.83663431
Sb      13.50388955      12.52582503      14.90466950
Sb      15.34428163      13.20864607      17.06794474
Sb      10.94961143      10.90537443      13.14187034
Sb       8.52059327      14.18083148      11.43151024
Sb      12.82596889      13.11433874      11.40369811
Sb      10.39914371      11.46308169       8.57567489
Sb      17.53589839      12.17813082      15.44824121
Sb      13.10815653      15.07039819      13.52395928
Sb      15.79640349      11.47641559      13.23193467
Sb      12.65603269       9.87863690       9.38424919
Sb      17.09650203      14.99958592      15.65604373
Sb      14.97864427      11.39396755       8.58320697
Sb      10.84651569      14.11286919       9.59038555
Sb      14.74883055      14.08549715       9.56892599
Sb      15.87579514      15.80906608      13.16965906
Sb      16.78797666      13.61540202      11.59106592
Sb      12.66956042       8.96858170       6.55183208
Sb      11.29650810      11.39272887       5.81751481
Sb      14.15513499      11.32504321       5.81605447
28
Properties=species:S:1:pos:R:3 config_type=qcd gap_pre_relax_energy=-108.74280048881789 gap_pred_energy=-109.49932632832767 gap_fmax_final=0.000938494814707394 gap_converged=1 pbc="F F F"
Sb       8.65391520       6.87191287      13.39775686
Sb       9.24045061       9.44804681      14.58736188
Sb      10.65424222       6.19413206      11.46190723
Sb       8.13746642       7.39970451      10.62002217
Sb      13.93059899       9.04547984      14.88701899
Sb       7.29333656      10.81653562      12.96139709
Sb      14.34866055      11.47623640      16.40765305
Sb      11.71723931      10.37596772      13.39215364
Sb      11.94927448       8.69389324      10.91421422
Sb       8.93100155      10.19158332      10.67140266
Sb      11.79346050      12.50396792      15.53690477
Sb       8.10526406      13.54693159      12.41821474
Sb      15.99834557      10.88436521      14.14221082
Sb      14.81535572       8.65292692      10.82475851
Sb      16.23838614      12.15202073       9.49332411
Sb      14.44925268      11.53536598      11.76618389
Sb      10.82053009      13.14441717      11.59574245
Sb       6.86157273      10.88028437       8.79403488
Sb       6.41549906      13.45118712      10.03474668
Sb      11.94357522      14.74632163      13.74003442
Sb      14.70809526      10.02203295       8.29957778
Sb      14.52151271      14.52657032      12.52430271
Sb      12.23967621      11.77405889       8.87192141
Sb       7.75463343      13.30851125       7.50025274
Sb      10.74992011      15.55481280      10.02559706
Sb      10.55576778      13.97436177       7.62667800
Sb      13.68044660      15.82825643      10.08590652
Sb      14.23482287      13.74241716       8.16102337
28
Properties=species:S:1:pos:R:3 config_type=qcd gap_pre_relax_energy=-109.2734273541864 gap_pred_energy=-109.70586929526777 gap_fmax_final=0.000766635666878676 gap_converged=1 pbc="F F F"
Sb      15.58349664      10.42746140       9.18091976
Sb      15.86364149       9.12208077      11.75635404
Sb      12.52179545      12.33907251       7.00320409
Sb      16.54120024      11.89911303      11.48029786
Sb      12.79791747      11.11641748       9.60912821
Sb      11.17340028       8.93255414       8.54909204
Sb       9.84945837      11.19579039       7.31586703
Sb      13.07342146       9.54685011      12.54955181
Sb      14.41989118      15.55864810      11.45856573
Sb      12.12644653       6.88432065      11.68000682
Sb      13.83468727       8.74659450      15.23732230
Sb      11.13391004      14.80787307       7.76061984
Sb      13.86446511      12.82505394      12.29053693
Sb      11.90153559       6.70430129      14.56276956
Sb      12.38106647      16.59076108       9.69045135
Sb       9.61316598       7.90190311      10.77374126
Sb      13.77202777      13.28684830      15.22830006
Sb       9.85355590      13.07244159       9.60984132
Sb      11.59824707       9.91148120      16.65193379
Sb      13.24388237      15.85500129      14.05284526
Sb       9.61179429       8.32732640      15.26308637
Sb      10.57310949      12.05930382      12.79676634
Sb      11.04816563      12.54185334      15.66058559
Sb       9.99178835      17.24852745      11.18983223
Sb       8.05368216      15.13076482      10.68138564
Sb       8.79944859       9.77188634      12.87333595
Sb      10.38254110      16.29188422      13.90741232
Sb       8.55052690      14.06215490      13.34451572
29
Properties=species:S:1:pos:R:3 config_type=qcd gap_pre_relax_energy=-113.16480242553345 gap_pred_energy=-113.59157859407398 gap_fmax_final=0.0008730276822912452 gap_converged=1 pbc="F F F"
Sb      15.77563442      15.31401308      11.63281514
Sb      13.66512013      16.70760277      12.99410449
Sb      15.18840089      14.69353571      14.35885066
Sb      13.76449986      13.97387586       9.96642609
Sb      14.47150421      10.36143232      15.68865942
Sb      15.59170366       8.90114331      11.13703024
Sb      13.64677026      12.31296423      13.74513393
Sb      11.70755776      14.76712328      11.83969286
Sb      13.57634994      10.27674634       7.78457827
Sb      14.63691360       8.16900205      13.80764607
Sb      13.69817487      11.09364089      10.57759584
Sb      10.21011237      15.37980615       9.41799309
Sb      13.60587447       6.87423084      10.51444615
Sb      11.64296964      10.15397523      16.35911635
Sb      12.19458149       8.68127742      12.36500111
Sb      11.16817714      12.75230894      15.14939559
Sb      12.22836637       7.78024861       8.14034550
Sb      10.30720799      12.40725974       9.31135149
Sb      10.43236451       8.14677620      14.67870213
Sb      11.23538205      11.66469575       6.68192266
Sb       7.41416745      14.90103563       9.96481145
Sb       9.84398163      12.00421485      12.67311326
Sb      10.00068024       9.14990739       9.67230378
Sb       8.27367109       9.84315923      13.82876769
Sb       7.27124717      13.25300190      12.31926372
Sb       9.03457598       9.84836893       7.06433360
Sb       7.60476494      12.30023896       8.28801461
Sb       7.45122407       8.79685315      11.26551629
Sb       6.12966823      11.26320773      10.54471500
29
Properties=species:S:1:pos:R:3 config_type=qcd gap_pre_relax_energy=-113.76351454349125 gap_pred_energy=-114.05424483402177 gap_fmax_final=0.0009364543565169145 gap_converged=1 pbc="F F F"
Sb      16.29925643      15.52723643      13.29227701
Sb      14.78275249      14.50887126      11.05222060
Sb      17.97888557      13.42461482      14.26126735
Sb      10.78589284      15.15826593      10.04939925
Sb      15.63455511      14.17354989      15.74265029
Sb       8.60130223      15.54507937      12.16983812
Sb      16.52065920      12.33169565      10.35203667
Sb      12.26041586      13.39886043      12.07125305
Sb      17.40639318      11.04454689      12.74731852
Sb      12.35727175      13.78895303       7.82778561
Sb      13.82312908      12.36247316      14.42963657
Sb       9.52591000      14.09882359       7.64566868
Sb      10.78572944      15.09110773      13.94436459
Sb       7.02117488      13.14794660      12.24244226
Sb       9.85889256      13.16743237      15.93641050
Sb      12.37385327      11.41240855       9.43895133
Sb       8.93395580      11.51296081      10.85068982
Sb       8.40942066      11.45988010       8.03266193
Sb      15.14638009       9.84901720      14.03074671
Sb      14.91292178      10.17016760       9.28448351
Sb       7.47777708      11.92564206      14.83322663
Sb      11.79450510      10.96653818      15.91483842
Sb      11.03149037      10.37334349      13.17057485
Sb      10.63934583       9.61087599       7.94402151
Sb      14.44169305       8.47554383      11.58190720
Sb       7.54860785       9.07771510      11.26504516
Sb       8.49328087       9.28927230      14.02149372
Sb      11.68979121       7.74386392      12.22173432
Sb       9.81789910       7.71645642       9.99819852
30
Properties=species:S:1:pos:R:3 config_type=qcd gap_pre_relax_energy=-117.6412140766192 gap_pred_energy=-118.28942277355097 gap_fmax_final=0.0009613779642792108 gap_converged=1 pbc="F F F"
Sb      13.78763516      22.06404577      10.52224826
Sb      12.01013618      20.69847653       8.68990345
Sb      15.68333482      19.92358910      10.02335589
Sb      13.87184056      18.49847795       8.23831868
Sb      11.57713812      20.54985187      11.51967227
Sb      15.47543691      18.29111677      12.37994650
Sb      20.13019882      17.54144640      12.54236341
Sb      12.25564462      16.70171546       9.77913671
Sb      20.28489681      14.77593300      11.73283227
Sb      18.35069864      16.47949982      14.55087683
Sb      12.58397664      17.94371525      12.31233488
Sb      17.53017734      14.39762504      12.64203563
Sb      16.47169662      16.21054551      10.64073393
Sb      14.13065974      14.57443556      10.24228353
Sb      21.10527261      15.60283083      14.37654867
Sb      13.32237961      14.16174845      12.96118007
Sb      11.12875874      12.72170019      11.77695690
Sb      14.76834673      11.67357942      13.46922397
Sb      11.68432254      12.73336941      16.21376857
Sb      10.29616950      11.28648772      14.17769024
Sb      14.21402727      11.41512448      16.30350704
Sb      12.41592706      10.23940878      12.54420203
Sb      10.26615151      11.09866330      18.12643152
Sb      12.38927639      10.69989286      20.02887834
Sb      13.40903816       8.64792309      16.22765860
Sb      14.28075387       8.75068544      18.96835375
Sb      10.57795734       8.63786848      16.70744893
Sb      11.01487888       8.45483581      21.27638814
Sb      12.86427744       6.51902504      20.17472392
Sb      10.27862370       6.86601499      19.01062939
30
Properties=species:S:1:pos:R:3 config_type=qcd gap_pre_relax_energy=-117.40552039295696 gap_pred_energy=-117.93143620687121 gap_fmax_final=0.0009913445880226726 gap_converged=1 pbc="F F F"
Sb       6.77946161      14.97633449       9.55265118
Sb       8.10698334      12.99339549       7.93657864
Sb       9.50325079      15.79948930       9.98391773
Sb       6.01440115      13.72693444      12.01494971
Sb       9.82378419      16.11854269      12.82883441
Sb       7.32862966      10.40613628       8.92844908
Sb      10.55756477      13.13146861       9.51233048
Sb      12.31276416      13.96707666       7.39496829
Sb       8.19448449      13.99886517      13.88418637
Sb       6.73210404      10.92299532      11.68589463
Sb      14.73051698      12.95735004       8.63740368
Sb       9.96273731       9.79345560      10.09912397
Sb      13.32322904      11.37617248       6.69763380
Sb       9.32939370      11.24654824      12.89904482
Sb      12.23558319      14.51225442      12.26415439
Sb       9.12672029       8.44887987      13.97317105
Sb       9.44957756       7.18703743      11.36666482
Sb      11.82796033       9.20239221       7.89540198
Sb      13.59744485      11.69131267      10.96227743
Sb      12.19423619      13.44065028      14.95483317
Sb      12.26465348       7.75174596      11.30933488
Sb      14.59606949      14.68765405      13.98872510
Sb      12.59635822      10.73821128      14.04610002
Sb      11.71115835       8.30455670      15.36370941
Sb      13.77498195       7.35905376       8.91981227
Sb      15.87891544      12.42966431      12.61892775
Sb      15.27428208       9.31461476      10.45837514
Sb      13.36724643       6.55705002      13.67762259
Sb      15.34901799      10.48807694      14.72502356
Sb      15.71820277       8.13379437      13.08161351
31
Properties=species:S:1:pos:R:3 config_type=qcd gap_pre_relax_energy=-121.06183407361752 gap_pred_energy=-121.57266491534139 gap_fmax_final=0.0009866940122907212 gap_converged=1 pbc="F F F"
Sb      18.51169750      11.84378507       9.33278625
Sb      17.54124453       9.78362526      11.06778802
Sb      16.76160244       9.83221549       8.29019171
Sb      16.03880809      13.45759551      12.47255423
Sb      16.92907596      14.19508348       9.82449233
Sb      14.94959055      12.77303549      16.16332644
Sb      13.82510495      10.28498388      17.30517558
Sb      13.11911164      14.12383213      17.96005941
Sb      12.91012843       8.90879787      14.91407351
Sb      14.95393123      10.88698225      11.86686529
Sb      13.72537832      15.15598440      12.48948310
Sb      14.16525441      10.93928232       9.02406822
Sb      14.78050544      13.54479740       8.03927584
Sb      12.61735570      14.01896886      14.99195979
Sb      11.65864392      11.70826154      18.51864138
Sb      11.70094007      11.28494284      13.84796191
Sb       9.90704445       9.40742778      12.37767029
Sb      10.25887641       7.71397801      14.77077602
Sb      11.89527569      13.38071766      11.18602873
Sb      10.40760503      11.19697169       8.13354637
Sb       8.32051185       9.43236506      16.06350058
Sb      10.89782241      13.81243862       7.06688809
Sb      12.59188712      15.13790697       8.96324642
Sb       9.86487037      11.84528711      16.05616484
Sb       7.76830652      11.81719437       7.04185615
Sb       7.55853861      10.65178722      13.49420211
Sb       9.68821455      14.88274213      12.24970059
Sb       8.10705319      13.38515188      14.16783533
Sb       8.22780231      14.68208658       7.55347019
Sb       8.09732260      11.28216536       9.88508420
Sb       7.67841729      14.08752739      10.33924866
31
Properties=species:S:1:pos:R:3 config_type=qcd gap_pre_relax_energy=-121.5800099320015 gap_pred_energy=-122.12435481853683 gap_fmax_final=0.0009500884220329297 gap_converged=1 pbc="F F F"
Sb      12.01310689      16.36585429      16.24408087
Sb      16.34824363      14.22978248      13.29062630
Sb      15.00046201      11.73838539      14.12618241
Sb      12.89548219      13.68038156      15.09845613
Sb      17.68491053      13.33097628      10.82310490
Sb      10.33258975      16.83004977      14.00294325
Sb      14.03991570      14.88312397      11.72575420
Sb      12.25994528       9.98901121      15.24545827
Sb       9.22884739      15.82090910      16.43933184
Sb      16.02252546      15.35878863       9.65172033
Sb      13.65638637      12.03657352      11.62175133
Sb      11.30586539      12.10016483      16.94770756
Sb      10.72544188      13.92635224      13.16115875
Sb      16.06548451      11.04180393      10.27266681
Sb       9.06545856      13.06355106      15.42472918
Sb      14.76994619      14.28066158       7.26305760
Sb      14.94616744      11.45095514       7.61610750
Sb      10.31539547       7.81478101      15.68835853
Sb      10.83167127      10.62575744      12.80089433
Sb      12.56449499      12.87998025       8.41281689
Sb      12.21272427       8.38033153      11.60890852
Sb       8.57454273       9.48277706      14.14060305
Sb      11.87155628       6.41370579      13.72910512
Sb       9.08765636      11.70254557      10.08153350
Sb      10.28700865       9.47438441       8.70276643
Sb      10.25274592       6.26896958      11.35420487
Sb      10.93962426      13.06182401       6.03502692
Sb       7.84251677       7.65515725      12.02140453
Sb       8.39696529      12.87278612       7.37271980
Sb       7.58671724       9.29000280       9.63202799
Sb       9.50143662      10.57550749       6.09062760
32
Properties=species:S:1:pos:R:3 config_type=qcd gap_pre_relax_energy=-125.72840845117204 gap_pred_energy=-126.40827039696521 gap_fmax_final=0.0009613998306553671 gap_converged=1 pbc="F F F"
Sb      12.60406187       6.32488889      10.39129342
Sb      14.63126139       7.23796265      12.24002598
Sb      13.21404504       8.43680984      14.46458651
Sb       9.99655631       7.51631054      10.94917209
Sb      12.83217628       8.23212663       8.24180311
Sb       9.98589073       7.64541346       8.08291867
Sb      15.79536791       9.34292423      10.73243420
Sb      15.44645345       9.97938231      15.36879892
Sb      16.39969268      11.17085608      12.91003499
Sb      13.16549494      10.49239659      10.04166154
Sb      11.90575481      10.98310319      13.87834897
Sb       9.23107118      11.10780826      15.16938606
Sb      13.22387039      11.55864400      16.40195125
Sb      10.09370699      10.46813931      11.04404793
Sb       7.81282746      10.15725872      12.82503592
Sb       8.79717575      10.41997289       8.45925638
Sb      14.14724633      12.86483110      12.37429513
Sb      15.47054090      14.70067121      14.17049740
Sb      13.12137680      12.23627922       7.71597139
Sb      10.34789326      12.25546350       6.87369290
Sb       6.45048304      12.55959846      12.07028898
Sb      13.64670495      14.43472354      16.38305080
Sb       6.73461203      12.52221401       9.21825837
Sb       8.77206136      13.93841892      15.30052169
Sb      10.91057805      13.79397987      11.12576337
Sb      15.18259630      14.79842512      10.45869773
Sb      14.43410871      16.77571018      12.44243269
Sb      12.77730940      14.79400068       8.90971783
Sb       8.32666134      14.64843727      12.59823623
Sb      11.22257501      15.56027428      15.25119060
Sb       9.12371716      14.01579263       8.76000882
Sb      11.57476825      16.40582247      12.52526021
32
Properties=species:S:1:pos:R:3 config_type=qcd gap_pre_relax_energy=-125.41557097666916 gap_pred_energy=-125.7471654103683 gap_fmax_final=0.0009612161101469909 gap_converged=1 pbc="F F F"
Sb      14.13462898      10.64036683      16.29465020
Sb      12.21110256      11.16876833      18.42714185
Sb       9.56176995       9.55708146      15.40700572
Sb       9.75236521      11.88624260      17.10422445
Sb      15.33808119      10.45066595      12.60367782
Sb      13.15448555       8.67939759      12.34486550
Sb      15.47343784      13.05128567      17.23671466
Sb       7.24048847      10.27703945      13.80512212
Sb      13.07969397      12.41123684      14.25080381
Sb       8.63769068       8.87341144      11.71424390
Sb      10.77239265      10.50409187      12.92074122
Sb      12.91494328      13.96846663      18.22013921
Sb      11.26406228      14.02020096      15.83541886
Sb      15.60479724      13.86264675      14.43847288
Sb      16.44546083       9.21685485      10.17349657
Sb      13.89168346       8.00183025       9.59586562
Sb      12.57763965       9.71858040       7.66615526
Sb      16.41014128      11.82992886       8.95872409
Sb      11.30544765      11.31158243       9.64497594
Sb       8.51997315      10.57782611       9.35026315
Sb       8.65883404      12.73174528      13.26360213
Sb      11.44947733      14.50262339      11.77841049
Sb      14.38392527      13.03962183      10.73855841
Sb      14.82198780      16.54773825      13.82974245
Sb      14.55845477      11.63345423       6.78949981
Sb       7.53688890      12.97287987      10.63415284
Sb      15.33868792      15.85839331      11.03913928
Sb      11.96490198      16.86240300      13.35463557
Sb      10.81249772      13.41690547       7.79305196
Sb      13.64518496      14.09424370       8.04146845
Sb       9.43080942      15.04132587       9.76458941
Sb      12.64433896      16.82743549      10.51672133
33
Properties=species:S:1:pos:R:3 config_type=qcd gap_pre_relax_energy=-130.01559297942433 gap_pred_energy=-130.95023632491367 gap_fmax_final=0.0009466604623021442 gap_converged=1 pbc="F F F"
Sb      16.09283695      14.54788042      10.72305554
Sb      16.62076324      11.65841558      10.50734053
Sb      13.88593965      14.99623058       8.88375798
Sb      14.23924954      12.56926331       7.45509820
Sb      16.57657510      11.13808023      13.34546558
Sb      14.74788897      14.57162139      13.27361374
Sb      11.68510519      12.73953290       6.21850921
Sb      15.00068189       8.03754597      10.97682654
Sb      13.79508684      10.66607156       9.95848626
Sb      12.57189636      16.50631679      13.46189178
Sb      15.64371711       8.40661893      13.72640441
Sb      11.82297922      13.72542274      10.50017078
Sb      12.93152742       8.68840588       7.70681980
Sb      13.18907936       9.40372143      14.83365958
Sb      10.71301912      10.01572396       6.50613725
Sb      13.66817943      11.73943068      13.01361190
Sb      10.78997004      16.32072327      11.22026325
Sb      12.79127371       6.29231890      11.43565013
Sb      11.41275232      14.58009163      15.20878396
Sb      10.66868229      12.42640952      13.36695291
Sb      11.00137189       7.48320110       9.44674308
Sb      11.50510678       7.28839902      13.83968393
Sb      10.64731818       9.98013271      10.94325443
Sb       9.87409906      13.51098371       8.38305549
Sb       8.98823216      10.74688638       8.72975215
Sb       9.83770075      11.17581856      15.85420207
Sb       8.16989466      15.73181945      12.47079195
Sb       8.75211005      15.63153992      15.30396901
Sb       9.03601781       8.21557306      12.60356154
Sb       8.20402358      12.94417499      11.84988763
Sb       7.67673529       9.64461536      14.74806594
Sb       7.63401127      13.06552186      16.18482143
Sb       6.33107092      12.05640436      13.82460814
33
Properties=species:S:1:pos:R:3 config_type=qcd gap_pre_relax_energy=-129.50300991626656 gap_pred_energy=-129.9074917864543 gap_fmax_final=0.0009136545359149956 gap_converged=1 pbc="F F F"
Sb      17.48645142       9.89765001      11.30399560
Sb      15.20277261       9.15107622       9.64317185
Sb      14.22477001       7.80791491      11.94582808
Sb      16.31500553      10.40989218      13.88810464
Sb      17.38279464      12.58444870      12.31189741
Sb      15.54520440      14.42526802       8.91212479
Sb      13.80895495      12.63757322       7.45614815
Sb      12.07946916       6.53993851      10.53483768
Sb      11.27307216       8.68681937       8.71782657
Sb      12.89872462      10.98166606       9.70007091
Sb      13.39591851      10.54138326      13.21488227
Sb      12.95960335       9.03413290      15.67104521
Sb      14.75481441      13.16271450      11.39086943
Sb      12.86536683      15.25439069       8.21286979
Sb      11.21205582       6.77612018      15.26444618
Sb      10.35415317       9.38249935      12.20264617
Sb      13.53780752      13.06682394      15.12864038
Sb      14.85026551      15.07374938      13.54845216
Sb      10.17479077       9.24915618      16.33771053
Sb      10.05418663       6.59103035      12.60924434
Sb       8.69950982       9.33963289       9.83784022
Sb      11.66833882      14.64576337      10.79162418
Sb      10.86031285      14.04584249      15.52319646
Sb      12.76647869      16.75681472      12.44864020
Sb       9.92435550      12.79325351      13.08991646
Sb       8.61465663      10.44373238      14.19224572
Sb       9.44496440      12.18060808       9.80532061
Sb      10.74278166      16.72858474      14.45752641
Sb       9.60018296      16.55148336      10.09493566
Sb       7.39950250      14.14718629      13.16802051
Sb       6.73953517      13.04709926      10.58013463
Sb       8.38982111      16.78514812      12.70882025
Sb       8.08339863      14.59062364       8.61698736
34
Properties=species:S:1:pos:R:3 config_type=qcd gap_pre_relax_energy=-133.21645830810255 gap_pred_energy=-133.7490527295299 gap_fmax_final=0.0008649587368177656 gap_converged=1 pbc="F F F"
Sb      14.93482114       9.93734484      16.07006361
Sb      11.84775912      12.03871736      17.83511159
Sb      15.72181840       8.78164116      13.49750211
Sb      18.10550532      10.10410765      12.50208809
Sb      14.26832635      12.59024470      19.21162998
Sb       6.27141595      10.49842215       9.58801029
Sb      12.87716080      11.73377406      15.11109903
Sb      17.19041109      11.57216104      16.72365797
Sb      15.83963218      14.02752655      17.29700282
Sb      10.67176063      14.59376315      17.36156485
Sb       5.85065979      11.99366606      11.99919746
Sb      18.42009102      12.38687520      14.23368164
Sb       7.88102878       9.94288766      11.93077369
Sb      14.23064989      10.75863265      12.01651304
Sb      15.24998082       9.45843901       9.67054841
Sb      17.47805558      11.24543882       9.90058689
Sb      10.59665388      15.39958610      20.12303462
Sb       6.64684365      13.34989167       9.57336435
Sb      13.39830430      14.95276073      20.62117062
Sb      14.07729192      14.32506056      15.00200523
Sb      10.05385810      11.83228253      11.92444245
Sb      12.85389841      10.68431840       8.52559716
Sb      11.71866417       9.65006795      11.01594869
Sb      12.25892705      15.30962278      11.86482095
Sb      12.58331551      16.50927133      18.35363141
Sb       9.52381386      13.12339952       9.43821356
Sb      15.95770124      13.94013013      10.36280658
Sb      13.19200776      13.30347114       9.80551133
Sb      16.27862095      13.98185170      13.21165766
Sb      14.55550906      16.64835134      10.85500879
Sb       9.97824057      15.88117430      10.17749825
Sb      13.03968144      14.48609406       7.19706067
Sb      11.19386794      16.65181371       7.68557265
Sb      14.00898530      17.06247200       8.06888553
34
Properties=species:S:1:pos:R:3 config_type=qcd gap_pre_relax_energy=-132.93530380796753 gap_pred_energy=-133.61082654143453 gap_fmax_final=0.0009027051673171433 gap_converged=1 pbc="F F F"
Sb      18.85080093      13.39240373      11.61316261
Sb      18.05375716      10.99158828      13.14184662
Sb      16.72664096      12.50849053      15.24268783
Sb      16.95963141      14.74507243      13.35984208
Sb      17.26089411      12.55756942       9.36544144
Sb      15.31605961       8.50817399      14.42678176
Sb      15.74860089      10.91338124      11.35949794
Sb      15.89053701       8.02298043      11.62541574
Sb      14.30482771      11.17782927      14.30088235
Sb      10.63947755      16.38258985      16.00579139
Sb      15.52483170      14.86152120       9.37140869
Sb      12.49998277       7.81961834      14.78273639
Sb      14.47462376      14.26865749      11.94454738
Sb      12.39371793      10.23927379      16.35416152
Sb       9.48534985      13.86587423      17.04510397
Sb      12.65195236      16.50856359      11.73551856
Sb      13.21045940       7.53173063      10.69475794
Sb      10.92959278      14.93197972      13.45760744
Sb      13.23244708      13.51708107       8.21401767
Sb      12.73967709      11.74272181      10.42374287
Sb      12.97138672       9.52328771       8.59325305
Sb      11.52742687      15.67033785       9.20835205
Sb       8.13576055      17.41603255      15.06158180
Sb       6.98524816      14.92829240      15.96909008
Sb      11.58534106       9.22362095      12.37568254
Sb      10.46215376      12.05661911      14.99701703
Sb       8.54364329      15.94255635      12.21880030
Sb       9.77357319      12.28398685      11.03638816
Sb       8.88155180      14.54182412       9.60415491
Sb      10.27765800       8.51548397       8.24173221
Sb       6.71070384      13.88580336      13.26861083
Sb       8.14941348      11.40087481      13.35642159
Sb       9.23766868       8.21796338      10.90253530
Sb       8.42455070      10.46615773       9.26137014
35
Properties=species:S:1:pos:R:3 config_type=qcd gap_pre_relax_energy=-137.11585208055678 gap_pred_energy=-137.5683419171066 gap_fmax_final=0.0008245223770100306 gap_converged=1 pbc="F F F"
Sb      16.88660312      12.72203289       7.75329009
Sb      17.73118226      14.42894408      13.01456383
Sb      16.94074802      12.09693046      11.47521909
Sb      14.84718504      14.33401991       9.08330776
Sb      14.92719732      12.45037740       5.63115288
Sb      16.99201363      10.51765565      13.90083935
Sb      15.12970397      15.94558685      12.38773328
Sb      15.47348417      10.26200806       7.41597137
Sb      17.03833619      12.97540555      15.42579710
Sb      12.82409941      13.92299661       6.98966189
Sb      14.25287221      13.14392456      11.74146782
Sb      13.61383261      10.66531649       9.67230276
Sb      14.75986252      16.54781599      15.14430284
Sb      12.42357202      16.58198332      10.96370850
Sb      14.28210768      13.66096176      15.18560022
Sb      14.53157301       9.09337634      14.69138686
Sb      11.51144027      11.57073198       7.88405831
Sb      11.03442731      14.15811176      11.78554131
Sb      12.47169347       7.66404570      13.09973796
Sb      12.65538422      10.93588085      15.83726222
Sb      10.81391865      17.96753289      12.88444516
Sb      11.67873822       8.62107461      10.44531686
Sb       9.59843696      12.73003130       9.59850974
Sb      11.90343780      17.15936066      15.41653073
Sb      13.72989581      12.69690826      17.86998680
Sb       8.79945647      15.90819552      12.40008170
Sb      11.07260123      14.39887507      15.17731612
Sb      10.34761836      11.28685848      13.45030505
Sb       9.27440309      10.18777666      10.98650004
Sb      10.06052305       8.59434164      14.48568551
Sb      10.77455754       9.20083688      17.21834642
Sb       9.09980887      11.55202554      17.63612077
Sb      10.99231191      13.74708701      18.00324651
Sb       8.26861258      14.96404462      15.12136332
Sb       8.02014689      12.06873055      14.98512573
35
Properties=species:S:1:pos:R:3 config_type=qcd gap_pre_relax_energy=-137.55385950664933 gap_pred_energy=-138.12165254992598 gap_fmax_final=0.0009537566009967998 gap_converged=1 pbc="F F F"
Sb      17.68324427      11.43464969      11.74511905
Sb      16.81957065      14.11834877      11.11588954
Sb      16.66419334      11.41726915      14.46788356
Sb      16.64159275      13.99460982       8.26151135
Sb      16.42113377      11.11870299       7.80505911
Sb      15.98551588       9.62696163      10.23794465
Sb      15.49472402      14.07224183      14.61237879
Sb      14.15249998      13.87290825      12.05227767
Sb      13.88776424      10.64643087      14.20263415
Sb      13.74837158      11.20514060       6.73246074
Sb      13.14015179      10.00195653      10.91111553
Sb      13.99152745      15.19629325       7.94883339
Sb      13.52550265      16.31080950      10.61484763
Sb      13.20644163      12.78435634      16.16905716
Sb      12.14508703      10.36813221      17.81256383
Sb      12.57700222       9.00442555       8.23154567
Sb      12.74062185      12.78733249       8.90185043
Sb      13.28636811       8.42209224      15.99313063
Sb      10.57397822      16.27761754      10.76518206
Sb      10.30858676      12.69592160       7.41930320
Sb      11.03351861      13.31443169      14.33804660
Sb      11.71421448       7.55357354      11.66021836
Sb       9.78138584       9.86354108       8.03961830
Sb       9.67661656       9.67596611      10.88374907
Sb       8.84415143      14.52310282       9.13439849
Sb       9.91146480      15.99279282      13.56788909
Sb      10.98021979       7.61889125      14.46644607
Sb       9.85460537      10.31342553      14.18793334
Sb       9.28013090      13.39413818      16.59358287
Sb       9.40258474      10.52019700      17.04766778
Sb       8.90840499      12.85786259      11.41578430
Sb       7.38096120      14.89252985      12.80937195
Sb       6.93312782      10.79146876      11.12186857
Sb       6.74986279      13.22385347      15.13303707
Sb       6.97187635      10.52502830      14.01680386
36
Properties=species:S:1:pos:R:3 config_type=qcd gap_pre_relax_energy=-141.00202339223412 gap_pred_energy=-141.77109417639892 gap_fmax_final=0.0009935624510279129 gap_converged=1 pbc="F F F"
Sb      16.75344432      12.05964777       9.69494551
Sb      16.13320531      11.68230034      15.47860696
Sb      16.65154252      10.10386176      13.11573756
Sb      15.73572345      14.81080783       9.94576928
Sb      16.32405719      14.35489253      14.38106641
Sb      15.04639959      11.31915911       7.50338279
Sb      14.63021788      15.92854839      16.09210637
Sb      14.56776794      11.08747724      11.37211237
Sb      13.82362270      16.90400638      13.49558206
Sb      13.29481362      11.50026737      15.97170745
Sb      13.66343858      13.79343730       8.19734153
Sb      14.50747104       8.96064453       9.36623451
Sb      14.22298058      14.25744309      12.41594312
Sb      15.03570747       8.03949049      14.25751754
Sb      14.01148912       6.79082893      11.66878297
Sb      12.55429395      14.14761726      16.94869202
Sb      12.60560430       8.94178592      12.97305415
Sb      11.65859298      13.52929164      10.32142106
Sb      11.43803182       5.96506516      10.22947103
Sb      11.80162536      12.09999778      13.49729761
Sb      10.75782640      10.19548316      10.35318481
Sb      11.78329571       8.27641000       8.53532027
Sb      10.11312441      12.14939177       8.23699840
Sb      10.87323368      16.32239239      10.71149246
Sb      10.54237168       7.62150705      14.47201921
Sb      10.94986536      16.82103719      13.54272078
Sb       8.45845613      13.09669996      11.96680714
Sb       9.29414317       6.63174892      12.05563863
Sb       9.70219594      10.36721391      14.75278603
Sb       8.17893928       8.99697480      10.79454803
Sb       7.48939278      12.39953043       9.36008127
Sb      10.45680129      14.33660553      14.92036117
Sb       8.06231064      16.97344201      10.56155616
Sb       7.39323980      10.63335462      13.06497003
Sb       6.40586091      15.15149673      12.01313215
Sb       6.45090996      15.12213755       9.10360801
36
Properties=species:S:1:pos:R:3 config_type=qcd gap_pre_relax_energy=-139.52463361406078 gap_pred_energy=-140.73376047660346 gap_fmax_final=0.000871135701594239 gap_converged=1 pbc="F F F"
Sb      17.23777702      12.99937739      10.54292702
Sb      12.61856642      10.74870623       6.35665964
Sb      14.44377501      10.92471974       8.60521679
Sb      15.18312791      13.67538640       8.65314714
Sb      16.51105193       9.36877080      12.92599428
Sb      13.96795948       8.26634084      12.04821943
Sb      17.59430302      15.39844751      12.16866313
Sb      10.02554854       9.80369020       7.18236217
Sb      15.43829343      12.04787556      12.60900551
Sb      10.48694261      12.62398664       6.76080969
Sb      17.16286779      13.52037750      14.33587373
Sb      12.79409363      10.78336080      10.97639033
Sb      13.19843196      14.74193364      10.77710595
Sb      15.13844636      16.74378579      11.59773866
Sb      13.34577609       7.78905156      14.88941471
Sb      15.72904666       9.19839478      15.76128705
Sb      10.81441620       9.01160280       9.83796192
Sb      10.37355182      13.06581258       9.65047185
Sb      11.25712706      16.80987382      11.44942284
Sb      15.60069055      13.81431950      16.86310638
Sb      12.65351783      10.63453208      17.88543448
Sb      13.34571292      16.47716629      13.84120377
Sb      14.19392262      11.65008533      15.75083136
Sb       9.56187489      15.77354804       9.13465261
Sb      12.64532606      13.63551553      13.73371540
Sb      10.67958176      10.91428924      13.64515182
Sb       8.98361515       9.05377316      12.10289473
Sb       9.71287202      14.47684432      12.54299214
Sb      11.02739327       9.17316782      15.95192162
Sb       7.46110166      12.59742969       9.66140020
Sb      13.16235711      15.31673261      17.44740999
Sb       7.36632357      15.18402021      10.91315531
Sb      11.48462489      13.20953312      18.49483201
Sb       6.94116377      11.07553322      12.03120662
Sb      10.85622983      14.36777105      15.93517493
Sb       8.30940635      12.43106138      14.24306196
37
Properties=species:S:1:pos:R:3 config_type=qcd gap_pre_relax_energy=-143.48345091222447 gap_pred_energy=-144.3340610113025 gap_fmax_final=0.0007983969647696823 gap_converged=1 pbc="F F F"
Sb      10.55652721      12.53475249      17.59521902
Sb      14.33188871      16.60135243      14.50368835
Sb      13.10914193      18.48642166      12.61998741
Sb      11.74644400      15.62784076      15.54865443
Sb      10.59864252      17.70581779      13.80565883
Sb      16.58395359      15.35654165      10.41841555
Sb      12.10241999      10.93897907      19.45487992
Sb      15.92785576      14.51687245      13.38777995
Sb       8.56261787      10.43415659      17.67195302
Sb      12.89957570      11.15377403      16.66218054
Sb      13.56804124      14.78676169      10.09841351
Sb      17.52376760      14.00692059       7.91533518
Sb      13.02857622      17.62498052       9.87341713
Sb      18.01431005      12.86517535      10.50155144
Sb       9.55299501      15.58223163      12.16146141
Sb      10.95547717      13.49132730      13.66216382
Sb       8.20135186      12.42531576      13.91515870
Sb      13.97965584      12.49713961      12.68083398
Sb      10.80526187      15.84772651       9.58575196
Sb      14.43640200       9.69344543      13.51747753
Sb       8.17969899       9.73070426      14.92003910
Sb      15.42418498      11.57868401      10.21944573
Sb      12.13662986       8.38962495      16.49558995
Sb      10.46620940       8.60400209      18.82639285
Sb       9.30633089      11.66336019      11.32292955
Sb      15.48895764      12.04089820       7.27520790
Sb      11.92299213      11.33053891       9.14230996
Sb      13.06062520      13.51005299       7.50514471
Sb       7.77279063      13.02276164       9.26371992
Sb      11.76683465       9.64665525      12.37674264
Sb      10.37054874       7.97305425      14.25764038
Sb       9.43159461      11.27810649       7.65283662
Sb      14.27474069       7.26291138       9.46691181
Sb       7.54998267      10.18671146       9.52320749
Sb      12.26108821       8.73222419       7.99022305
Sb      11.60690817       7.41772883      10.49420916
Sb      15.94537373       8.90484496      11.13786487
37
Properties=species:S:1:pos:R:3 config_type=qcd gap_pre_relax_energy=-143.6539886215521 gap_pred_energy=-144.92045479295368 gap_fmax_final=0.0009752267340490561 gap_converged=1 pbc="F F F"
Sb      12.99659636      13.09671003      17.58696691
Sb       7.74529343      10.33736873      17.13097742
Sb      10.22024942      12.16184560      16.81216722
Sb      14.76880843      10.80801632      17.74964350
Sb       9.07810910       8.14951897      15.85588638
Sb      15.71241780      14.74876557      15.04664016
Sb       7.03144946      11.95745715      14.93025899
Sb       7.75320612       7.75784397      13.33148940
Sb      15.37387070      16.33359692      12.66209897
Sb      13.68061307       8.64110152      16.22904239
Sb      15.33160781      10.59284659      14.92167677
Sb       9.65223463      13.14637408      14.12376463
Sb      11.28397500       9.95149998      15.21703494
Sb      11.27871387      15.72621686      13.93471638
Sb       6.28234949      10.17614348      12.81943679
Sb      13.45144495      12.89297909      14.74991843
Sb      12.93556828      15.12889200      11.65121574
Sb      16.99416088      13.92015137      12.58283968
Sb      14.53538268       8.57056292       9.73408294
Sb       8.74683554       9.63989415      11.40712349
Sb      14.92561767      12.37119035      11.32376135
Sb      16.79453199      10.62253957      10.03403342
Sb       9.47551838      16.83463083      11.94669282
Sb       8.46850427      14.42029507      10.77837847
Sb      10.61983669      12.88389182       9.44316868
Sb      11.86672224      17.52657890      10.49663651
Sb      14.65084288       8.21686959       6.89432065
Sb      11.51884494       7.62954996       9.74488410
Sb      11.95157317       7.06153109       6.96693251
Sb       9.01527534      14.85980267       8.00575600
Sb      10.71527441       9.53507674       7.83534182
Sb      13.56808619      10.68930895       7.96514499
Sb      15.08644989      14.17738318       9.02242641
Sb      16.25454113      11.93423799       7.55439739
Sb      12.53929280      14.13515544       7.62156593
Sb      11.23045800      16.72123613       7.81186955
Sb      10.94601924      11.12321262      12.55798451
38
Properties=species:S:1:pos:R:3 config_type=qcd gap_pre_relax_energy=-148.53535067212894 gap_pred_energy=-149.30813356735732 gap_fmax_final=0.000971919826559186 gap_converged=1 pbc="F F F"
Sb      11.41588717      17.73333601      18.34008907
Sb      13.20048930      17.59920610      16.02321148
Sb      16.88970730      16.36682985      15.01611366
Sb      10.01810185      16.98774829      13.62646089
Sb      12.48394444      15.53973411      19.90629852
Sb      20.09417924      14.73542772      12.80320669
Sb       9.94584823      14.23629352      19.59435984
Sb      15.47143121      16.62316139      17.49165311
Sb      12.60985893      17.01488565      12.30025137
Sb      19.40407925      15.05714364      15.56718220
Sb      16.15570189      16.60910657      11.07328648
Sb      12.08122444      14.96822844      15.60897564
Sb      13.79282400      13.99263638      17.78823588
Sb       8.93831287      17.49782168      10.94982194
Sb      15.50343821      14.59920381      13.11272848
Sb      11.73356682      11.99842144      18.69314877
Sb      16.99240006      11.76830532      14.29180609
Sb       9.70900102      15.73922705      17.15433929
Sb      11.52965339      18.11384058       9.86451332
Sb       9.13933646      14.79346873      11.96083330
Sb      13.19920139      11.79832245      14.52553703
Sb      19.80385947      12.42817517      14.48892998
Sb      11.93760272      14.04964076      11.55263868
Sb      12.09103477      15.31042276       8.97251751
Sb      14.90794718      15.78670183       8.61026304
Sb      10.80751241      11.09799942      16.09595184
Sb      16.97274502      10.36365096      11.76403052
Sb      17.68330852      14.15927463      11.23976315
Sb      14.66064913      10.80529677      16.82694497
Sb      16.75118262       9.16356972      15.63186401
Sb      12.38793127       9.26199126      17.63012612
Sb      10.93500184      11.76142331       9.91584987
Sb      15.50534512       8.28052988      13.18108004
Sb      12.39957634      12.61007923       7.58769788
Sb      14.60492897      11.93735259      11.16115369
Sb      12.76530775       9.18977074      13.29221829
Sb      15.13126559      12.90891284       8.50171975
Sb      12.93832019       9.70456580      10.44690397
38
Properties=species:S:1:pos:R:3 config_type=qcd gap_pre_relax_energy=-148.57558261693381 gap_pred_energy=-149.3517591852328 gap_fmax_final=0.0008312833364266284 gap_converged=1 pbc="F F F"
Sb      18.15144368      14.29407115       9.66208418
Sb      12.66096232      20.33338282      13.97949549
Sb      14.58054315      18.87556842      10.01078415
Sb      17.39386455      15.91971540      11.94159673
Sb      13.72193998      16.20974926      10.61931056
Sb      15.17673990      19.82278032      12.68790291
Sb      18.83409542      15.04991975      14.30907571
Sb      19.98728976      12.59914573      13.39660997
Sb      15.97268035      13.48571176      11.38719583
Sb      14.21388348      19.64056404      16.32351429
Sb      18.37713977      11.85223349      11.15437562
Sb      18.04929012      11.14939989      14.98478673
Sb      11.24316774      17.81112962      14.45165689
Sb      11.77410189      18.34223198      10.43795886
Sb      13.40293972      15.94918815      14.28977652
Sb      15.69486214      17.72494470      14.60811405
Sb      11.78376995      12.71089118      10.98222196
Sb      16.56558492      13.57616589      15.51175797
Sb      18.41206444      12.55990126      17.47092159
Sb      15.14116913       7.50709029      11.48065616
Sb      11.49284972      16.02595092       8.74645902
Sb      14.91279941       9.96051617      12.96625441
Sb      13.16275618      15.41830235      17.17317850
Sb      16.55540533      10.69831330      18.80081458
Sb      14.51242361      11.12907771      16.82676093
Sb      12.40049190      12.80668822      13.81283848
Sb       9.93595707      14.90925516      10.98707402
Sb      13.55265439       7.59541277      13.83670729
Sb       8.97343292      12.15599647      11.01240404
Sb      12.66560482       8.95434352      11.49090422
Sb      11.95751271      18.03008431      17.25428781
Sb       9.98496121      14.36363329      14.42650515
Sb      14.38607997      12.51119610      19.34924322
Sb      10.91162539      10.48121561      14.74662730
Sb       8.54250169      11.87601962      13.91949581
Sb      12.60528442      10.31251110      18.86328050
Sb      10.49217631      14.41298025      17.26949091
Sb      10.38229371      11.50906121      17.39222079
39
Properties=species:S:1:pos:R:3 config_type=qcd gap_pre_relax_energy=-153.43229561420705 gap_pred_energy=-154.02764056492217 gap_fmax_final=0.0009503231466633785 gap_converged=1 pbc="F F F"
Sb      10.35129889      13.57098249       6.76123783
Sb      12.71082536      10.44692397       6.38302786
Sb      10.98706695      11.39507017       8.50322190
Sb      14.65494000      12.43665754       7.21174116
Sb      12.96107826      14.82071717       6.96076003
Sb       8.55995410      14.94244361       8.61370881
Sb       6.88063405      11.41392308       9.01633714
Sb       8.77851966       9.98488625       7.36590631
Sb      10.19175065      16.96830954       9.82508388
Sb      12.95167075      16.11742895       9.54502076
Sb      14.22589598      11.08529680       9.77802035
Sb       9.40557568       7.46288480       8.63493878
Sb      16.87407190      11.71475377      10.71806903
Sb      14.28169827       8.69186525       8.09553827
Sb       8.88090945      13.03192079      10.85087490
Sb       5.66666082       9.38440672      10.58414074
Sb      13.03379378      13.91166609      11.42460525
Sb      12.24510588       7.11540891       9.41405742
Sb       9.45775756      15.74433408      12.30888533
Sb       7.83912195       7.59230142      11.11128053
Sb       9.13628907       9.68636272      12.59013530
Sb       6.51458126      13.24559332      12.56045165
Sb      16.31162179      10.66029272      13.34429426
Sb      12.29456009       8.89499539      11.70477203
Sb      15.01471782       8.08286879      12.17831420
Sb      13.53660458      11.39769113      13.56666793
Sb      15.90743870      14.31018752      11.61311791
Sb      11.73519321       6.76048003      13.65531900
Sb       6.47267905      10.44105071      13.36942833
Sb      12.14863863      15.87008358      13.31327301
Sb       9.57770419       8.09830200      15.02131681
Sb      16.72746171      13.54828790      14.25740762
Sb      14.26933536       7.27539116      14.88454719
Sb       7.64268942      12.70962862      15.13803215
Sb      10.35443499      12.24749353      14.38053171
Sb      11.54839577      14.43631270      15.75163493
Sb      14.26052951      13.11976801      15.78858708
Sb      13.63221129       9.93646327      16.07997084
Sb      10.78694201      10.25692395      16.50610020
39
Properties=species:S:1:pos:R:3 config_type=qcd gap_pre_relax_energy=-151.6608822090586 gap_pred_energy=-153.0360781167967 gap_fmax_final=0.0009179508747000663 gap_converged=1 pbc="F F F"
Sb      10.63109959      10.92991728       7.41947745
Sb      10.89294236      13.53973534       6.26771825
Sb       8.25375606      10.84726119       5.87122021
Sb       7.26329321       8.26888905       6.69114098
Sb      11.47267953       6.09629757       6.92238163
Sb       7.02334444      12.75079786       8.08457246
Sb       8.91287436      14.96542517       7.76552006
Sb       9.62731943       4.74798759       8.62253340
Sb      16.48901088      12.14721757       9.19441966
Sb      13.46504664      14.26150692       7.42730863
Sb      10.28020791      14.40693671      10.42255513
Sb       6.91389854       8.98695467       9.61762149
Sb      17.17135559       9.80359541      10.72913252
Sb       8.66900134      11.22437440       9.92073617
Sb      12.36037823      16.22272654       9.23354128
Sb      12.21377370       5.51504478       9.64438871
Sb      17.87400268      12.43445340      11.69329787
Sb      13.68820228      12.67871285       9.83107513
Sb       5.46901778      14.27851044      10.17432530
Sb       9.48207695       7.64200714       8.46478823
Sb       6.55755896      12.14569249      11.82894877
Sb      14.79261737      10.04499264      12.34736720
Sb      11.47506183       7.90195466      11.13746736
Sb      15.68808686      12.83761506      13.51804585
Sb       7.75825006      14.91162851      11.90502485
Sb       7.19766389       7.99775206      12.46362264
Sb      13.82502693       7.23752245      12.67673348
Sb      14.00201464      15.11207682      11.43090862
Sb      11.74815876      11.53659156      13.42905206
Sb      15.76558044      10.35482675      15.03637700
Sb       9.10844760       9.95784873      13.52763841
Sb       9.53568494       6.29756468      12.54985736
Sb       7.17238078      11.66593233      14.77512042
Sb      12.76091768       7.66709681      15.35401539
Sb      11.49272776      15.74907985      12.75866003
Sb      11.21170005      13.88648968      14.96436347
Sb      12.97727793      10.51630453      15.81421587
Sb       9.86439428       7.61473157      15.10139318
Sb       8.37737140      14.28015059      14.84763709
39
Properties=species:S:1:pos:R:3 config_type=qcd gap_pre_relax_energy=-151.73697370178635 gap_pred_energy=-152.61069657360733 gap_fmax_final=0.0009402435785666258 gap_converged=1 pbc="F F F"
Sb      13.20996113      10.23305948       6.93751471
Sb      10.86624973      11.79832846       7.75956547
Sb      13.02364910      16.10666826       7.72025576
Sb      15.07153671      14.22936456       7.10635069
Sb      10.87564209      14.50260488       6.67051319
Sb      13.97787873      12.24217326       8.91215181
Sb       7.86194609      12.15047458       7.51455440
Sb       7.33892561      10.96185481      10.09376758
Sb      13.01685375       8.93521577       9.50670360
Sb      14.71773553      14.44432278      11.21942969
Sb      12.20821295      15.57830249      10.62183804
Sb      11.01199465       6.91219020       8.89693511
Sb       9.11222949      13.03202666      10.99312870
Sb      16.69470132      15.29283794       9.24216046
Sb      16.43932685      10.77439229       9.44085043
Sb       8.67333858      14.73801475       8.52194855
Sb      18.23131927      12.99553368      10.11844219
Sb      13.41072409      11.84656709      12.46905843
Sb      10.04591642       9.49259113       9.90961996
Sb       9.61758621       7.00772223      11.45310835
Sb       7.11301264      14.04175003      12.83856744
Sb       8.86681982      15.78068187      14.34825972
Sb       7.82418711      13.36624425      15.54227407
Sb      15.81846327      10.19231032      12.23113209
Sb      12.54046559      16.93843421      13.24086032
Sb      17.72527105      12.26964185      12.94001055
Sb      15.35969299      16.26527359      13.32473438
Sb      11.68678271       8.04053523      13.14692734
Sb       7.29445797       6.04575566      14.29347615
Sb      10.63352967      10.75386046      12.92463535
Sb      11.22753771      14.37120783      13.49098441
Sb      10.13861389      11.60325175      15.69763218
Sb      14.24491136      12.03511061      15.20911181
Sb       9.52123148       4.99974859      15.78295963
Sb       8.03510844       8.48823609      15.69864029
Sb      16.29988357      13.99270767      14.84431284
Sb       7.22815430       6.09403527      17.14602581
Sb      10.77788889       7.63152266      15.86324771
Sb      12.11394605      13.67113359      16.18399762
40
Properties=species:S:1:pos:R:3 config_type=qcd gap_pre_relax_energy=-155.64420127658101 gap_pred_energy=-156.50830859735285 gap_fmax_final=0.0009108245743603889 gap_converged=1 pbc="F F F"
Sb       9.51763326      10.56608275       6.51542064
Sb       8.09410733       8.21738469       7.43039755
Sb      11.65485391       8.78176871       7.25456955
Sb       9.57912609      11.65510156       9.21856668
Sb      13.67125144      10.82436849       7.51435115
Sb      15.15155359      15.46611685       9.13174245
Sb      12.69141340      14.39147348       8.17720637
Sb      15.70794561       9.20053498       8.67258494
Sb       9.80691538       8.66565289       9.78478470
Sb      15.94502020      11.77141319      10.07958575
Sb       5.75664881       9.28957439       8.70739581
Sb      14.71013863      14.91853236      12.02305041
Sb       6.72037842      11.84528997       9.63502103
Sb       7.02735275       8.04949802      11.04502677
Sb      14.58133132      18.27132614       9.06137924
Sb      13.06314892      12.16701018       9.98552989
Sb      11.79038044      18.30909708       9.81274124
Sb      11.95100749      15.94779104      12.40994020
Sb      11.81222097       6.38126645      10.62420773
Sb      14.51059218       7.49133982      10.67740534
Sb       9.25791842      10.71189349      13.31225963
Sb      10.70498833      15.65069646       9.79690439
Sb      15.04566909      19.09050510      11.83994422
Sb       6.54493793      10.59177833      12.27885867
Sb      16.27863516      16.98225286      13.14047330
Sb      12.24266489      18.81755259      12.59812336
Sb       8.95565885       7.90854768      13.92468289
Sb      16.25640767      10.66174763      12.74934381
Sb      11.36182571       6.33326649      13.50373315
Sb      13.65117901       9.57883843      12.45188204
Sb      12.29993209      12.45421499      13.72208434
Sb      15.02244085      12.85795461      14.43933593
Sb       9.70502901       8.61969264      16.67189591
Sb      11.77003293      14.42206160      15.78456755
Sb       8.34998060      11.08932512      16.02796592
Sb      13.55844710       7.82096955      14.69857031
Sb      10.15417129      12.79823966      17.59000557
Sb      11.98558776      10.06350747      15.63969470
Sb      14.02970382      13.51672218      17.27449941
Sb      12.49631820      11.23415897      18.20881632
40
Properties=species:S:1:pos:R:3 config_type=qcd gap_pre_relax_energy=-156.2293347444265 gap_pred_energy=-157.1260494780672 gap_fmax_final=0.0009571734277480794 gap_converged=1 pbc="F F F"
Sb      10.37187471       9.77889039       5.37831833
Sb      14.53966936       9.83392871       6.69256187
Sb      12.75177924      11.45944253       5.09576195
Sb      12.18763400      12.68921310       7.61411203
Sb      10.54064342       6.35574305       8.83997367
Sb       9.69442314      14.12909882       7.34499374
Sb       8.47633744      11.55746727       6.70157760
Sb      13.91031210      14.91012161       6.89394499
Sb       8.23807295       7.93361344       8.14793148
Sb      11.87065669       8.76309132       7.61105258
Sb      14.82009846      11.41320583       9.19559839
Sb      12.92361249      13.49325373      10.99128995
Sb      16.14191573      13.89052599       8.40538965
Sb       6.72373836      13.09138737      10.34108315
Sb      10.68822162       7.71471200      11.37395243
Sb       8.25451969       6.49680437      12.32228208
Sb      14.29889154      15.73958507       9.62572576
Sb       9.29051795      16.61487902      10.43591572
Sb       9.62810432      10.29800936       9.00588455
Sb       9.53075335      13.74760837      10.20469096
Sb       6.43900791       7.77509558      10.48912441
Sb       7.29847840      10.42403880      11.41642027
Sb      16.15472372      10.54508031      11.73930692
Sb       7.87812526      16.67885000      12.94389136
Sb      15.14260412      13.03183136      12.79469278
Sb      10.74613147      16.71548827      12.94320178
Sb      13.75976306       9.10664166      12.35301349
Sb       9.97470583      10.66686356      13.16096494
Sb      11.85108104       5.55349292      12.85209625
Sb       6.60164223      14.06682372      13.01844566
Sb      11.13701755      13.85987672      13.35522582
Sb      14.62894056       6.39622314      12.67153988
Sb      13.33496262      13.06323548      15.11651538
Sb       8.52113190       8.46931408      14.43024666
Sb       6.04253992      10.19771033      13.99239137
Sb      10.77411731       6.50078365      15.34800515
Sb      11.57189798      10.83704613      15.71006191
Sb       8.01344011      12.17390202      14.72717732
Sb      15.05728113       8.29646511      14.77977935
Sb      12.74154544       8.28156989      16.48677253
40
Properties=species:S:1:pos:R:3 config_type=qcd gap_pre_relax_energy=-156.25028911051228 gap_pred_energy=-157.07078625393203 gap_fmax_final=0.0009618204923208472 gap_converged=1 pbc="F F F"
Sb      14.55661437      18.27119729      11.76225216
Sb      17.42515600      17.11892914      13.51350051
Sb      12.42186070      17.02878465      10.23123217
Sb      17.05680617      17.35990669      10.62557140
Sb      14.93197509      17.27795938      16.21410076
Sb       9.54515465      17.04595586      14.49185735
Sb      11.48925605      15.80350999      12.68904159
Sb      14.73209389      16.05326686      13.62384053
Sb      16.28142143      14.82580460       9.44372150
Sb      11.97121984      14.29134283       7.72166235
Sb      10.21207207      16.37042619      17.25523739
Sb      18.52457691      14.65847091      14.55395349
Sb      17.66982750      12.75202379      10.89778707
Sb      12.99302685      15.80679482      17.84400846
Sb      17.19315866      15.59332948      16.95047796
Sb       9.14591977      13.67834683      17.73567294
Sb      13.36006812      13.35849512      16.45403309
Sb      13.49855113      14.31553166      10.16426030
Sb       9.79927529      13.20295621      14.98407399
Sb      16.49989851      12.73436994      13.58991657
Sb      15.83099165      13.23506255      17.97201355
Sb       7.81584056      14.83051522      13.71263144
Sb      15.23050437      11.38152152       9.99749344
Sb       9.69829888      13.77250177      11.68562302
Sb       9.29775522      13.87486491       8.76705619
Sb      11.54428304      10.97352738      11.27593383
Sb      17.30307338      11.47992479      16.24870982
Sb      11.59281301      11.52949951       6.89523672
Sb      11.45382983      12.02661566      18.17920437
Sb      13.56159379      10.54694509      14.41655500
Sb       8.37976834      10.77243681      14.76023089
Sb      15.63389624       8.63791928      10.64823579
Sb      10.13371108       9.76683086      16.84702470
Sb      15.37706288       9.32705937      16.29499037
Sb      13.87162595       9.99120073       7.71976966
Sb       9.94547468       9.14170984      12.82323447
Sb       9.71130972      10.98335837       9.02602945
Sb      16.08484391       9.60557356      13.41586314
Sb      12.78276937       8.64585315      10.04075298
Sb      11.85279894       8.33985521      14.93738744
41
Properties=species:S:1:pos:R:3 config_type=qcd gap_pre_relax_energy=-161.22684267607994 gap_pred_energy=-162.16398418908258 gap_fmax_final=0.0008570953626681338 gap_converged=1 pbc="F F F"
Sb      11.59151813      12.68482276       8.17068830
Sb      13.79291463       9.66772195       5.96221093
Sb      10.93463860       9.41860742       5.50688739
Sb      10.27443528      12.22096201       5.62210287
Sb      14.00332509      12.48982198       6.53190277
Sb       7.61370153      12.31076672       6.64214697
Sb      10.65501857      15.35299873       8.15675962
Sb      13.97903081       8.52266656       8.60628044
Sb       8.13340846      14.21669658       9.03491056
Sb       9.02887675      11.92874959      10.60400464
Sb      15.90573285      12.61525807       8.71332959
Sb      16.33096979       9.85107844       9.51584843
Sb      12.03996007      10.03659489      10.16589046
Sb       9.55227577       6.34624159      10.19094358
Sb       7.67789754      10.22842881       8.61061079
Sb      10.11759013       8.63917983       8.35273608
Sb      12.30990975      15.51529867      10.76102448
Sb      11.47381974       7.73090736      11.88637450
Sb      15.99232110      14.66063346      12.18629370
Sb       7.50594531      16.07828334      11.41069023
Sb       6.79717701      11.65751966      12.48748058
Sb      13.83641029      16.16989136      13.32569437
Sb       9.09707526      11.52618606      14.24965742
Sb      14.78037760      10.04414988      12.06071401
Sb       9.89676834      14.71401791      12.13250769
Sb      14.33663198       7.85873907      13.99229988
Sb      13.96759044      13.02669074      10.88562024
Sb       8.69777622       8.51963977      11.85564608
Sb       6.22927913      14.38009664      13.35517207
Sb      17.05931030      10.78030481      13.76576629
Sb      16.70607251      13.44993496      14.74324374
Sb      12.24779665       9.82155081      14.41136163
Sb      12.53286463      13.79551209      14.12585167
Sb       8.10550363      13.86728752      15.57269793
Sb      10.36026415      15.58257019      14.86926418
Sb      10.53419803       8.16058158      16.11067364
Sb      14.33964539      13.51945454      16.40054736
Sb       8.25206260       7.42949257      14.55028129
Sb       8.11824215       9.76020016      16.26331333
Sb      16.04148538       9.27104512      15.95818123
Sb      13.73304261      10.73228002      16.83525328
41
Properties=species:S:1:pos:R:3 config_type=qcd gap_pre_relax_energy=-160.00121695680602 gap_pred_energy=-160.67929672446073 gap_fmax_final=0.0009121643756829617 gap_converged=1 pbc="F F F"
Sb       7.72362120      11.51083692       6.02163214
Sb      13.37786528      13.52815917       5.78712695
Sb      13.22571514       9.35486722       6.30867784
Sb       8.95212797      14.13306354       6.27201727
Sb      14.98429276      11.49051101       7.06474737
Sb       8.20619146      15.22550132       8.78687050
Sb       6.18139243      11.09823732       8.39096815
Sb       8.85748491       7.69207082       7.17778248
Sb      10.28780957      10.18021205       6.91036370
Sb      13.91062266      12.13273936       9.70667882
Sb      14.54223320      15.70011502       7.09793828
Sb      13.51748341       7.36371159       8.36202414
Sb       7.77504078      12.71051481      10.18139602
Sb      11.17158262      15.73583129       9.45941651
Sb       7.85684875       8.99674472       9.57193266
Sb      16.35459002       9.12578658      11.36004102
Sb      11.24386639      13.33584768       7.83541502
Sb      14.16399962      14.99479237       9.81629723
Sb      10.82031933       6.41817735       8.89214922
Sb      10.04945592      10.89641620       9.74357817
Sb      16.02327328      11.97316237      11.69585747
Sb      14.13915055       6.44610086      12.41142889
Sb      13.53827458       8.83144050      10.87419589
Sb       6.05458413      11.96304437      13.00726977
Sb       9.84128889       6.68177072      11.65834412
Sb      10.87240922      14.04753211      11.85340806
Sb       7.03913181       9.26691476      13.01357839
Sb      15.93878643       8.02451330      14.02160840
Sb      11.68591747       5.67251074      13.69181662
Sb       9.92743826       9.39682136      12.81593578
Sb      13.22087235      14.51634098      13.49425733
Sb      13.43847037      11.66280176      13.02765449
Sb       9.42480278      15.44658917      13.93955997
Sb      14.67697906      10.27780809      15.29980885
Sb       7.15790278      13.91245776      14.90641811
Sb      10.54068798       7.87826885      15.16898612
Sb      11.36925557      14.32194316      15.75767988
Sb       6.12027869      10.35714879      15.51282920
Sb      10.71052361      11.55989820      15.16241320
Sb       8.27525399      11.93885464      16.67102933
Sb      12.23476051       9.63252688      16.70145235
41
Properties=species:S:1:pos:R:3 config_type=qcd gap_pre_relax_energy=-160.53296175394163 gap_pred_energy=-161.24869588305384 gap_fmax_final=0.0008428774730487855 gap_converged=1 pbc="F F F"
Sb      13.51986836      12.33037293       5.48008186
Sb      14.40258234      14.77159257       6.75559428
Sb      10.75558425       9.54678172       6.21220904
Sb       8.15275211      13.18708069       7.58757401
Sb      11.62106867      14.43534004       6.00239750
Sb       8.27838055      10.27172698       7.54418373
Sb      15.53645288       9.90314988       8.30680646
Sb      11.57163775       7.22673916       7.73440243
Sb      12.68699458      10.93060240       7.93133835
Sb      15.07847562       7.77845050      10.16603778
Sb      14.18105899      13.62757845       9.40575825
Sb      16.55929467      12.08857022       9.92699920
Sb      10.83950826      13.64231953       8.73863814
Sb       6.34629204      10.51208558      10.70283332
Sb      12.16951145       8.41266464      10.27832139
Sb       9.54055373       5.66815224       9.06818806
Sb       9.59178943      14.08471465      11.89864368
Sb      11.64563744      16.49226649       9.41637204
Sb       6.15552681      13.20562717       9.74189024
Sb       9.20329275      10.14930365      10.26954482
Sb       6.80454612      14.49975137      12.26863439
Sb      10.90442760       6.17793245      11.60593826
Sb       9.78940867      16.98922384      11.55123260
Sb      12.30292484       8.56958048      14.00982663
Sb      15.87330913      11.63026055      12.71442424
Sb      14.11640246      16.08210026      10.83661489
Sb       6.52898965      11.78251682      13.39723427
Sb      16.43034540       8.80608986      12.47410119
Sb       8.40869476       7.45992738      10.99547371
Sb       9.39203857      11.12469597      13.53432734
Sb      13.46003510      14.87500063      13.38528298
Sb      10.76311374      15.70994961      13.95870747
Sb      13.03052720      11.95982487      13.12227005
Sb      14.04836338       9.00286322      16.35371870
Sb       6.99058333      11.06063510      16.36908408
Sb      14.82259952       7.19457142      14.20368679
Sb       8.22698090       8.88840712      14.94106578
Sb      13.68186018      11.87729402      15.93902812
Sb       9.21751880      12.81704607      15.91453758
Sb      10.75288234       8.54698200      16.47157758
Sb      11.18745483      11.24949662      17.35468791
42
Properties=species:S:1:pos:R:3 config_type=qcd gap_pre_relax_energy=-164.3479371420121 gap_pred_energy=-165.55014439249905 gap_fmax_final=0.0007488629566125023 gap_converged=1 pbc="F F F"
Sb      12.24468797      10.30510540       7.17544823
Sb      13.82162580      12.00530884       5.50554696
Sb      12.25150374      14.09655260       7.16917556
Sb       9.38007519      12.96779358       6.91380426
Sb      11.03405695      16.36190110       8.75789109
Sb       8.40322248      15.52042111       7.91601685
Sb      15.50768875      12.43017258       7.83947540
Sb      15.05496842      15.28287017       7.75560692
Sb      14.46045974       8.57540331       7.82539675
Sb       7.34232409       9.09693477       9.64861172
Sb      12.97987919      12.37633271       9.44905167
Sb       9.00039700       6.92399376      10.71966686
Sb      12.45406806       6.58350506       8.49130454
Sb       6.69011041      12.65414853       9.97324041
Sb       9.21122079      11.41433147       9.42694778
Sb       6.44123578      10.54792880      12.00569007
Sb      17.12420882      10.88232160      10.82953924
Sb      10.50675988      14.36279940      10.76355851
Sb      11.40260054       8.43037351      10.37898371
Sb      14.56659897       9.66273467      10.55749894
Sb      14.23573997      14.89353918      10.49814017
Sb      12.74727736       6.14201675      11.49382609
Sb       7.76427622      15.20982109      10.84222205
Sb      15.20221439      12.59021070      14.03360584
Sb      11.81317986      15.60213988      13.04542905
Sb       8.89869271       7.52268976      13.56239536
Sb      16.57666639      13.59842302      11.68877133
Sb      15.42142892       7.15492351      11.65515305
Sb      11.64591620       6.88229757      14.29046252
Sb      11.24312220      13.13173180      14.82951044
Sb       9.05918522      10.39122369      13.16261468
Sb      12.92847973      11.14797278      12.94350615
Sb      15.63212539       8.11824515      14.33428880
Sb       8.56064816      13.69908761      13.76317460
Sb       9.36833281      16.39672484      14.40720591
Sb      17.18639835      10.51795508      13.73999164
Sb      10.76909282      15.39201961      16.73579706
Sb      13.05379561       9.26087622      15.07144905
Sb       6.98256389      13.08595990      16.10626037
Sb       7.87335954      10.33526357      15.80497272
Sb      10.35478756      11.14821567      17.00704602
Sb       9.02732307      13.52002858      18.10402057
42
Properties=species:S:1:pos:R:3 config_type=qcd gap_pre_relax_energy=-163.98422006353164 gap_pred_energy=-164.818458280743 gap_fmax_final=0.000992207293218622 gap_converged=1 pbc="F F F"
Sb      11.40690387      14.12381428       5.45210541
Sb       9.87926153       9.62256649       5.40025684
Sb      12.08420348       7.82975076       6.27907525
Sb       7.21714138       9.09197294       6.53131938
Sb      12.53249334      15.56792400       7.67178925
Sb      14.02880155      13.37604884       8.80427189
Sb      11.34339916       6.16395834       8.49930805
Sb      13.95522177       9.56810011       7.61506939
Sb       8.62761478      13.69370478       6.10348601
Sb       6.44691849      11.26000848       8.34973651
Sb       8.01759678       6.78694863       8.02234535
Sb      10.47029187      15.88558870       9.67224791
Sb       9.94067383       8.50180712       9.49952458
Sb       8.10540904      14.47281829       8.88565504
Sb      15.27731362       8.15227218       9.77385052
Sb      10.63972304      11.83509091       7.05311582
Sb      13.67641050       5.82406922      10.22983114
Sb       8.87086432      11.75855827       9.83977605
Sb      12.54277632      11.02813584       9.80698720
Sb      16.10919248      14.21221761      10.56319815
Sb       6.58332018      10.42915278      11.13660659
Sb       9.56854902       5.17798448      11.98183718
Sb      11.29274607      13.77453533      11.60515433
Sb       8.64151821      14.62994879      12.60993850
Sb      12.36086593      16.17547119      12.84860315
Sb       7.72450700       7.21405323      10.86610214
Sb      15.21025056      15.72174399      12.90651624
Sb       6.61262332      12.57662736      13.18031166
Sb      14.25469434       9.90098846      11.90003657
Sb      16.45683268      11.81168730      12.15129533
Sb      11.84682131       6.93209937      12.28243500
Sb      10.42088621       9.76545523      12.82448600
Sb      15.43335925      13.29962559      14.45798871
Sb       9.31131230       5.88494542      14.81506322
Sb      12.03535171      15.15557479      15.53402677
Sb       9.11953013      14.80722805      15.45158074
Sb       8.17910134       8.49968182      14.22522165
Sb       9.01667310      11.99221079      14.65546194
Sb      12.08111547       6.57745346      15.18731707
Sb      11.77438885       9.53474493      15.35375597
Sb      12.67696911      12.63514406      14.33842714
Sb       9.20525049       9.72716548      16.61376206
42
Properties=species:S:1:pos:R:3 config_type=qcd gap_pre_relax_energy=-163.43102889263943 gap_pred_energy=-164.47630987440013 gap_fmax_final=0.0009494335638840378 gap_converged=1 pbc="F F F"
Sb      10.75021538      13.83618854       5.21082173
Sb      13.89672101      10.25170965       6.23238746
Sb      11.34433905      11.00976132       5.18408209
Sb      12.06065674      15.36467670       7.25192966
Sb      14.13925262      11.61535718       8.70197717
Sb      14.64842286      14.26820522       7.70512345
Sb       7.52483275       8.87176234       6.37198218
Sb       5.82789837       9.28911128       8.67305379
Sb       8.42214860      12.82978806       7.02968268
Sb       8.35694912       6.31521461       7.45954407
Sb      13.95244140       7.72595013       7.83435447
Sb      15.33601532      15.45803246      10.28418402
Sb       6.90682804      12.64657531       9.73839451
Sb       9.87169461      10.37443378       7.55564483
Sb      11.47023572      11.61547505       9.85223297
Sb      10.04566726      14.09453869       9.09736384
Sb       5.80352911       6.41270862       8.79233039
Sb       7.93092328       9.95964951      10.54875965
Sb      14.78087074      13.02466969      11.77852426
Sb      11.97664268       5.75220933       8.79652671
Sb       9.90384086       7.63370368       9.56215637
Sb      12.67952640      15.00164279      11.41167290
Sb       9.03012065       6.30267597      11.97717399
Sb       8.15555989      14.64723997      11.35462310
Sb      10.17583725      13.27690502      12.86054517
Sb      11.99198644       8.83555906      11.66271526
Sb       7.08429131       8.29538452      12.78116486
Sb       6.23466286       5.80607835      11.56982423
Sb      14.60347183       8.55770834      10.46792207
Sb      16.12556018      13.63777561      14.35001408
Sb      13.19551720       6.17170871      11.40463470
Sb       9.96765927      15.38245293      14.80945185
Sb      12.56351166      16.45153550      13.97870943
Sb      15.57945171      10.99650417      15.41233469
Sb      12.76377158      10.91534642      14.27352501
Sb       9.65532335      10.69622423      14.11054070
Sb      13.36883615      13.89503891      14.97346682
Sb      12.18851466       9.91866504      16.89751874
Sb      10.47185724      14.06306915      17.37363556
Sb      14.34984904      11.45949542      18.02101501
Sb       9.67584930      11.33739907      16.97962043
Sb      13.33085571      14.14400889      17.81097431
43
Properties=species:S:1:pos:R:3 config_type=qcd gap_pre_relax_energy=-167.81345191131388 gap_pred_energy=-169.10786061785277 gap_fmax_final=0.0009659137583367922 gap_converged=1 pbc="F F F"
Sb      15.12166409       9.57183312       6.17456869
Sb      12.60937815      14.84483525       5.76802644
Sb      10.68818157       8.62042014       6.31595206
Sb      13.09478057       8.57562975       7.92627384
Sb       9.10119521      12.75458837       5.96953266
Sb      13.23544655      11.97068860       6.49002263
Sb       9.96389364      15.22146427       7.20371449
Sb       6.57893912      12.60936269       7.34539497
Sb      13.58123702       5.83258530       8.14555332
Sb      16.79930981      10.39171798       8.38499272
Sb       9.32883134       7.24042579       8.50412836
Sb      13.91304192      15.59396515       8.20112375
Sb       6.66356085       9.89949552       8.40229095
Sb       8.21356011      16.00210746       9.69201226
Sb      15.05189179      12.81515049       8.69988748
Sb      11.65197293      14.17456583       9.31622052
Sb      11.45487958       5.77903035       9.93593438
Sb      12.13313696       7.96142213      11.79073696
Sb       8.94284189       9.64938494      10.18982591
Sb       7.92003099      13.21316546       9.85460453
Sb      10.76899605      11.13758715       7.71456008
Sb       4.83319491      10.41826395      10.58260655
Sb       9.76650622       7.26376864      13.30597921
Sb       9.87816114      12.68476779      12.19085007
Sb      10.36338809      15.50545142      11.57535920
Sb      14.99594855       9.63475702      10.55967798
Sb      12.32848486       6.00627926      13.91123876
Sb      13.88244681      12.25580418      11.31120729
Sb       5.50251655      13.09312065      11.39161450
Sb      16.05383777      11.03622311      12.85468430
Sb       6.76782691       8.71823321      11.91540724
Sb       9.93017773       9.87987069      14.43892795
Sb       7.35330451      12.81634379      13.60084624
Sb      14.68460088      14.14862609      16.11875916
Sb      12.41472335      14.01125637      14.31505450
Sb      12.16402991      15.29356703      16.90580970
Sb      13.59052995      10.17095801      14.10084364
Sb      13.35713503       7.81725716      15.92313030
Sb      10.37333207      13.13003909      16.16031355
Sb       7.07623601      10.07260079      14.46144699
Sb      10.82293080       8.75781076      16.96510583
Sb      14.42746389      11.33217536      16.68882067
Sb      11.85298245      11.32992840      17.93348794
43
Properties=species:S:1:pos:R:3 config_type=qcd gap_pre_relax_energy=-167.43975831579266 gap_pred_energy=-168.5762511082614 gap_fmax_final=0.0009527189707551774 gap_converged=1 pbc="F F F"
Sb      17.43200387      18.84705124       8.92556595
Sb      15.31955512      19.75287227      10.66050999
Sb      14.75305746      17.59168243      12.44745065
Sb      17.98121589      16.14290975       9.69853997
Sb      16.62230158      15.43688734      12.12472951
Sb      15.72949522      16.68650696       8.01775575
Sb      13.59208305      17.56406780       9.82654861
Sb      13.62024115      14.39445777      14.96858999
Sb      13.74475942      11.41186414       7.92107746
Sb      14.89253698      13.58761299      10.72027199
Sb      11.16885740      14.13685914       9.10498037
Sb      11.72670965      11.41937875       9.92788627
Sb      16.58735007      11.38801906      11.35189136
Sb      14.78856403      12.07102435      16.21655647
Sb      10.03463437      13.25418360       6.55893034
Sb      10.83770130      15.14015519      15.40497527
Sb      11.54700117      10.79474562       6.04908151
Sb      11.14448441      15.46650783      12.51995116
Sb      15.35781648       9.45288759       9.49349880
Sb       8.90191531      14.76691787      10.81283295
Sb      12.77601439      13.08811970      12.54268937
Sb       7.73187797       5.51052547      12.78097319
Sb       6.90304069       7.45696040      14.74754900
Sb       9.24437460       9.19306828      14.61553878
Sb      10.58917009       5.12781853      13.19479162
Sb      10.69161210       6.77095615      15.57819822
Sb       7.55992430       7.63874623      10.80366012
Sb       5.80252101       9.06322650      12.59278368
Sb      10.02224445      10.56967782      17.18093622
Sb      11.60278831       6.53883800      10.84265906
Sb      10.03228331       8.86862752      11.58611366
Sb       6.68091258      11.60494566       9.82168639
Sb      10.34919056       9.35724468       8.22914074
Sb      13.27903450       7.98929856      15.54858370
Sb      12.87486505      10.18823890      17.38202182
Sb       7.28790551      12.62969828       7.14841443
Sb       9.12917706      12.90088571      15.82093275
Sb       7.54877214       9.83088535       7.73160866
Sb       7.22049628      11.51809343      13.76071465
Sb      14.16742373       7.70920651      11.51992342
Sb       8.92021322      12.01534628      11.57470393
Sb      13.04846836       9.70534136      13.23866983
Sb      15.72073456      10.38298770      13.97141109
43
Properties=species:S:1:pos:R:3 config_type=qcd gap_pre_relax_energy=-167.3574860252031 gap_pred_energy=-169.37769193174265 gap_fmax_final=0.0008478376594346654 gap_converged=1 pbc="F F F"
Sb       9.09622622      10.71724421       5.01036237
Sb      11.76927263      10.60298286       6.08525835
Sb      11.46282281       7.76766614       6.16731471
Sb      12.66315387      14.27397259       7.64187713
Sb       7.58765597       9.62038681       7.19574502
Sb      10.86584937      16.54362941       7.76690169
Sb       9.41735643       7.54582084       8.14279512
Sb       8.19669704      13.22722522       6.12052803
Sb      16.14967732       7.57174199       9.65076372
Sb      14.96887568       9.65240819       8.04943196
Sb       7.12057053      14.33443086      10.18013059
Sb      13.27735204       7.36148610       8.56732753
Sb      11.36156841      11.90557686       8.72260802
Sb      10.61635290      14.69015095       5.59712782
Sb      11.21183876       8.64042066      10.23089576
Sb       9.52135684      15.92968127      10.26367178
Sb      13.71393083      15.42776729      10.83025556
Sb       8.09751690       9.68660073      11.38165399
Sb      10.48978421       5.91667750      11.12460576
Sb      15.50357781      13.24260614      10.13293315
Sb       8.36759900      12.02445544       8.77114440
Sb       8.91384317       9.50712163      14.21636344
Sb      14.94409776      15.78491220      13.50231029
Sb      13.91474764      10.84068344      10.52166085
Sb       7.77488091       6.71477954      11.76375474
Sb      16.42340359      13.32720453      12.92319339
Sb      16.18590161       9.50959398      11.77201961
Sb      11.33122145      14.01220888      11.54917903
Sb       8.25525165      12.90593522      12.38246977
Sb       5.90370462      11.25906690      12.67296951
Sb       8.64969065       6.56794602      14.52337928
Sb      11.45969670       5.99453503      13.91093105
Sb      10.93456069      15.59069698      13.95170134
Sb      10.72342947      11.79265910      15.13039429
Sb      13.91566819      12.12017617      13.63506526
Sb      13.15024684      14.38090685      15.32695262
Sb       8.19847346      14.72388976      14.65931763
Sb      15.00387212       7.97549458      13.97112201
Sb      12.28502714       8.72629190      13.53406682
Sb       6.50657462      10.55070284      15.41885975
Sb      12.26015304       9.60670526      16.30161518
Sb      15.01789394      10.35215695      15.62780574
Sb       8.28042681      12.56520177      16.56333756
44
Properties=species:S:1:pos:R:3 config_type=qcd gap_pre_relax_energy=-171.94871539038465 gap_pred_energy=-173.5639381167675 gap_fmax_final=0.000990943259919562 gap_converged=1 pbc="F F F"
Sb      16.67125421      13.54013674      14.40200801
Sb      13.48030544      13.83876657      16.78165666
Sb       5.80716073      11.87983989      15.03114279
Sb      10.69118759      14.36086224      16.18141057
Sb       7.73750578       8.28201063      15.86629989
Sb      12.22878570      12.57134512      14.50661918
Sb      15.30845714      12.63815618      11.90884539
Sb      11.29920861      10.32611803      16.09229099
Sb      11.49239580       8.81804673      13.63521568
Sb       9.64957232       6.68840217      14.31658498
Sb      14.82439624       8.44741696      11.30340986
Sb      11.44086048       6.21722105      10.82470929
Sb       6.56013396      14.32045613      13.69442572
Sb       4.72173577      10.28751057      12.93620921
Sb      17.64957531      14.40873925      11.83236470
Sb      11.05466182      16.81610915      14.60312590
Sb      14.93853460      15.72298536      15.12723600
Sb       5.85736195       7.72746179      13.76305898
Sb       8.62358314      10.85543517      14.89298020
Sb      12.96581872      15.42496144      12.97100350
Sb       8.13860312       7.42146957      11.95749764
Sb      15.24196891      15.22577615      10.52158725
Sb       9.17097961      10.16830928      12.12359965
Sb      11.65851687      17.00500362      10.74240276
Sb       6.48692432      10.85324078      10.74931564
Sb      13.46288077       4.83636621       9.19154135
Sb      16.31862215      10.55074050      10.11328601
Sb       6.61368308      13.73936728      10.89820915
Sb       9.64887914       5.96842366       8.56531870
Sb      12.08400337       8.97968144      10.00942605
Sb       9.23553593      16.67278638      12.32262207
Sb      15.85396292      14.01280802       7.94258503
Sb      12.03417828       5.83693468       6.89602410
Sb      11.40141697      15.18398304       8.47844838
Sb       9.30648280       8.82987640       8.58915551
Sb      11.42073891      12.39127042       9.32026273
Sb       9.09037509      13.76073743      12.38688585
Sb      15.37020358       6.98038301       8.92495543
Sb      10.51455974       9.27637871       6.01576069
Sb      14.12963556      11.69480189       8.33685209
Sb      13.14056782       8.53935833       7.29742323
Sb      13.60175583      15.14634252       6.57071109
Sb      10.57158782      12.09730589       6.56249773
Sb      13.25535949      12.41059108       5.56695182
44
Properties=species:S:1:pos:R:3 config_type=qcd gap_pre_relax_energy=-171.40477117982843 gap_pred_energy=-172.88465755715058 gap_fmax_final=0.0008067589416764971 gap_converged=1 pbc="F F F"
Sb      21.59301975      17.27465552      13.70887946
Sb      17.52682666      17.05967321      14.90513156
Sb      16.65045163      19.77557451      15.51908419
Sb      17.81723704      18.25564176      12.25924276
Sb      16.89469004      16.16882177      10.45077064
Sb      13.44880943      17.99749239      13.56465278
Sb      15.46930809      19.90042951      12.85319754
Sb      15.31928850      14.42706493      12.19069230
Sb      10.76472854      15.72232613      10.92005167
Sb      12.35408410      11.77366843      11.38692814
Sb      19.52489989      14.99866966      10.61830886
Sb      13.20034363      14.27627251      10.19713749
Sb      16.91156647      13.37003649      15.31623696
Sb      13.38914179      12.15844604      14.07921718
Sb      14.70668788       9.69176172      14.73396190
Sb      16.70228600       9.86274325      12.65996292
Sb      18.69241703      11.69717422      13.71558319
Sb      16.71344994      10.74948396      16.57559887
Sb      19.80253169      15.00561571      13.51171585
Sb      21.09654422      15.43853769      17.15024785
Sb      15.95341608      11.97738494      10.78695881
Sb      22.44337757      14.68142327      14.69633275
Sb      18.84464672      12.18804305      10.81000222
Sb      12.44387997      20.03131271      15.31486788
Sb      11.22715452      18.46683692      11.74386777
Sb       9.23351408      17.51040594      13.64470795
Sb      13.48196195      13.36952236      17.34390074
Sb      18.97012319      13.40583983      17.38302526
Sb      14.91180029      11.26250487      18.76964671
Sb       9.92858100      18.80971565      16.15853869
Sb      10.33100125      13.40201580      16.61517827
Sb      10.90646773      11.04758259      15.02238754
Sb       9.84113174      12.51455121      12.74826527
Sb      10.84704096      15.07872978      13.72170554
Sb      10.57729966      15.50195311      19.97483068
Sb      15.93004061      13.30827960      20.57336113
Sb      11.36770527      12.80469771      19.24382503
Sb      13.09161561      16.51030783      21.03435741
Sb      11.49351456      16.70055291      17.47989079
Sb      14.90238102      15.53400149      18.95333733
Sb      17.82389049      15.09672703      19.37663768
Sb      20.03728475      17.96848175      16.10075089
Sb      12.53356796      18.74307983      19.26931431
Sb      14.30029071      18.48196042      16.91770721
44
Properties=species:S:1:pos:R:3 config_type=qcd gap_pre_relax_energy=-171.61687156596687 gap_pred_energy=-172.83106020843567 gap_fmax_final=0.0009794539378820178 gap_converged=1 pbc="F F F"
Sb      16.83587535      10.48046440      13.65693607
Sb      14.61213560       8.44758788      16.11367966
Sb      13.24947599      14.57091665      14.11869256
Sb      16.09545559      10.87183389      16.49555482
Sb      11.66327067      17.04000363      14.17790925
Sb      11.67132704       9.95115525      18.05148639
Sb      10.73710104      13.53751157      16.23460989
Sb       9.52169138      11.93462974      18.29243171
Sb      17.04196507      10.51176840      10.16054675
Sb      15.01905079      11.80952621      11.76481705
Sb      14.85210610      16.24559287      12.33991460
Sb      12.33090933      17.32057815      11.36901444
Sb      15.35780164       8.03608796      13.28691055
Sb      16.91469194      11.94885866       7.61706355
Sb      16.29009003      14.20595818      10.82110756
Sb      12.86035026       9.09996717      12.19987531
Sb      13.26224251      11.00091251      15.89261809
Sb      11.89640734      13.14521567      12.01553769
Sb      10.29136873       9.09127862      15.58564752
Sb      10.25068962      11.65769291      14.10958334
Sb       8.16639290      14.60209419      15.55562759
Sb       9.00995059      16.34010575      13.34269833
Sb      15.77214085       8.15550655       9.02585262
Sb      12.21495359       6.32458832      11.77557576
Sb      11.97846952      14.91185611       6.54280530
Sb      15.28439379      14.26121806       8.11517358
Sb       7.83211741      10.27730559      16.58660144
Sb       7.38696661      12.09131088      14.33572507
Sb      10.28648606      15.27195783      10.91530880
Sb      12.73452789      13.03094043       8.62958981
Sb      15.29020609       9.77712860       6.58892649
Sb       8.08111041       8.43105877      13.12036823
Sb       9.58516960       9.60762646      10.94551281
Sb      12.95186622       8.06909687       9.55648003
Sb       9.36013915       6.75728354      11.10894761
Sb      11.94770288      12.51943347       4.88058452
Sb       9.06506141      14.97695029       6.94032243
Sb      12.57855223      10.60818092       7.00181057
Sb       5.42165452       8.85265670      11.79085581
Sb       5.91023298      11.55119942      10.92576972
Sb       9.11267420      12.43028145       8.26727379
Sb       7.04540204       9.20145615       9.45362734
Sb       9.05349890      12.52835695       5.38866185
Sb       6.32118321      11.65972546       8.04682274
45
Properties=species:S:1:pos:R:3 config_type=qcd gap_pre_relax_energy=-175.4502518899587 gap_pred_energy=-176.8110744437524 gap_fmax_final=0.0008772046125662807 gap_converged=1 pbc="F F F"
Sb       9.61391377      12.19596474       6.14335707
Sb      14.02388021      11.26011511       5.91315234
Sb      12.22721880      13.49176067       6.02509443
Sb       7.84839871      10.52768334      10.30168948
Sb       8.99036839      13.59603473       8.56022951
Sb      12.40458737      14.05657154       8.86062911
Sb      12.72597834       9.16928405       7.45575762
Sb      15.90368189      11.67021887       8.09737297
Sb      10.19031914      10.44953713       8.36058899
Sb       8.64023659       7.56505494      10.13536065
Sb      15.93386224       8.01123821      10.33056743
Sb       8.85495769      16.47713224       8.07729617
Sb      15.27901432      14.39216143       8.87370649
Sb       6.32141703      12.62580624       8.84390766
Sb      11.92936795       5.38378139      10.22768079
Sb      11.72586660      16.85947054       8.68570710
Sb      14.47379083      13.96145640      11.58723131
Sb       9.82650817      15.78241561      12.20717778
Sb      16.94213898      13.56312573      13.09762692
Sb       8.82123697      12.73023388      12.33142289
Sb       8.15401587       6.61078400      12.82579585
Sb      14.10418339      10.19065958       9.81705750
Sb      11.33283632       8.09391472      10.87310181
Sb       7.60107223      16.73477807      10.67338470
Sb      14.73313263       5.45091085      10.98193711
Sb      15.73737626      14.20226831      15.62003273
Sb      14.37929152      16.74574070      12.18606887
Sb       6.47756838      14.10362474      11.33231026
Sb      10.95641897       6.07235115      12.99250949
Sb      15.68745276      10.86135917      12.89921498
Sb      13.95503585      11.80275084      15.31780713
Sb      11.24498820      10.36973805      13.72845108
Sb       8.43083649       9.32019483      13.86327195
Sb      11.79767738      17.76504884      11.43930628
Sb      13.78686043      16.30159002      14.96835504
Sb       9.19834715      15.67212273      15.04475561
Sb      14.31928823       7.75068033      12.73787266
Sb      11.75604855       8.04322909      15.36039544
Sb       7.99101779      12.98265062      15.09329252
Sb      11.71305191      14.32218745      14.69262769
Sb      14.29286673       9.24419311      16.68677645
Sb       9.09255975       8.49646414      16.51224224
Sb      16.30998887       8.61169048      14.73160081
Sb      10.09003360      11.31804988      16.24441989
Sb      12.17908740      13.16175216      17.25963589
45
Properties=species:S:1:pos:R:3 config_type=qcd gap_pre_relax_energy=-175.6790786456547 gap_pred_energy=-176.60076346884827 gap_fmax_final=0.0009437310189594386 gap_converged=1 pbc="F F F"
Sb      12.29990510       8.77313721       5.84178176
Sb       9.48363437      10.06603117       5.85000490
Sb       7.57698573       8.29690396       7.18324568
Sb      10.60455679      14.03957039       6.22221062
Sb       6.85359749      11.79957364       6.15628019
Sb       8.64229802       6.46342674       9.12876859
Sb      12.17874268       6.89898913       8.00089863
Sb      13.28060815      11.18208709       7.10928283
Sb       7.80076956      14.50759877       6.38776204
Sb      15.80735720      14.77603847       8.65268575
Sb      11.76855194      15.79193139       8.19311437
Sb      10.58082448      11.73623661       7.94507603
Sb      10.59945137       8.51182478       9.78017380
Sb      14.44930774      16.45173835      10.58791395
Sb      14.75866307       7.80382997       8.99603477
Sb       7.23897787      10.65131740       8.76805176
Sb      13.48990349      10.21032031       9.84308774
Sb       6.62487137       7.02974412      11.18549621
Sb       7.27537102      14.94853834       9.17761816
Sb       9.69939469      16.15964000      10.18775437
Sb      13.29866389      13.90432230       9.78180419
Sb      17.40327118      13.65260365      10.79449950
Sb      15.92991106      10.98920786      11.36498484
Sb       5.17482160       9.40457551      10.43639112
Sb       9.11618672      13.41221219      10.78209401
Sb      16.23182016      15.48223696      12.65986616
Sb      14.31475671       6.68694753      11.63507393
Sb       7.57131025      14.39126417      13.07927251
Sb       8.47578986       8.56555601      12.80720813
Sb      11.97723356       8.22553587      12.45215207
Sb       9.63682320      15.83824505      14.51577670
Sb      16.26477398       8.36495003      12.83386745
Sb       9.64534491       5.62347792      15.84209899
Sb       6.06513351      10.02040601      13.22369621
Sb      12.02530915      15.06416352      12.99099248
Sb      12.05864715       6.01714346      14.40369918
Sb       7.67615589      12.01360512      14.76596823
Sb      14.31329796      14.15099725      14.52750738
Sb       8.35841056       8.07383538      15.68501790
Sb      11.17768091      13.59025396      15.46690682
Sb      10.36049972      11.27466707      13.90643222
Sb      12.78990511       8.07971632      16.21085912
Sb      14.96456125       9.68037372      15.06515011
Sb      13.77941522      11.62410907      13.25700861
Sb      10.52305939       9.91767125      16.46098506
45
Properties=species:S:1:pos:R:3 config_type=qcd gap_pre_relax_energy=-175.1747389124382 gap_pred_energy=-176.37546843241918 gap_fmax_final=0.000922214712134815 gap_converged=1 pbc="F F F"
Sb      16.07213762      16.26377706       6.77841976
Sb      15.30896598       9.17495861       6.96777309
Sb       9.40517175      14.17981301       9.69175501
Sb      18.44513896      14.85673212       7.57819402
Sb      15.89898841      11.97957166       6.61486844
Sb       6.59560420      10.53823838       7.91320130
Sb       6.83761338      12.86519326       9.60691611
Sb      13.25063598      11.11257104       7.39655481
Sb      17.49655837      17.12837005       9.08123845
Sb      14.65715182      10.02859361       9.68748109
Sb      15.24137041      15.31976305       9.38663358
Sb      11.29673042      12.39755234      10.87376749
Sb      10.44076420       9.88469651       9.62146543
Sb      12.57961546       8.34260661      10.84324251
Sb       4.62052414       9.87092575       9.90025576
Sb       8.32818130      15.48680735      12.03209514
Sb      16.91215551      12.86580133       9.18010834
Sb      12.64087578      15.21272904      12.10310821
Sb       6.81633185       8.14275248       9.47410344
Sb      17.10018327      10.57421872      12.53668061
Sb       6.61082491      11.17864064      11.89030535
Sb      12.80807162      17.58338117      10.43653475
Sb      14.91191443      12.36931354      11.85279354
Sb      11.63794686      18.74106106      12.84222060
Sb       8.53996242       9.08774435      11.65867150
Sb       7.56688423      13.33873600      13.79302598
Sb      10.52665436      16.19169080      13.79285886
Sb      17.98004316      12.24243548      14.77849665
Sb       9.91014673      11.71193119      13.49855501
Sb      15.43389925       8.41253672      13.64938034
Sb      16.20113330      14.35108251      13.78893979
Sb      12.47843146      11.57385601      17.56783208
Sb      12.94835830       9.89268505      13.24402232
Sb      14.26367593      17.47863632      12.89181745
Sb      11.78493849      13.37688832      15.24930519
Sb       9.21266028       9.66388855      15.45734174
Sb      15.38266152      11.51243692      15.64509620
Sb       8.35320357      11.48364842      17.57986440
Sb      14.33386423      14.97413403      15.92986580
Sb      15.89024784       8.82567356      16.48543730
Sb      14.96779401      13.06125467      18.01140991
Sb      11.70712108       8.12911927      15.28188503
Sb      13.23095820       8.68775084      17.61259205
Sb      10.39848736      12.45227877      19.33750716
Sb       9.55944010      14.03754630      17.04040084
46
Properties=species:S:1:pos:R:3 config_type=qcd gap_pre_relax_energy=-179.53087541650572 gap_pred_energy=-180.67434786442433 gap_fmax_final=0.0007353318844182618 gap_converged=1 pbc="F F F"
Sb      11.93677566       6.13353448       9.22891965
Sb      14.68591505       7.27242469      12.54771922
Sb      12.42973422       5.57279451      11.98736083
Sb      11.82493399       9.16679867      16.12200481
Sb      10.08590233       6.84489374      13.14247882
Sb      14.53579026       6.16531377       7.96419618
Sb      14.47205555       8.25747069      15.24289601
Sb      11.72203309       9.00159694       9.08397569
Sb      14.59230243       9.68846179      10.96531303
Sb      13.69019809       8.76042685       6.96059280
Sb      17.13603314      10.24923320      12.22067015
Sb      10.27677923       9.64790167      13.75216716
Sb       8.00945700       8.97882634      15.46201186
Sb      12.88029433      11.84443193      16.41188272
Sb       6.35717817       7.09453425      14.00743263
Sb       7.76680812       6.98582344      11.46550941
Sb      15.90903788      10.76754673      14.80667103
Sb       9.68979834       8.83028218       7.04801085
Sb      15.98812547       8.53652359       8.72328709
Sb      13.72473016      12.20168346      13.66626110
Sb       6.77350383       9.74571822      11.14809280
Sb      17.64575746      12.89359986      11.14658711
Sb      11.01613722      11.04859569       5.69636045
Sb       8.97078222      11.60707940      10.57085221
Sb       9.04158853      13.01435382       6.45462833
Sb       5.80085597       9.96344693      13.90385318
Sb       7.78846106      10.83626173       8.00750925
Sb      15.21005569      13.17712634       9.27147907
Sb      16.16404123      15.89163093       8.85351515
Sb      17.16907729      15.00076239      13.07692815
Sb      10.83656249      13.93573827      16.23740915
Sb       9.62328502      13.27889710      13.72746685
Sb      12.77099301      16.00296373      15.42081245
Sb       5.30963656      13.18093132      11.84292406
Sb      15.13187567      14.25438785      15.05409487
Sb      11.38623479      12.63089433       8.10301182
Sb      13.21356214      14.79343309      10.99847498
Sb      13.56215962      13.85647678       6.74650603
Sb       7.33179397      13.96301923       9.94935506
Sb      15.38394382      16.64783296      11.52886233
Sb       6.76200292      13.27364194      14.32537407
Sb      13.30198941      16.20186358       8.41802014
Sb       9.36097499      16.14906996      13.72142250
Sb      11.95447486      16.97965345      12.88826323
Sb       5.61278572      15.72467963      13.23755366
Sb       7.71850698      16.50236353      11.41620706
46
Properties=species:S:1:pos:R:3 config_type=qcd gap_pre_relax_energy=-179.90042787306308 gap_pred_energy=-180.65889423226187 gap_fmax_final=0.000875426828261759 gap_converged=1 pbc="F F F"
Sb      16.66777749       8.24054197      11.76572552
Sb      16.54276539       9.85638252      15.04105728
Sb      12.58061170       9.16777723      12.01544274
Sb      14.25365295       6.88469694      12.63893137
Sb      14.00897693       7.42229055       5.25354035
Sb      15.06698919      11.38563258      17.02926311
Sb      14.04101645       8.87135372      16.04450614
Sb      17.64356600      12.72070328      12.13532312
Sb      15.74424225       7.92324998       9.01942928
Sb      15.56756610      10.78776598      12.50721378
Sb       9.08593656      13.50407266      14.80515596
Sb      11.46250331      15.13387107      15.50230605
Sb       9.00102074       9.71885011      17.02564778
Sb       9.44235884      10.29165906      14.18794380
Sb      15.97096285      14.92629180      13.05568908
Sb      12.61939648      11.36913651      15.49275181
Sb      13.07817536       7.24574916       9.93375649
Sb      15.97183661      10.60851659       7.98132667
Sb      16.12263493      14.28518323      10.24807935
Sb      11.30580267       7.56494111       4.28571050
Sb      11.90769197       5.99573468       6.62311609
Sb      11.23585133      11.23204208      18.04555306
Sb      14.34924280      10.29103409       5.60861298
Sb      13.13184146      16.96997153      12.60483793
Sb       8.73417352      12.56124011      17.52333965
Sb      14.18625909      12.22440337       9.58351820
Sb       9.19141074      15.55935715      12.00095247
Sb       7.07826701      12.57131500      11.96205846
Sb       6.60063680      10.42238654      13.80782464
Sb      13.08555584      13.68459198       7.29815651
Sb       9.83461339       8.00374730       6.75163664
Sb      13.16051732      14.17431983      13.35477330
Sb       9.59801151      10.56489571      10.45789295
Sb       9.85062660       8.22406120      12.13632306
Sb      10.51952518      17.33562034      13.79554940
Sb      12.78992679      16.63293998       9.74829889
Sb      11.50407125       9.74195132       8.31784212
Sb       6.67282299      15.11441953      15.23962922
Sb       5.72044708       8.84502238      11.50609867
Sb       5.15184747      11.36410171      10.18346150
Sb      11.77000043      11.44072304       6.04865460
Sb       5.07285161      14.41593835      12.91784916
Sb       7.19693476       9.58882792       9.15422875
Sb       9.93588954      16.71920785       9.40402071
Sb      11.34162004      14.16906719       9.60647556
Sb       6.74261059      16.78545367      12.89153520
46
Properties=species:S:1:pos:R:3 config_type=qcd gap_pre_relax_energy=-180.332776588742 gap_pred_energy=-181.42261139672107 gap_fmax_final=0.000844230646325912 gap_converged=1 pbc="F F F"
Sb      18.19347509      15.16127593       9.31312407
Sb      18.29556698      13.20878377      11.49027322
Sb      18.49460746      15.81624999      15.84867450
Sb      19.08524989      10.93066073       9.93015536
Sb      17.93926404      11.90802951      15.98019423
Sb      17.32469471       8.73999321      10.57620244
Sb      16.25983032      14.23724234       7.33750031
Sb      15.96651737      16.32208270      10.76966306
Sb      16.87209126      10.34623420       8.21943656
Sb      17.29910501      14.05775253      17.79118628
Sb      14.75597660      16.59624315       8.17131408
Sb      16.97751883      18.14449297      16.70101885
Sb      15.42889039      13.47004474      11.34109864
Sb      15.90341223      10.15431607      17.08308516
Sb      16.25572255      14.10426933      15.12224297
Sb      14.22431965       7.74876248      13.20126711
Sb      14.82825098      12.26418071       8.81270460
Sb      16.49159267       8.33526654      14.87091794
Sb      15.63501502      18.46585247      14.12765261
Sb      15.83221176      10.08581019      12.66117945
Sb      11.73848777      12.46059265      20.33223920
Sb      11.92487766      15.94743543       8.40634091
Sb      13.44919991      14.12713988      18.72085224
Sb      12.50315959       9.57914791      14.69934231
Sb      14.29841411      17.05418129      16.21930861
Sb      12.91210768      11.73255439      12.71971907
Sb      11.86007803      14.02966633      10.58765895
Sb      12.84995723      17.48291526      12.28699780
Sb      12.07110540      10.04782566      10.49313568
Sb      10.69913762      17.71952699      10.37667584
Sb      13.60528528      11.89954474      16.63763365
Sb      10.65192413      12.00716586       8.91462578
Sb      11.93656545      10.28724545      18.41536577
Sb      13.61920043      19.80898783      15.68439864
Sb      10.60589329      14.60744756      18.79147935
Sb      11.30024818      16.37033928      14.48591312
Sb       9.59144773       9.54909379      14.59117289
Sb       9.79457767      15.50816539      12.11349251
Sb      10.20220638      13.41090372      16.23845713
Sb       9.19984074      10.42544452      10.85904802
Sb      11.30481968      19.22945593      13.96876288
Sb       9.35627287      10.82670224      17.21247886
Sb       7.00064714      15.37270730      13.44313160
Sb       9.65323773      12.08891862      13.13932469
Sb       6.80552620      12.55047475      13.71198829
Sb       7.41809840      14.19450277      16.01719389
47
Properties=species:S:1:pos:R:3 config_type=qcd gap_pre_relax_energy=-184.14928668623745 gap_pred_energy=-185.5254502520149 gap_fmax_final=0.0008575632250477635 gap_converged=1 pbc="F F F"
Sb      12.14465530      14.26817427       6.21192424
Sb      13.24064189      11.64655251       6.52421980
Sb       9.40862830       8.86898409       6.52734803
Sb      12.13058857       8.07232598       6.73282183
Sb      11.90454172       5.47607271       7.97310537
Sb       9.36792031      13.47918487       6.17390807
Sb       9.21562896      11.41330291       8.22632474
Sb      15.84407274      12.61917902       7.27647216
Sb      16.19636314       9.95630572       8.36970317
Sb      12.89778937       7.69159808       9.64943183
Sb      11.60887000      14.35548385       9.15420526
Sb      11.97594576      11.45564286       9.15453971
Sb       9.35635927       5.24047115       9.26667629
Sb       8.28421795       7.88429336       8.94552873
Sb       8.74496474      14.32502934       8.89353618
Sb      10.33651124       8.89591653      10.72977644
Sb      15.14143726      13.37193761       9.97109071
Sb      14.68346001      10.42885934      10.82544330
Sb      12.71378788      15.03847442      11.96929188
Sb      14.98306795      16.27440402      10.64787104
Sb       5.92065821      12.62981343      11.56791703
Sb      14.07134373      12.49035224      13.61833156
Sb       8.25552337      10.90724468      12.09784936
Sb       4.62799140      10.72107163      13.32190618
Sb      12.28497316      17.61401167      13.33550724
Sb      12.85511459       5.86381860      12.06340119
Sb      16.55647041      16.26954089      13.06225978
Sb      17.62735805      10.32143292      10.87302106
Sb      17.83985151      13.19018779      10.90852995
Sb       9.39946181      14.97361634      12.33408511
Sb       9.98437249       6.25500112      11.93188216
Sb       6.62696780      14.81310124      13.25642750
Sb      10.61951765      12.26817748      13.17452453
Sb       7.07079994       9.41557414      14.26281107
Sb      16.83240737      13.45095275      13.60976616
Sb      13.64444133       8.35035370      13.24087477
Sb      14.50621852      17.01081609      15.05970606
Sb       9.89345547      16.63352545      14.64511916
Sb      14.37684395       8.00026901      16.01000053
Sb       5.64565338      11.30616151      15.92218507
Sb      10.99977431       9.35570913      13.95316950
Sb      13.83671360      14.34630610      15.95375501
Sb       9.75063105      12.36518454      15.92249668
Sb      14.71448708      10.88666460      16.11021144
Sb       7.19722733      13.73723083      15.85149564
Sb      12.17029430       9.77642094      16.67636353
Sb      11.06358137      14.83685409      16.56476952
47
Properties=species:S:1:pos:R:3 config_type=qcd gap_pre_relax_energy=-182.94428693038773 gap_pred_energy=-184.51538059114066 gap_fmax_final=0.0008070588366935396 gap_converged=1 pbc="F F F"
Sb      11.23174727      11.79015279       5.61520120
Sb      13.13376513      12.32542280       7.70845964
Sb      15.41435730      13.88841627       6.78845815
Sb      10.60347363       9.78234443       7.61364285
Sb      11.56479327      16.13552401       7.59599279
Sb       9.63238844      12.44880703       7.97281962
Sb      14.08691426       8.57055296       9.08354275
Sb      13.47193363       6.96390572      11.39461819
Sb      14.43239768      16.46624005       7.76375268
Sb       6.78346646      13.28581913       9.97470896
Sb      12.16485537      10.54767711       9.91542318
Sb      16.40962226       9.89050259      10.11302898
Sb      16.04109596      12.73527460       9.40059118
Sb       6.83095383      11.76390749       7.54135566
Sb       6.60133510       9.05329200       8.45895377
Sb      11.10873882      18.33635511       9.40011319
Sb      10.69497619       6.17698149      10.94796010
Sb      10.71108275      15.60642741      10.30482117
Sb      18.91086828      15.33149058      14.48267228
Sb       4.21151511       9.51326915       9.96326049
Sb       4.64551751      11.97839868      11.37866140
Sb       7.02422958       6.69658503      11.81711111
Sb      13.76911868      13.59051566      10.89004069
Sb       4.78409998       8.33182094      12.51879000
Sb      14.88080477      16.24776447      10.60201498
Sb      17.94675602      13.30075964      12.78036599
Sb      12.16647866       8.77622399      13.22781183
Sb       8.89182279       8.53856193      10.50677599
Sb      12.49725237      17.39083460      11.75687247
Sb       9.12060746      12.40407844      11.39104124
Sb      15.11911855      13.05016054      13.37089360
Sb      15.63090996       9.98991078      13.11950986
Sb      10.76848956       6.27388553      13.79988916
Sb       6.05651338      10.88669797      13.69659527
Sb       8.08871487       7.22269678      14.43605357
Sb      16.87675024      15.20472400      16.39555737
Sb       8.75133455       9.90908552      13.36596803
Sb      17.87111713      11.04427707      14.58942629
Sb      14.57602159      15.66687799      14.66752911
Sb      14.22875506       8.52731086      15.24287986
Sb      11.84713090      12.30271591      14.29842455
Sb      16.87732265      12.37993606      17.02213991
Sb       7.77494013      13.42244144      13.70333336
Sb      12.64141030      14.33880184      16.32647910
Sb       9.31322653      11.81222453      15.56176246
Sb      12.48058622      10.47912130      16.42427223
Sb      14.10685118      12.39738710      17.84658515
47
Properties=species:S:1:pos:R:3 config_type=qcd gap_pre_relax_energy=-183.54399315471912 gap_pred_energy=-184.7247602681202 gap_fmax_final=0.0008907630235861942 gap_converged=1 pbc="F F F"
Sb      10.84143534      13.54945843       6.25287095
Sb       8.24666176      12.33762893       6.84349387
Sb       9.85320620       9.98747131       7.37196406
Sb      10.80172093      16.36693126       6.95662244
Sb      16.54558266      11.91466906       8.83853602
Sb      14.30799497      11.33946907       7.12585675
Sb       8.73633308      13.69673739       9.37285775
Sb      13.32498461       9.27023363       8.98534387
Sb       8.58062771       7.43123286       7.98115831
Sb      16.35088804      14.77975862       8.94097560
Sb      13.47656501      15.51588403       8.36459668
Sb      12.37838448      12.87786376       8.60277187
Sb       6.27335481       7.95183530       9.61064865
Sb       8.84262921      16.53985252       9.00896880
Sb      17.10401011       9.13663054      11.22501404
Sb       9.95156070      10.28820138      10.22491318
Sb       6.30833460      13.60473298      10.84510219
Sb       7.02956954      10.69132400      10.56630792
Sb      14.83336813      10.93378650      10.94109206
Sb      15.57942387       7.45416363       9.40730762
Sb       9.96788679       7.37989128      10.66503094
Sb      16.48884171      15.58007076      11.70262399
Sb      10.62381482      13.19621408      11.71472957
Sb       7.46761423       7.31418656      12.16286487
Sb      13.63892155      15.72443124      11.24457079
Sb       9.98467124      10.22424457      13.93117237
Sb       8.04504025      13.37589148      13.10612303
Sb      14.42543497       6.33928777      11.85004025
Sb      15.37017258      13.30451139      13.19558494
Sb      10.11530133      16.14941765      11.63829160
Sb      14.63890798      10.01362311      14.42193295
Sb      11.59988990      13.96236527      14.91507542
Sb      17.09119175      11.51200054      14.78498548
Sb      12.24134092      17.92866282      12.46445804
Sb      15.94603435      13.85769880      15.99266390
Sb      12.49119775       8.40458598      12.55195814
Sb       7.16118817       9.97046347      13.36649759
Sb       7.99552357      16.26446848      13.55945877
Sb      12.39411948       7.00399755      15.12196039
Sb      16.21910367       7.73291073      13.66204628
Sb       9.75380461      15.97509320      15.83759838
Sb      14.09556250       8.58822363      16.84744938
Sb      13.35135344      13.43371669      17.20626115
Sb      12.42842189      16.72539685      15.08058525
Sb       9.85332305      10.63634950      16.79002046
Sb       9.70115626       7.95658787      15.74180903
Sb      12.49689438      10.73119244      17.93115334
48
Properties=species:S:1:pos:R:3 config_type=qcd gap_pre_relax_energy=-187.23007525195314 gap_pred_energy=-188.86008149237566 gap_fmax_final=0.0009848647000811836 gap_converged=1 pbc="F F F"
Sb      11.52724907       8.89941771       5.37396644
Sb      11.54906279       8.37204391       8.41384732
Sb      10.39966294      11.50660285       5.75258546
Sb      13.97263857      10.42915482       5.36428129
Sb      11.66105230      13.88531462       9.54448711
Sb      12.95881159      14.76732415       6.76372450
Sb       8.16884856      11.00251624       7.49313863
Sb      16.01106856       8.83350275       6.60463038
Sb       8.57505056       8.20627274       7.89208917
Sb      12.55552727      11.13364458       7.85395924
Sb      14.49145647       7.53070901       8.68716788
Sb      11.58405014      16.49738871      10.96430057
Sb      14.29596773      13.48471455      10.67795599
Sb      13.13019467      17.53311571       7.54582362
Sb      16.89064071      10.83448137       8.52152553
Sb       9.51947712      11.09510752      10.20970687
Sb      15.01086901      16.57213207       5.55809728
Sb      15.38269577      13.44229908       7.98572008
Sb       7.64684267       8.86723871      10.61813216
Sb      14.55799643      10.09335810       9.98563444
Sb       9.33157667       6.64238107      11.47833551
Sb      14.34399282      16.25577832      11.67433898
Sb      10.65342151      14.30013110      12.70825213
Sb      15.40502370      17.59697125       9.30215297
Sb       8.35190891       9.83142202      13.73394296
Sb       8.24888658      13.51437088      11.26746222
Sb      11.82363665       7.97852650      11.45830164
Sb      16.95577100      15.84502083       7.60619833
Sb       7.14389826      12.46636962      13.72131026
Sb      11.02440345      10.41897075      12.82071105
Sb      12.07352574      17.33456367      14.87094096
Sb      10.91057819       4.06157263      14.34984886
Sb       9.26662428       6.41672544      14.36976211
Sb      13.56727730      14.90043032      15.05442664
Sb       9.41925169      16.39970448      14.34977564
Sb       9.46757597      12.65504734      15.42614363
Sb       9.10693816       9.91977752      16.57913891
Sb      15.81140202      16.00808988      16.51954134
Sb      13.31975510       4.69093420      15.83427384
Sb      11.16864021       8.23605251      15.45752546
Sb      11.73347373      17.90358808      17.66231994
Sb      12.58748147      13.60322917      17.45176843
Sb       8.52643793      15.09718692      16.74668281
Sb      12.12032659       6.53769870      17.67572626
Sb      14.45203599      17.52083040      18.53599166
Sb      10.70774631      15.42225264      18.58000963
Sb      14.85144474      14.71092290      18.91830540
Sb      10.93806457       3.94537412      17.23630095
48
Properties=species:S:1:pos:R:3 config_type=qcd gap_pre_relax_energy=-187.26538683007945 gap_pred_energy=-188.7845888900092 gap_fmax_final=0.0008805173747619711 gap_converged=1 pbc="F F F"
Sb      12.38026057      13.55333871       5.33851058
Sb      12.04160052       9.86551344       7.81406100
Sb      13.97863686      12.97516620       7.83694766
Sb      14.74408953      10.38680026       6.62674807
Sb       9.78325221       8.35468560       9.17444076
Sb      10.68724271      11.23416940       5.61269814
Sb      11.14338003      15.68921530       6.77243849
Sb       8.25646906      12.17450305       6.79444896
Sb       7.61669524      10.28178962       8.94180627
Sb      16.61538300      13.95530657       8.62970149
Sb      15.39849376       9.54255329       9.30358134
Sb       9.03596056      14.52612646       8.32695780
Sb      17.68674608      11.38215892       9.33724343
Sb      13.19782218      11.22357608      10.14762049
Sb      11.40246411       8.77985220      11.61485872
Sb      15.38189494      14.83234318      11.19987253
Sb      12.62407459      15.33564919       9.34633748
Sb       4.91126772       8.55475703      11.40727613
Sb       9.50971615      15.75482305      12.03221866
Sb       4.79952063      11.37524019      11.98757871
Sb      10.65952726      13.57585700      10.53137066
Sb       7.45974593      12.23484124      11.02227458
Sb      13.86531273       7.25604283      11.54806991
Sb      15.32868437      11.09863661      12.85421190
Sb      18.09766395      11.52598252      12.22345203
Sb      11.24132647       6.13519532      12.91331333
Sb      18.08365836      14.36919816      12.31950184
Sb      11.32368939      12.65112217      14.46624789
Sb      12.32493360      16.54371484      12.75181266
Sb       5.09364861      10.66148330      14.78681015
Sb      15.23133767      17.47373405      12.46262696
Sb      12.46270552       9.30701400      14.81572718
Sb       7.67115029       8.06995138      12.09740227
Sb      13.72671775      14.17902520      13.97428639
Sb       5.65776383       7.88029983      14.15951782
Sb       9.63795183      15.01121657      14.84066799
Sb       8.91084575      10.54446580      13.05435096
Sb      15.14960072       8.43835612      13.85750479
Sb      17.57459688      14.51031856      15.10460649
Sb      15.59171160      12.15548066      15.46412311
Sb      12.12115576       6.50448157      15.61813951
Sb      12.89183423      11.54318743      16.63161200
Sb      11.49101160      17.18502914      15.44968320
Sb       9.27095194       6.52918574      15.15908111
Sb      16.03379432      16.96515920      15.20091210
Sb      13.73696369      15.68993695      16.45169788
Sb       9.52737952       9.37392737      15.70838222
Sb       7.67466712      11.84488982      15.32256744
48
Properties=species:S:1:pos:R:3 config_type=qcd gap_pre_relax_energy=-186.57996499952966 gap_pred_energy=-188.26442279984073 gap_fmax_final=0.0009262131049474638 gap_converged=1 pbc="F F F"
Sb      12.74315787       8.51947189       5.27688338
Sb      11.75115677      14.36862227       6.57931788
Sb       8.94774957      11.02229334       7.02168657
Sb      14.30503401      13.01509167       6.89182766
Sb       6.66366739      10.74914773       8.78928917
Sb      15.16451816       8.97715794       6.74863202
Sb      11.49335383      16.63141993       8.32892700
Sb      11.08862130       6.96767920       7.06736310
Sb      14.31062391      12.53158701       9.72766700
Sb      10.03312411       9.04120346       8.82710080
Sb       7.38210699       7.93983211       9.06215215
Sb      15.29339804       6.95660581       8.78795783
Sb      10.33662247      12.97291435       8.69145760
Sb       7.93872131      12.10245222      11.01894461
Sb      15.29661017      15.15377672      10.51118992
Sb      12.33662465      15.09840803      10.66134992
Sb       8.70058277      15.40198370       8.34131213
Sb      12.81884458      10.54623102       7.39188781
Sb      12.68622701       5.83642821       9.17488668
Sb      16.77014972      11.05425323       9.96499250
Sb       6.35776676      14.24474369       9.91704803
Sb      14.81217001       9.07399661      10.70142678
Sb       7.02266964       7.44753252      11.85636302
Sb      11.99086116      17.46703244      12.25733443
Sb       7.64771951      16.68412075      10.74810475
Sb       6.11267897      10.37409564      12.58606733
Sb      12.74071099      13.70793637      13.47659831
Sb      11.71907343       7.72507428      11.38259822
Sb       9.54438956       6.44909220      12.86351951
Sb      10.73229466      10.35235696      12.69615791
Sb      17.30059662      12.19014135      12.59831162
Sb       9.64330027      15.68379502      12.52875496
Sb      15.50284630      14.42414220      13.28483420
Sb      16.20127825       7.57078293      12.69975046
Sb      13.48563708      10.80301394      13.28584614
Sb       4.93662822      12.14004877      14.64282470
Sb      13.56684686       6.52951563      13.27588398
Sb       7.09059588      13.94962023      13.91676610
Sb      17.14598307       9.81653964      14.28913610
Sb       7.12448585      10.36077870      15.31411202
Sb      10.06424966       8.51140420      14.79914294
Sb      12.52435953      16.34741892      14.89844888
Sb      12.62240420       7.50077463      15.79411990
Sb       9.64613068      16.76130731      15.21177582
Sb      16.04294479      10.14446224      16.82766907
Sb       9.22388853      12.33174101      15.04601760
Sb      13.35132403      10.27234499      16.10125906
Sb       8.17370014      14.63805626      16.52373171
49
Properties=species:S:1:pos:R:3 config_type=qcd gap_pre_relax_energy=-191.23858831850677 gap_pred_energy=-192.7535014530965 gap_fmax_final=0.0008961774415859605 gap_converged=1 pbc="F F F"
Sb      10.24075893      10.27033619       6.06999784
Sb      13.59352398      13.82537859       6.79575637
Sb      11.31940314      14.73672799       8.37320888
Sb       7.51285815      14.11649935       8.45397870
Sb      13.14683912       9.95034659       6.12225452
Sb      10.15330665       8.38094230       8.18216934
Sb       9.60583172      12.01898501       8.40565115
Sb      11.42969380       5.97437732       7.33647915
Sb      13.80973592       7.62467092       7.75628951
Sb       7.50617678       7.66121321       8.92429824
Sb       5.48789821      12.25569288       9.36557630
Sb      17.56063329      13.14032679       9.50376788
Sb      12.38428251      16.96723390      10.10651467
Sb      15.27474084      14.82954504       9.02339588
Sb       8.93887633      14.64844967      10.99497690
Sb       7.66208411      10.36720632       9.94723201
Sb      12.75931816       8.37855716      10.35910405
Sb      13.33797880      11.53854913       8.45939879
Sb      16.40979930      17.33081929      10.06830224
Sb      14.29369770       6.95526399      12.40192590
Sb      10.02371845      17.26380303      11.76629270
Sb      11.45849251       5.73833205      10.25258473
Sb      13.06334178      14.25341912      10.88777823
Sb      15.83740042      10.46814195       9.39940840
Sb      17.55451694      12.25019377      12.25171981
Sb      14.85952502      11.26701546      12.07748271
Sb       6.62350157      15.43479967      12.46822123
Sb       9.86717204       8.32779609      12.95588526
Sb       8.77252833       6.32735785      11.21129492
Sb      14.98601101      16.08242929      12.40315184
Sb      15.69826210       9.08970027      13.78925046
Sb       7.45497432      11.53546429      13.08102846
Sb      11.81350372       6.38644423      13.82954122
Sb       5.12205649      12.98535037      12.16153329
Sb      18.62644776      15.69338558      10.91849192
Sb      10.97217901      16.30322040      14.38838441
Sb      17.38146522      14.89741990      13.41931981
Sb       8.22258077       7.81694174      15.30137473
Sb       8.01731528      13.86753441      14.63917005
Sb      10.84641722      13.52386607      13.54520855
Sb      13.80224290      16.13769129      15.08987083
Sb      13.12755653       9.63364246      14.93256373
Sb       6.43247928      10.12288808      15.39426225
Sb      12.52761326       7.34694663      16.50084430
Sb      13.73619384      13.26837373      14.49094893
Sb      10.46956370      11.41129238      15.96638794
Sb       7.81445804      12.03435830      17.04187869
Sb      10.14450061       8.77026416      17.23150807
Sb      13.25205134      11.72631272      16.88984111
49
Properties=species:S:1:pos:R:3 config_type=qcd gap_pre_relax_energy=-191.9744121849951 gap_pred_energy=-193.35944747062942 gap_fmax_final=0.000992099144114498 gap_converged=1 pbc="F F F"
Sb      15.28388874      14.04952580       9.44623385
Sb      12.34457763      15.62040892      10.35897380
Sb       9.73080874      12.88295519      11.35897511
Sb      17.32749782      16.04210983       9.29685293
Sb      16.52476998      11.48115679       9.78727734
Sb      10.54979984      16.95634464      12.22810137
Sb       8.29185009      15.13972270      12.34976943
Sb      18.63974209      12.21183066      11.59003627
Sb      14.23294454      11.13437226      11.56032705
Sb      16.49093826      18.18105626      11.05508870
Sb      19.55219001      14.86637466      10.76097120
Sb      13.56587416      18.19284973      10.83748001
Sb       7.45119460      11.16713771      11.41984880
Sb      11.11243539      12.06358726      13.69873251
Sb      10.74959609       9.22257207      14.11036864
Sb      14.86160746      17.18394899      13.23356792
Sb      21.00574274      18.25241699      13.35405557
Sb      21.64488269      15.55335407      14.05231626
Sb      14.16035053      14.10653316      12.18964508
Sb      11.92873244      15.88919727      14.55224213
Sb       9.11874166      15.38470829      15.11205101
Sb      18.93733940      16.20447040      13.25910374
Sb      16.12603949      10.26484039      13.52132078
Sb      16.98474785      12.98835307      13.85065214
Sb       8.04364811       8.92916807      13.12981689
Sb      21.54662587      15.41596090      16.95863447
Sb       9.74395116       9.65865774      16.77082830
Sb      13.92999363      19.58892526      14.75910246
Sb      17.70910749      17.87394289      16.03919912
Sb      20.20224667      19.49565051      15.83355319
Sb       6.67347571      11.22604769      14.17942831
Sb       8.92380895      12.37290709      15.56095096
Sb      18.35718822      11.98240200      16.20355405
Sb      11.66694123      18.32770594      16.08474181
Sb      14.02426514      13.15379153      15.64624149
Sb      18.72189130      14.79489274      16.92178393
Sb      15.95834272      20.14204125      16.74084682
Sb      21.22894861      18.04880736      18.06738429
Sb      15.24840576      15.86596802      16.49579189
Sb      14.09500790      10.15637364      15.79156331
Sb      12.10984996      10.58998701      18.10367848
Sb      11.74536391      13.37729487      17.50372282
Sb      15.86744170      11.80234425      17.59916030
Sb      18.21228039      17.96592835      18.88497759
Sb      13.29131961      17.09592969      18.21359325
Sb      18.54283833      15.20669632      19.70669190
Sb      15.70843845      14.52116076      19.01719513
Sb      15.25052239      19.00988378      19.24945127
Sb      12.86617080      14.64207155      19.83848259
49
Properties=species:S:1:pos:R:3 config_type=qcd gap_pre_relax_energy=-191.80373557678442 gap_pred_energy=-193.07672207902098 gap_fmax_final=0.0008056198525463214 gap_converged=1 pbc="F F F"
Sb      16.23028390      12.12509945       8.23470492
Sb      13.30257366      12.27370318       8.31294499
Sb      10.79606897       7.38466846      11.56524091
Sb      18.33528767      15.81525841       8.84357760
Sb      14.45083083       9.79904811      11.63958871
Sb      17.21609255      10.78299442      10.56898499
Sb      11.72663066       9.95146072      10.43420103
Sb      19.40576156      14.20647875      11.01977278
Sb      13.09788421       7.63541890      13.28137357
Sb      12.19574118      16.31083605       9.25089673
Sb      15.70280924      14.72412958       9.24063604
Sb      13.69112141      14.93437672       7.15117947
Sb       7.42913328      10.06477514      14.04510648
Sb      12.56993517      13.75864928      10.67953436
Sb      11.19459168      11.50734589      12.75413497
Sb       9.25871693       7.81108385      13.97903154
Sb       9.96489797      14.49666524       9.63734888
Sb      14.64549646      10.35682941      15.90694607
Sb      19.99487630      16.90079016      11.98226977
Sb      17.08182408      13.04953841      12.31821662
Sb      17.72331988      18.06013928      10.61402732
Sb       8.34539655      11.78106349      11.92146085
Sb      13.18049041      18.23933905      12.38862460
Sb      11.44550757       9.44828056      14.84655761
Sb      15.80981019      16.98694982      12.46473976
Sb       7.77861501      14.14410687      13.46629885
Sb      17.41270988      11.01466507      16.54506569
Sb       9.25782236      16.15257120      11.90276015
Sb      11.68910970      16.03168780      13.52995318
Sb      18.99969294      12.56364051      14.62976364
Sb      17.67647018      15.06060949      15.20988405
Sb      16.97032905      18.84510829      14.30131498
Sb       8.29010692      11.61402891      16.41700482
Sb      19.40582532      17.28460470      14.79443829
Sb      14.24044765      11.92178303      13.56238066
Sb      12.67196588      12.30776815      17.08463179
Sb      13.13392462      19.50351102      15.01346563
Sb      10.02514874      13.50587214      15.18182590
Sb      10.48746340      10.71441903      18.11357353
Sb       9.47051102      15.12345987      17.48818246
Sb      10.83473743      17.77966151      15.63000485
Sb      17.53242732      12.76549426      18.79686416
Sb      15.16437630      18.10489600      16.47862012
Sb      19.50938021      14.18492608      17.22043200
Sb      15.53727860      14.89864472      18.66190335
Sb      14.34723012      15.26688834      16.05462742
Sb       9.88096258      13.12952175      19.59063896
Sb      12.89841146      13.67547293      19.58629849
Sb      12.17584086      16.18760589      17.84483634
50
Properties=species:S:1:pos:R:3 config_type=qcd gap_pre_relax_energy=-194.9875006575389 gap_pred_energy=-195.97708103954162 gap_fmax_final=0.0009415449408727992 gap_converged=1 pbc="F F F"
Sb      13.98806113       4.81684099      10.72840194
Sb      17.11857003       9.55349836      11.46619448
Sb      16.07508198       8.66455450       8.90106074
Sb      16.65558851      12.21639019      10.46734028
Sb      13.69201096       7.00507123       8.96652925
Sb      14.39262015      10.96713171       9.15251841
Sb      14.42954020      12.27479717       6.53669491
Sb      12.22937407      10.59886004       5.63321555
Sb      16.50112512      15.59794245      12.85881903
Sb      13.29112529      16.91492765       7.32922484
Sb       9.74329727      12.00666845       5.91699879
Sb      16.99962018      11.92018659      14.55633096
Sb      11.10326566      15.24565078       6.37610476
Sb      13.56759800       6.92376658      13.01277661
Sb      15.38529808       9.10818976      13.70983585
Sb      11.17775197       4.19420119      10.42647026
Sb      12.19954827       8.50644750      10.98249275
Sb      11.46352345      17.64513303       9.47683808
Sb      15.11394252      13.11779610      12.73290076
Sb      14.40126971      17.33009866      11.90272525
Sb      10.01777016       6.42656914       9.00914403
Sb      10.86479389      10.58761548       8.18527093
Sb      13.02211578      14.17207016       8.21713395
Sb       8.57436608       9.49083208       6.81175647
Sb      15.85660281      15.90872421      15.64612522
Sb      17.79177517      13.99213773      16.52411939
Sb      12.75839474      10.49653747      13.95161069
Sb      11.57252145       8.10294764      15.03053136
Sb      12.27063223      15.50873750      11.30527847
Sb       9.16842284      16.15924403       8.36915988
Sb      10.18465841       6.47209759      11.98235366
Sb      13.26500422       9.80015257      16.70160066
Sb       9.28380365      13.85478838      10.14262684
Sb      11.58706481      14.02410169      14.36631198
Sb      12.24571134      16.85874336      13.90797218
Sb      15.02795336      13.19112595      16.35693529
Sb       6.60130216      13.24275860       9.20939401
Sb       6.46280874      10.36800493       8.64830936
Sb       7.65792646       6.99069927      10.55828288
Sb       8.34921175       9.75530085      10.66801957
Sb       9.08092545      10.07596684      16.63678430
Sb       9.25136074      15.71160775      14.65825843
Sb       7.71914124      15.16112441      12.17428626
Sb      11.20099025      11.25444239      18.15932450
Sb      11.47593708      13.98783833      17.28634356
Sb       5.71905564      13.06703208      11.98275896
Sb       9.15322631      11.58083455      14.20907166
Sb       6.73225755      10.54675433      12.92757575
Sb       7.26064304      12.32438149      16.26948878
Sb       8.65019198      14.61345814      17.30547934
50
Properties=species:S:1:pos:R:3 config_type=qcd gap_pre_relax_energy=-195.29549712697596 gap_pred_energy=-196.9946982678134 gap_fmax_final=0.0009341057213924093 gap_converged=1 pbc="F F F"
Sb      10.81303593       5.74172364      11.26943657
Sb       8.54553947       7.43554662      10.58517717
Sb      13.02377635       7.06477800       9.94913654
Sb      15.54224670      11.48041590       6.26345745
Sb       8.41822361       8.40142139       5.91327861
Sb      11.02333442       6.19950153      14.11980957
Sb       8.50297488       7.64001002      14.24036742
Sb      10.37046051      14.26550155       6.28300806
Sb      10.52097213      10.85696839       8.77510778
Sb      13.03508724      13.02750267       7.06123746
Sb       9.94562040      13.81003116       9.06133254
Sb      17.12954089      15.06163812      12.16678766
Sb      14.34562375       6.46885290      12.44430415
Sb       7.66160782      10.71622938       9.37923419
Sb      16.14539562       8.76714829      12.07494446
Sb      15.77422543       9.47610851       8.31156028
Sb      12.73058208       8.55597316      13.72825279
Sb       9.38385853       9.66674510      12.33229187
Sb       6.92974806      10.88692806      13.28386773
Sb      13.92055791       9.87701154      10.51601213
Sb      10.14080214       7.87778947       8.23238817
Sb      15.38674516       8.96665606      14.88168385
Sb      12.02858339      11.09973953      17.92672234
Sb      17.44073687      11.82287857       8.37014841
Sb       8.06514352      11.55864297      15.87351893
Sb       9.27057040       9.06637806      16.62505830
Sb      10.19616565      12.88141539      19.21042241
Sb      13.09242429      13.72822151       9.88938242
Sb      13.67710981      12.48408850      13.28920172
Sb      14.54364083      12.47875918      17.92897060
Sb       7.16200716      10.90813464       6.54262766
Sb      10.88459615      11.12126531      15.20684831
Sb      15.67773099      11.82284282      15.24771862
Sb      11.50497578      14.49954504      15.44586443
Sb      16.36173470      12.29909801      11.97382443
Sb       9.98479195      10.87137392       5.90812641
Sb      10.35589833      13.36205028      12.55035179
Sb       7.45711795      13.66063290      12.54326603
Sb       9.50307657      15.06101329      17.47515817
Sb      16.04151928      14.09565964       9.60218025
Sb       7.08886961      13.52382442       9.64878952
Sb      14.72187161      15.14513514      13.78729565
Sb      11.67091101      15.33869601      19.37356764
Sb      13.70473231      15.09468924      17.30275373
Sb      11.83917355      16.77792823       6.41130780
Sb      10.31354736      16.22203113      12.02765351
Sb      10.98519054      17.24018695      14.63781095
Sb      14.41786738      15.48499474       6.45067474
Sb      12.99469767      17.15032757      12.52139652
Sb      13.27659903      16.50720827       8.90792496
50
Properties=species:S:1:pos:R:3 config_type=qcd gap_pre_relax_energy=-195.92365343126627 gap_pred_energy=-197.56777882552294 gap_fmax_final=0.0009238038246429291 gap_converged=1 pbc="F F F"
Sb      19.75954464      11.25916720      11.66672554
Sb      17.48921119      11.46970758       9.91464385
Sb      17.50902883       9.50142294      12.07093171
Sb      18.33035428      15.35598345      10.11100145
Sb      19.78893170      13.27515954      13.76990381
Sb      20.17393717      15.71718738      12.33740129
Sb      17.21531884       9.88642314      16.19528105
Sb      19.46576244      15.90587724      16.21947253
Sb      19.16901783      17.81212049      14.11084694
Sb      16.30239786      13.68741782      11.32294589
Sb      16.87948085      17.78193637      10.57726859
Sb      18.02883149      12.39238394      17.43970420
Sb      16.18439617      11.30722143      13.85207476
Sb      14.38209125      14.21450776       9.25831256
Sb      13.90945806      10.10847163       9.83992864
Sb      12.64683525       9.67193380      16.29858155
Sb      13.82483074       8.80766667      13.82456153
Sb      15.43852583      11.26498346      18.00786226
Sb      14.24467278      17.09221414       9.61156722
Sb      16.37120908      17.31714215      13.39674767
Sb      17.31668782      14.08881447      15.19988811
Sb      18.16954012      17.20522083      18.42505907
Sb      14.65428259      19.59797302      12.85776941
Sb      13.66813404      12.35952009      15.94144444
Sb      15.94355506      18.48277929      16.72918249
Sb      11.34520164       7.77162520      12.63883074
Sb      13.46733274      11.34584249      12.42980982
Sb      12.01737854       7.84920829       9.89141085
Sb      14.45187504      15.97074141      16.78924267
Sb      12.21905528      13.87333341      11.12067886
Sb      14.45170344      19.20202001      19.14449451
Sb      16.26542976      15.15980565      19.00702824
Sb      12.95946972      17.33157678      12.21037025
Sb      14.07202218      14.97438373      13.57445521
Sb      11.50822066      11.60600775       9.33598827
Sb      13.57183086      20.00654573      15.48800030
Sb      14.73022403      16.86883394      20.79402607
Sb       9.22831901      11.95101792      17.38370791
Sb       9.95730667      10.09468623      15.33445284
Sb       9.99965364       9.65592577      10.89964258
Sb      11.09760432      15.06615411      14.82090244
Sb      12.58557473      17.04368370      18.78022745
Sb       9.99140021      12.40446462      13.58430160
Sb       9.68704579      18.99773919      13.69193141
Sb      11.58444919      13.70087046      17.45704450
Sb       9.79512404      16.42401313      12.38554842
Sb      11.47006090      18.03727765      15.76614566
Sb       7.67263030      13.12590154      15.25778571
Sb       7.45020447      17.19195589      13.96851221
Sb       8.48360273      15.71190534      16.19511067
51
Properties=species:S:1:pos:R:3 config_type=qcd gap_pre_relax_energy=-199.5999252857466 gap_pred_energy=-200.56882776766017 gap_fmax_final=0.0007711550709800576 gap_converged=1 pbc="F F F"
Sb       9.03299089      19.13428350      11.91481582
Sb       9.34765398      16.88242294      17.70071773
Sb      11.99104990       8.42969962      16.43421296
Sb      10.95243505       9.17047572      12.09623729
Sb      10.53009575      16.68785028      11.63606968
Sb      16.36665931      14.35558407      13.59690305
Sb      17.12079802      10.32722669      12.98125430
Sb      10.32090890      12.35913273      10.37675376
Sb      16.09676738      14.95830265       8.83410874
Sb      15.96257304      12.47858487      11.39713447
Sb      12.24662894      13.16744749      18.97359650
Sb      11.46701689      14.31931604       6.51135908
Sb       8.45126730       9.49514987      15.15831665
Sb      15.46499913      13.61816463       6.32736854
Sb      15.81360654       8.48042960      11.16994738
Sb      13.18621051       5.87739693       9.64808936
Sb      18.12728560      13.01840523       9.59897842
Sb       8.90510816      13.63219869      14.31950988
Sb       8.03849534      15.37300657      12.15354274
Sb       9.22236250      14.13777169       8.30770363
Sb      13.16874030      11.96216377       6.69137571
Sb      10.01083757       8.01134233       9.60666225
Sb      14.56972451       8.08902295      15.13240412
Sb      13.85416583      10.47474959       9.23552194
Sb      10.16056843      15.02792774      19.79388376
Sb      16.26865605       5.80130655      12.22165252
Sb      16.01129088       5.21110675       9.34811930
Sb      13.58262251       6.91768536      12.56686151
Sb      13.58851566      14.56045678      10.22144444
Sb      15.77805822       9.46078228       7.32323709
Sb       8.03736748      13.35830770      18.67756982
Sb       9.26324594      19.17112354      14.77868504
Sb       9.00927085      10.55688815       8.54216737
Sb      14.06758946      15.94883682      12.75482656
Sb      11.78534184      14.85389596      14.44406159
Sb      17.58184689      11.72370674       7.04355815
Sb      10.06241520      16.90421833       8.82739922
Sb       7.54565696      15.08180475      16.35039290
Sb      10.90855878      11.02507738      15.51225658
Sb      17.43626757       7.69664889       8.89017514
Sb      11.36208410      17.41937599      15.76184499
Sb      12.51599972       8.17033521       8.08691005
Sb       7.55673488      11.63530097      10.78135480
Sb      10.09761031      11.33880977      18.24356412
Sb       8.07524737       9.19192503      12.27931343
Sb       7.11048657      17.70282282      13.61151822
Sb      13.53886692      14.47345063      16.76095170
Sb      15.57906761      12.65241466      15.83086391
Sb      12.81338308      16.35365126       8.02503330
Sb      10.31813182       7.37270436      14.32303757
Sb      14.46542974      10.71800336      13.96542914
51
Properties=species:S:1:pos:R:3 config_type=qcd gap_pre_relax_energy=-198.57313715843267 gap_pred_energy=-200.16802109963302 gap_fmax_final=0.0009771107508331444 gap_converged=1 pbc="F F F"
Sb      10.16361671      17.04727924      11.63216703
Sb      14.14230597       8.55318530      12.84665004
Sb       8.30183466      14.77079319      17.35751800
Sb      10.73497380      16.13268229      16.54594430
Sb      12.83366311      15.07904337       8.38425992
Sb       9.85365235      18.01687199       7.28957611
Sb      15.25185036       7.31847939      10.43671755
Sb      11.11082333       7.63050362      10.08624182
Sb      13.17870180      10.90941696      18.94839913
Sb      11.47725272      11.60686984      16.54652954
Sb       9.32138035      11.66913184      14.26974240
Sb      10.88826373      12.15655747       5.64345339
Sb      13.88557679      11.16380264       8.59699798
Sb      10.24885703      14.08320678      12.10167674
Sb       8.65314214       9.03138576      10.67502465
Sb      15.44430952      12.16759030      17.75072394
Sb      16.29142966       9.69625486       9.12601560
Sb      14.15385517      13.59821270      11.45513308
Sb      15.64595228      15.36659607       7.89454498
Sb      16.59984187      16.77859005      10.38909688
Sb      14.60776420       6.60264383      14.98054182
Sb      10.22051704      12.52756780       8.46195525
Sb      16.74870184      13.90720325      10.17164909
Sb       8.40332532      16.91342305       9.40188431
Sb      12.56373343      17.91617592       7.97832359
Sb      10.47717606       8.81796664      16.49527708
Sb       7.12309466      13.20446140      15.24667984
Sb      11.86765276      15.06480950      18.99200213
Sb      14.24885132      14.78939970      17.33342378
Sb       9.99718687      12.86296872      18.70902247
Sb      11.17784779      10.17812079      11.41526935
Sb       8.48794299      10.28698666       8.02311401
Sb      14.25890341       8.21516488      18.65697832
Sb      14.40390701      16.39220828      12.16270159
Sb      12.63293804      18.29557931      10.82543017
Sb      16.12204497      12.34653785      13.26345285
Sb      12.95718839      14.23365524       5.64279648
Sb      12.44199584      14.26757853      15.15690568
Sb      16.96762051       8.02390017      12.66497032
Sb      14.58246103      10.83678959      15.27921705
Sb       8.13252319       9.09006313      14.73378725
Sb      10.48936925       8.33489505       7.27714386
Sb       7.70068526      13.07229078      11.20616517
Sb      10.61015549       8.17676662      13.56897412
Sb      17.65341069      10.64278726      11.53834675
Sb      16.09486274       8.63403297      16.43041967
Sb      15.20318251      12.65591331       6.50255870
Sb      12.65490260       9.92579222       6.26826153
Sb      12.46214716       6.69341712      16.97008597
Sb       7.69305443      15.15193945      13.15318592
Sb       7.85897357      14.18791103       8.53846652
51
Properties=species:S:1:pos:R:3 config_type=qcd gap_pre_relax_energy=-198.88776814996547 gap_pred_energy=-200.4480382617605 gap_fmax_final=0.0009993059811038226 gap_converged=1 pbc="F F F"
Sb       6.82690141       9.05280956       5.90513689
Sb      10.14012798      11.46799239       7.35978223
Sb      12.22740372      15.11489177       7.86580542
Sb       7.20488939      11.70397445       6.95621560
Sb      15.15088231      11.51149137       7.98993024
Sb      16.12497136      15.72151053       9.67278819
Sb      12.87880984       9.42338225       8.02291204
Sb      13.84740780      17.30471405       8.77728213
Sb       9.23864987       8.75273315       7.56050310
Sb      17.04959204       9.49388852       8.84791697
Sb       6.67728942       9.48223119       8.72819670
Sb      10.11414115      16.91848451       8.60339198
Sb       9.63585209      12.72057023      10.06540356
Sb       8.09746394      14.83412352       8.88929165
Sb      17.67904047      12.70559991      10.76069239
Sb      16.37091825      16.58312974      12.38788533
Sb      17.20636917      10.01504669      11.69528337
Sb       7.66823630      14.98779729      11.93789356
Sb      14.92565559       7.49939582       8.81547931
Sb      14.33263415      10.23085472      12.05160193
Sb       7.20451757      12.08875970      11.52061504
Sb      11.44393533       7.55538361       9.84234917
Sb      12.69809978      18.46794266      13.40271241
Sb      12.00706119      16.02392711      10.59979644
Sb       9.34363847       8.39666977      11.68887172
Sb       6.59363997      15.22461463      14.70846217
Sb      14.87028106      13.14036556      10.32289360
Sb      13.81579183      15.84344090      13.99424954
Sb      13.85263039       7.44682774      11.53200444
Sb      14.22723721       9.85982151      14.99687857
Sb      10.92616592      10.38429375      13.04374155
Sb      10.97197001       7.70229045      13.98741682
Sb      18.12091531      10.95924046      15.31287422
Sb       9.94545873      18.59377062      14.24882352
Sb       9.19716244       9.68726214      15.26566919
Sb      12.53772883      12.38017236      15.73894915
Sb      17.94022096      14.29476642      13.18327280
Sb       7.98698605      12.63927906      14.31024427
Sb      16.73042532       8.43197853      15.39053288
Sb       9.31801093      15.97558400      15.28642282
Sb      12.06942092      18.97734150      16.16709382
Sb      15.92740580      12.72795911      14.61608138
Sb      12.87783472       8.53907673      17.26038596
Sb      10.91303190      10.61439135      17.42352440
Sb      10.19317540      14.21544093      13.13706069
Sb      12.51169046      16.15686228      16.80475490
Sb      17.36117686       9.76585110      17.86378249
Sb      15.31885764      16.51737102      16.43131736
Sb      14.64959020      10.20954848      18.83332644
Sb      13.87170237      12.93137167      18.22148692
Sb      16.37688031      13.92365333      17.17089293
52
Properties=species:S:1:pos:R:3 config_type=qcd gap_pre_relax_energy=-203.2956020490992 gap_pred_energy=-205.1218830623238 gap_fmax_final=0.0007779758653925817 gap_converged=1 pbc="F F F"
Sb      19.33796726      12.41027826      14.30312263
Sb      16.88043922      15.49767590      14.67888865
Sb      16.74211276      12.76215115      15.54617725
Sb      18.12249552      12.16189756      11.67077816
Sb      19.18805992       9.80747487      13.05377101
Sb      14.04237424      16.10810561      14.99636635
Sb      14.03731136       9.96580365      16.10291049
Sb      12.70292284      12.46111425      15.57085985
Sb      15.95346209      14.66642566      11.90580813
Sb      15.53689463      11.78102310      13.09113635
Sb      16.48699994       9.02435433      13.83884854
Sb      10.62434378      17.47103536      15.80662372
Sb      10.11035572      14.89771999      14.29757186
Sb      16.32584923      11.03274770       8.81527332
Sb      11.87737841       8.93022973      17.91591545
Sb      10.92748637      11.61923337      17.70772312
Sb      13.86402886      17.82233763      12.70857568
Sb      15.45561314       7.87779316      11.40595785
Sb      10.65793776       7.53351286      15.69717441
Sb      13.12271873      15.04119932      12.48967207
Sb      12.30296609       9.14107191      13.90722901
Sb      14.84334175      10.42271279       6.34515141
Sb      16.01404852      13.88766543       8.95591067
Sb      13.48371211       6.62104433      13.09994511
Sb      11.44638020      19.17027843      13.68281765
Sb      14.04357180      10.21376559      10.37460322
Sb      13.47322384      12.92019126       6.08871072
Sb      10.85772887       6.78780720      11.83392899
Sb      13.06687355      13.75536620       8.83624439
Sb      13.30375736       8.62306634       8.01904531
Sb       9.92226338      15.83662470      11.51264075
Sb       8.09909859       8.81723200      15.86256027
Sb      11.88093792      16.22486120       7.80002079
Sb      10.59933065       4.85159860       9.72283506
Sb       7.95231930      17.95015267      14.74914468
Sb      10.61243963       9.48034604      10.79237966
Sb      10.50427387      11.99061572      13.39993943
Sb       8.68483687      11.64979408      15.65653068
Sb      10.29770564      15.23391422       5.61159149
Sb       6.52132460       8.56532323      13.42714459
Sb       9.08686434      18.48337861      12.14210256
Sb       7.24314482      15.10792375      14.49646288
Sb      10.64865048      12.35879090       5.94780575
Sb       9.10764551      15.47660896       8.29808014
Sb      10.48259925       9.14852446       7.86878277
Sb       7.87815650       5.79894427       9.57040005
Sb       7.19544628      14.97323268      11.61712344
Sb      10.00809651      12.77872015       8.77429589
Sb       9.73601424       6.35884438       7.46285981
Sb       6.27154380      11.43867179      13.67931557
Sb       7.99498754      12.16739699      11.48044918
Sb       7.94221383       8.39566709      10.88304267
52
Properties=species:S:1:pos:R:3 config_type=qcd gap_pre_relax_energy=-202.54524133004358 gap_pred_energy=-203.6563414468737 gap_fmax_final=0.0009656842665706224 gap_converged=1 pbc="F F F"
Sb      10.87376709      11.00715670      16.68264486
Sb      12.58266607       6.50496296       9.20904571
Sb      15.21300147      11.85130336      10.59533810
Sb      12.22141081      14.54219076      16.82923311
Sb      16.43315742       7.69147931      13.81395673
Sb      13.81716232      12.59328772      18.36545675
Sb      16.23255342      13.81928994       8.71215531
Sb       6.52033381       8.56870310      12.83806509
Sb       8.82440961      13.41777407      10.24314659
Sb       9.56088364      13.53589995      16.19868030
Sb       5.82458277      16.80878413       9.37695796
Sb      17.95838193      10.72387684      10.78135291
Sb      13.80280310       8.96750733      17.16378522
Sb       6.44473085      14.78918582      11.32951744
Sb       9.35500440      16.94600860       7.11651233
Sb       8.41430130       8.57739597      10.61826637
Sb      15.96370994      14.55780830      18.13357542
Sb      12.46279851      12.66843821       7.55061397
Sb       7.43385003      11.01960863      14.02431337
Sb      10.85108246       9.13094063      12.18414856
Sb       8.09507419      16.18324795      13.28013684
Sb       6.70574676      15.75840043       6.81076899
Sb      16.20326047      15.92434871      15.61562412
Sb      10.28542547      14.28664411      13.46847976
Sb      14.38378966       6.13374234      16.97968212
Sb      11.34897486      10.50046404       9.12126386
Sb      18.92288682      13.04458278      12.21831875
Sb      18.34443908       9.79272310      13.51317415
Sb      13.31584234      12.11435195      15.59809085
Sb      12.15185723      13.21146286      10.36888477
Sb      14.14680854      10.32746588       8.39268568
Sb      16.53408600       8.00991038      16.67137012
Sb      14.86717585      16.36263375       9.17357573
Sb       9.30751626      18.43174316      11.93671666
Sb       7.28499475      11.04661711       9.52418594
Sb       8.99416822      14.13351364       7.44996979
Sb      13.76610850       5.32373307      11.54386870
Sb      12.01870403      16.08388261       9.46157396
Sb      17.99890456      15.20200105      10.50886763
Sb      14.73965691       7.90407380      10.62427972
Sb      18.05059456      13.80661329      16.30865844
Sb      16.89416853      12.27598581      14.14644948
Sb       8.15132426      18.47817431       9.28909868
Sb      11.01499128       6.28882571      11.60235861
Sb      12.13336673      17.94349745      11.59960432
Sb      12.21459515      16.37124201      14.02223566
Sb       9.65448726       9.07776008      14.83772577
Sb       5.50312670      11.03794753      11.81321508
Sb      15.94481152      16.75520789      11.81843770
Sb      12.59890147       7.48882766      14.99133177
Sb      14.10477092       9.29018971      13.17290443
Sb      14.62083724      14.78057059      13.46168291
52
Properties=species:S:1:pos:R:3 config_type=qcd gap_pre_relax_energy=-202.34116173991694 gap_pred_energy=-204.24202845510715 gap_fmax_final=0.0009455857254939477 gap_converged=1 pbc="F F F"
Sb      10.90112674      13.24296728       6.52726382
Sb      10.39005162      15.81635877       5.20696183
Sb      14.09115912      16.03743495       7.03640612
Sb       7.99585616      15.11344172       6.68003783
Sb      13.15211872       8.96111386       7.87802210
Sb       9.52148744       8.85654716       7.69269970
Sb      13.84150266      13.16534777       7.21938997
Sb      13.20348600       7.67943216      10.47139470
Sb      15.36179165       9.47258252       9.69043703
Sb      14.78935291      15.94259360       9.88311286
Sb      13.04856597      18.02081607      10.81818046
Sb       8.19200321      12.55627569       5.35646671
Sb      11.45288501      17.03847809       7.61256441
Sb      11.23519905      10.81887244       8.98416137
Sb      10.00928994      14.71409023       8.84335376
Sb      17.20055411      12.13676147      11.77980689
Sb      11.33054429       9.60015413      11.66290906
Sb      13.06601168      13.57931906       9.94488787
Sb       9.26359479       7.91003737      10.45877398
Sb       7.18511852      10.57543001       7.23970700
Sb      19.19729148       8.17144402      12.82872430
Sb      14.35464634      11.45043568      11.52977324
Sb      18.39085547      10.71998384      13.99889758
Sb      16.97860320      14.34856740      13.58538415
Sb       7.61863636      15.27052603      12.22311719
Sb      14.65714418      17.79829816      13.25350749
Sb      14.20681897      14.93519322      13.20166996
Sb       8.03627595      12.00392721       9.56378126
Sb      10.91630022       5.69386281      13.35684644
Sb      12.40455682      17.76422299      15.07881084
Sb       6.89259794       9.60855599      10.67775060
Sb       5.97682105      13.09232206      11.27703318
Sb      18.22325450       6.65766943      15.07002008
Sb      10.92883181      17.29195989      12.68817367
Sb       6.66510386      15.34634739      14.91694076
Sb      13.27182841       6.86511112      14.53897916
Sb      15.72781772      12.71381251      15.84177474
Sb      10.30645817      14.36990422      12.95227301
Sb      13.66330882      10.83834667      15.08801016
Sb      10.63976872       7.98185635      15.05129897
Sb      16.47052011       7.15774285      12.91215317
Sb      16.38846088       8.98962208      15.17604783
Sb      13.80590798      15.15450657      16.06412140
Sb       6.47241010      10.99653761      13.19701980
Sb      11.89347375      13.09860707      16.38761869
Sb       9.09202706      11.57017135      14.05022194
Sb      11.33570380       5.44278874      16.15148543
Sb       9.53913913      15.26480859      15.65793308
Sb      13.81497620       9.94122872      17.87065201
Sb      15.54157066      12.03775527      18.75293740
Sb       7.80678794      13.01236837      16.17694929
Sb      12.71211840      12.33517698      19.05527127
53
Properties=species:S:1:pos:R:3 config_type=qcd gap_pre_relax_energy=-207.03926172579096 gap_pred_energy=-208.1794094760223 gap_fmax_final=0.0008876832351882561 gap_converged=1 pbc="F F F"
Sb      15.50896011       6.04955585      15.01737826
Sb      16.22845283       8.29778460      16.70887364
Sb      12.65124009       6.33914405      15.29508327
Sb      16.85722369       8.31451037      13.88678604
Sb      14.67589985      11.30945660      18.71903293
Sb      16.56986490      14.53104496      16.43350591
Sb      14.32860813       5.61719721      11.23975745
Sb      16.58600835       9.45579287      10.27334913
Sb      15.61458971      12.76424600      14.19706363
Sb      13.93478641       8.26916182      10.02005785
Sb      14.83577219      16.28366889      14.97526066
Sb      11.92393764       8.19745859      13.21152225
Sb      12.07103229      10.23662920      18.25014091
Sb      14.91114621      10.00384663      12.59298683
Sb      10.66327922      12.73948558      17.86514367
Sb      15.33076223      15.03589211      12.38726216
Sb      14.50554484      14.17287223      18.37804590
Sb      11.83590985       5.37154206      12.67560427
Sb      14.05490448      10.19675137      16.11456827
Sb      13.45248251       5.82792187       8.48595607
Sb      15.64108273      11.15898716       8.12354632
Sb      12.71994766      12.54817575      14.29318632
Sb      15.25342325      13.98837640       8.73051733
Sb       9.41731610       8.46389932      14.62979402
Sb       8.32330841      12.35509304      16.23948102
Sb      14.94476636      14.12643633       5.81264655
Sb       9.32871696      11.24852819      13.79430828
Sb      10.67483819       6.68090745       8.46649136
Sb      12.49417180      14.64965637      16.30378884
Sb       9.88188057       8.61189048      10.45356022
Sb      12.23863978      17.59070203      12.60735844
Sb       6.78583353      10.64779791      12.54908452
Sb      12.30105542      14.37748500       8.77371725
Sb      12.11376615      14.53068024       5.73836524
Sb      10.19540593      16.53947627      16.70924940
Sb      12.78451757      10.84113083       8.08714296
Sb      12.47391079      14.71405317      11.98272097
Sb       9.40219940      12.52160225       8.80050221
Sb       9.30024334      14.68706332      14.71977285
Sb      13.18040562      11.88440593       5.35620126
Sb       6.78478147      11.49704604       9.74350767
Sb       9.87787063      17.94551724      14.20542829
Sb      11.45109668       8.71675230       6.53592145
Sb       7.78130215       7.91241666      12.26674730
Sb      10.48825467      18.35264646      10.45633336
Sb      11.66504323      17.14420170       8.08304853
Sb       9.13178236      16.81132974       6.72556690
Sb       7.69617637      16.43142693      12.99362675
Sb       7.86086749      14.24412774       7.09289130
Sb       9.09326353      10.47234520       6.68115951
Sb       7.61141328       8.94674356       8.64044094
Sb       9.24871762      15.75759901      10.68353269
Sb       7.17467804      16.44861973       8.85406338
53
Properties=species:S:1:pos:R:3 config_type=qcd gap_pre_relax_energy=-207.01216753128912 gap_pred_energy=-208.73224162224298 gap_fmax_final=0.0009905620622268601 gap_converged=1 pbc="F F F"
Sb      17.44140014      10.34477811       8.33743888
Sb       9.82301102      14.93024570       6.60695050
Sb      10.53226996      10.91032865       7.24134688
Sb      16.50669994      13.07216798       8.61929864
Sb      12.06889505      13.14869237       6.19938859
Sb       8.27367180      12.69075070       7.67683725
Sb      12.24528903       7.85876613       9.44372059
Sb      19.34471552      12.46397452       8.76741749
Sb      13.04931634      14.49864668       8.69353717
Sb       8.77582507      15.16119241      10.86754128
Sb      10.86708095      16.33848448       8.91094998
Sb      17.72752678       9.98563494      11.22970988
Sb      10.91767937       8.81964244      11.88149385
Sb      18.06697435      14.08223092      12.66053671
Sb      15.14211269      15.98813478      10.88602092
Sb      16.01231679      12.51235240      11.39990317
Sb      10.16446266      12.13814408       9.83794049
Sb       8.63243767       9.78853925      10.39989293
Sb      13.03642355      10.39788364      10.62516344
Sb      14.23797129      18.64867294      10.03144454
Sb      13.23246516      13.85447885      11.61392392
Sb      16.92854554       8.51360457      14.17463797
Sb       6.04197431      14.85930209      12.19452732
Sb      19.83242689      12.02300066      11.61375623
Sb       8.90549127      17.87327985      11.90635585
Sb      14.86217506       8.10092903      10.71742910
Sb      11.52085363      17.00566466      12.78018672
Sb      12.43139836      19.62435396      12.02814981
Sb      15.23676893      19.58437432      12.57193034
Sb      12.88945464       9.03394381      15.03750776
Sb       7.15523111      16.81643970      14.02253115
Sb       7.28766008      12.88032608      13.85858057
Sb      16.12945531      16.88491106      13.45613187
Sb       7.27104721      10.11427163      12.94516208
Sb      10.00158066      13.73880943      13.20394273
Sb      15.63252946      11.03675770      14.61457328
Sb      17.96391913      12.63916677      15.18240700
Sb      14.24888151      15.07502423      14.68007219
Sb      10.74147320      17.72839341      15.44232009
Sb      13.19187120      16.79273200      16.68677104
Sb      14.48189873       7.15130509      13.40231136
Sb       9.08487265      15.34954590      15.53204483
Sb      10.34134334       7.74213026      15.45202886
Sb      16.25566712      14.50437781      16.63569179
Sb       9.73332374      10.42498039      14.48431106
Sb      12.30006104      12.20044106      16.37871939
Sb      16.48464894       9.49209911      16.92076354
Sb      12.07153759      14.56694044      18.16025594
Sb      14.26199039       7.66908802      17.14703234
Sb      11.31552936      10.96834947      18.79687030
Sb      10.06149746       8.42431370      18.23943296
Sb      14.39422201      12.89355465      18.26872908
Sb      12.69574049       8.50746264      19.38799381
53
Properties=species:S:1:pos:R:3 config_type=qcd gap_pre_relax_energy=-206.15436639964238 gap_pred_energy=-207.91378147207044 gap_fmax_final=0.0009384927867581237 gap_converged=1 pbc="F F F"
Sb       7.56281012      17.17533560      10.78799176
Sb      10.57262770      10.97800513      15.29072482
Sb      15.47180555       8.53786989       8.38267207
Sb      15.27146317      17.43185792      15.15897117
Sb      12.86052667      14.52308757      17.70461907
Sb       8.07322716      12.35999026      15.20933315
Sb      12.18901873       8.07967052      13.80909036
Sb      13.95651518       6.53389610      15.44162576
Sb      16.15462954       8.21433846      14.43230605
Sb       6.33482407      16.31398855       8.18042001
Sb      11.97150172       5.68176501      12.24074946
Sb      15.49158174      11.56063341      16.71298543
Sb      13.54095588      10.46133740      18.62451946
Sb       8.63239087       8.40866458      12.37809262
Sb      17.22654227       9.66463996      10.95035411
Sb      11.31704016      16.04969917      15.62970945
Sb       9.78780962      17.24110586      12.99273833
Sb       8.73756353      12.86713787      12.44658294
Sb      16.17017980      17.20152368       8.85878797
Sb      13.38288325      16.56148677       9.11364995
Sb      10.55032905       9.45806910      10.45843483
Sb       8.86670115      14.79997589      16.51051210
Sb      13.77051487      16.73563901      12.82855900
Sb      13.75494770       6.10364236       8.69136715
Sb      16.91780998       9.05238887      17.16773489
Sb       6.62317305      14.74073853      12.08566769
Sb      12.70612765      13.56399044      15.00154248
Sb      10.68294193      10.63064442      18.10732861
Sb      11.54586950      13.33119874       6.72777284
Sb       5.70452759      13.74488445       9.26230453
Sb      12.67406363      15.98774658       6.35693490
Sb       7.84582623      12.47347101       7.84861156
Sb      10.45378406      13.41892422      18.79595796
Sb      14.47272002       7.78348164      18.06338580
Sb      14.40999700       9.32016918      10.95301972
Sb      11.07481034       6.72345365       9.67343101
Sb      15.11427499      14.82406178       7.40870207
Sb      14.66624422       6.46868840      11.40110648
Sb      10.01230335      13.81562058       9.12481908
Sb      15.28702637      14.66637572      14.28506338
Sb      17.43654284      12.02895737       9.25446902
Sb       7.92195613       9.92252940       9.23242131
Sb      14.48803321      10.63322805      14.10133048
Sb      15.75707944      11.19071569       7.03770351
Sb      16.27208371      18.09975932      12.49124084
Sb      16.99827453      11.71715953      13.12192684
Sb      13.70729596      12.45615897       8.53342208
Sb       7.52305720      16.55790198      14.39705652
Sb      17.46680874      15.86639657      11.06126930
Sb       9.64523167       8.25285534      15.13400800
Sb      15.76107463      13.49540121      11.16091675
Sb       6.93054896      10.72856368      11.83519392
Sb       9.18505786      16.49410891       8.47379570
54
Properties=species:S:1:pos:R:3 config_type=qcd gap_pre_relax_energy=-211.35192534809036 gap_pred_energy=-212.57000543106957 gap_fmax_final=0.0009518098006495339 gap_converged=1 pbc="F F F"
Sb      18.44426079      13.76122292       9.07193830
Sb      14.40116827      13.31255860       8.14297564
Sb      17.08750177      11.18554859       9.30593975
Sb      16.09453846      15.53431237       8.93979433
Sb      19.77455985      13.66750526      11.61270688
Sb      18.24327885      17.25068277      11.59828794
Sb      14.38606414       9.31832383      10.96390337
Sb      14.77368882      12.14612798      10.74961263
Sb      11.78379847      14.54849214       8.31441120
Sb      18.29904021       9.47734484      11.33233553
Sb      20.06183256      15.90204641      13.40954045
Sb      14.99269077      18.70206107      11.26007990
Sb      12.04784023      16.86890734      10.01222437
Sb      16.16843082       9.30527718      13.26695607
Sb      20.45902748      11.01717291      12.53634866
Sb       9.52144628      15.70695116      10.84651394
Sb      15.70961566      15.89929522      11.77292181
Sb      10.11827394      12.94317395      10.02189891
Sb      16.77149728      12.11509739      13.57814165
Sb      18.03110334      15.32119644      15.36341244
Sb      11.67040833      12.27388000      12.35730046
Sb      11.64212566       9.42582099      12.04966994
Sb      18.95665285      10.94219415      15.02911156
Sb      12.93652604      20.22078320      12.76885894
Sb      11.55837366      15.85250762      12.87017323
Sb      19.89881386      13.31944456      16.34820761
Sb      17.08166065      19.43518501      13.12913223
Sb       9.12967745      12.13292467      13.71360290
Sb      14.31262253      20.74393106      15.25435049
Sb      15.69525880      12.92059030      16.25515696
Sb      11.93092359       8.72844885      14.81356954
Sb      17.52023387      19.24586190      17.10779200
Sb      16.17310460      10.30175921      17.36568338
Sb      15.59567276      18.17056404      15.29494387
Sb      12.62292955      11.29056373      16.09864975
Sb      18.72898709      16.69729629      17.81027007
Sb      10.63423798      18.53559659      13.19829763
Sb      17.74997308      12.56827135      18.28998053
Sb      11.99365979      20.64759979      16.98906324
Sb      13.57178756      10.51748342      18.74061635
Sb      10.66497755      18.28668045      16.09147838
Sb      12.82710423      16.52416463      16.94935303
Sb      16.15013012      16.26003757      19.35460716
Sb       9.40966941      14.77069278      14.92335827
Sb       9.86001423      10.40151504      15.91663096
Sb      15.71115752      19.98095265      19.26907260
Sb      16.68070359      18.26133356      21.33196086
Sb      13.86345681      13.38299851      19.05274732
Sb      10.97296278      13.96822371      17.14214911
Sb      16.09719305      13.78423450      20.84152280
Sb      13.04644203      18.81739782      18.90423137
Sb      10.81092705      16.20518134      19.02171484
Sb      14.47526217      16.10682856      21.83307900
Sb      12.06117705      14.50021900      20.98818509
54
Properties=species:S:1:pos:R:3 config_type=qcd gap_pre_relax_energy=-210.1571062060543 gap_pred_energy=-212.2894707160053 gap_fmax_final=0.0008504248364783341 gap_converged=1 pbc="F F F"
Sb      13.61496116      17.15633372       5.24653658
Sb      10.27867101      13.94024422       5.14229625
Sb       9.42241401      16.40961369       6.36806806
Sb      13.18219118      14.28561040       5.30336818
Sb      11.02676940      18.37598818       5.00241111
Sb      15.90314498      11.46719170       8.14685304
Sb      14.03477880      18.50050517       7.82212523
Sb      14.38134345      10.07648630      10.22453305
Sb       9.37747558      13.05838381       7.75532375
Sb      11.08439455      15.39645708       8.60059524
Sb      11.77536320      20.20450123       7.12453496
Sb      16.89554303      13.18552933      10.22284868
Sb      13.96662533      13.67927257       8.15910830
Sb      16.64548018      10.26376007      12.51480935
Sb      12.51886028      12.35260643      10.58347839
Sb      11.12225626      10.86754981       8.46438478
Sb      15.76120095      15.71175198       9.21965756
Sb       8.94317837       9.95258757      10.11598077
Sb      12.69247933       7.62982781      10.03345264
Sb      15.19146243      12.74603965      12.57752889
Sb      11.54571481      18.30884502       9.34265915
Sb      10.59759482       8.36414422      11.92244051
Sb       7.50739017      16.13779942      12.37402009
Sb      14.48673953       8.76355676      13.80804748
Sb       6.56767781      13.44578136      12.79224206
Sb      11.96894317      10.64852414      13.22177247
Sb       9.10184073      11.97635135      12.21153651
Sb      13.21341588      18.55613891      11.68336540
Sb       7.85191117      10.42094476      14.32805449
Sb       7.27914888      12.97832475      15.53278752
Sb      14.47102519       6.51114342      12.01873691
Sb      10.10294847      15.14370874      11.47636098
Sb      13.96372949      15.81754135      11.47175195
Sb       8.58957990      16.84805180      14.93256544
Sb      16.73642142      14.12747748      14.59828438
Sb      16.50002868       7.98022090      15.82608405
Sb      12.33290226       7.08655594      15.45478381
Sb       9.80055595      14.41246224      15.88728300
Sb      13.52380229      11.65473204      15.78732893
Sb      11.18585579      17.06054747      13.38672891
Sb      12.47480523       4.94603921      13.37179403
Sb      12.09522486      14.27061839      13.96433500
Sb      15.79232790      16.66409366      13.58085804
Sb      17.89360018      10.42544179      15.26199175
Sb      10.29934649       9.71057191      15.71592284
Sb      14.10266690       4.76180115      15.72758705
Sb      11.27750363      11.65925163      17.61322094
Sb      14.32974491      15.32445058      15.66792940
Sb      15.79253149      10.37995955      17.21329930
Sb      10.01548480       5.63977421      16.64409301
Sb       8.96963761       8.02626809      17.81949102
Sb      13.32020803       7.63387117      18.34524874
Sb      11.13791324       9.18843204      19.28265814
Sb      12.36907201       4.88222100      18.12272907
54
Properties=species:S:1:pos:R:3 config_type=qcd gap_pre_relax_energy=-211.09654525597804 gap_pred_energy=-212.59141186405347 gap_fmax_final=0.000985829219469102 gap_converged=1 pbc="F F F"
Sb       6.71577002      14.86063275       8.29337646
Sb      18.79912624      14.95395719      10.25498012
Sb      16.12367776      14.06372180      11.14019217
Sb      13.88359456      18.29060483      12.39835882
Sb      12.22569265      16.40927278      10.86616626
Sb      16.56999839      12.00789778       9.12850827
Sb      13.73999984      14.32670661       9.52411786
Sb      20.01338985      16.15309332      12.62310025
Sb      14.61558344      10.13565986      10.13496963
Sb      17.53752471      19.35807882      13.15559815
Sb       8.93982192      16.27501867       9.50866868
Sb       5.60898771      14.56238556      10.99797262
Sb      20.19696815      12.68232086      11.36922885
Sb      18.48300906      10.41822320      10.60002522
Sb      12.35391604      11.95043302      10.58437991
Sb       7.34335642      12.28759121      11.14362932
Sb      11.51049426      17.87560301      14.04896770
Sb      17.59033008      16.60016508      14.21245980
Sb       7.87807907      12.83695526      13.90436048
Sb      20.36896520      19.13369518      12.65425036
Sb      13.39472662      15.72063665      13.47109962
Sb      15.72092378       8.06993151      13.71797287
Sb      16.29429699      10.63693945      12.50662242
Sb      20.73954578      19.35979406      15.52833636
Sb       7.48246247      16.55819629      11.99953302
Sb      18.81296372      13.28532005      13.82276775
Sb       9.10900602      13.44167526       9.14477570
Sb      18.29497107      20.86329613      15.51093051
Sb      12.98183771       8.98620168      13.95528527
Sb      12.73545322      11.88288300      13.46448644
Sb      18.52891011      10.62532725      14.99336846
Sb       9.42048120      15.27059988      13.79883358
Sb      10.12057430      11.19767234      14.63432496
Sb      16.08810517      11.71589762      16.13132150
Sb      20.38862885      12.61196769      16.14338884
Sb      15.58319126      16.00233434      17.83021335
Sb      14.96566068      18.05768204      15.87569848
Sb      14.72382608       9.04971693      16.24592191
Sb      19.57743441      16.75636798      16.26398433
Sb      12.26891017      18.59106371      16.76488946
Sb      18.05515389      13.87793634      17.38341438
Sb      13.13745868      13.93953907      16.87822858
Sb      16.47401467      19.84112593      17.55777079
Sb      10.44598959      12.70483385      17.10094740
Sb      17.89754701      17.63428975      18.69110407
Sb      11.59551343      16.07403041      18.05178869
Sb       9.10929800      15.20589948      16.65734182
Sb      16.30204123      11.42671763      19.03293357
Sb      13.67685163      12.52497065      19.44441910
Sb      18.30743815      13.11934920      20.14808834
Sb      14.21689267      17.22549815      20.02230548
Sb      16.73432333      17.47513470      21.51993570
Sb      16.66636978      14.65194158      21.99210212
Sb      13.84961717      14.63191681      21.37125843
55
Properties=species:S:1:pos:R:3 config_type=qcd gap_pre_relax_energy=-214.7025727089169 gap_pred_energy=-217.036599981144 gap_fmax_final=0.0009071750122534868 gap_converged=1 pbc="F F F"
Sb       7.91359728       9.29775916       6.65965812
Sb      14.15440939      14.48821133       7.88891660
Sb       8.35872284      12.08666151       6.98789182
Sb      10.60391092       8.44635809       7.46344011
Sb      11.93366425      10.99780346       7.31870267
Sb       6.35042090       8.77085057       9.00367431
Sb      15.89294900      12.27486828       7.53322860
Sb      11.40037006      16.40302139      10.04911454
Sb      16.26364332      16.38024111       7.61641943
Sb      10.21361995       7.88348385      10.24450938
Sb      15.45830684      18.54929800       9.34887597
Sb      18.33527261      15.25146333       9.29714100
Sb       8.10221502       9.61851301      11.09126859
Sb      12.58808314      18.88925218       9.22829062
Sb       8.82383232      12.15173203       9.87181141
Sb      17.73391940      12.44652142       9.77242906
Sb       5.63619558      13.00278613       7.37892599
Sb      14.27912860      10.14983708       8.71724855
Sb      12.19803385      11.68010544      10.12010248
Sb       4.58003524      11.05801195       9.18008143
Sb      18.04895496      16.33639301      11.94316975
Sb      15.74335798      12.67155315      11.80639924
Sb      12.35172295       9.14516267      11.60730727
Sb      11.79802382      18.31653801      12.15060451
Sb       6.13545025      13.25856951      10.24801528
Sb      10.23925137      13.99303229      12.58041080
Sb      15.26316889      17.14826474      11.79879283
Sb      13.81076820      14.82349799      10.71890537
Sb      18.73636343      10.17932945      12.72694108
Sb      13.31813671       9.68039007      15.64351364
Sb       9.07481345      18.46602275      13.29388762
Sb       7.93862346      12.38424915      13.49745271
Sb      10.92375653      12.88938745      15.42421429
Sb       8.02978358      15.95034440      12.33863440
Sb       6.76345417      14.82667760      14.65419595
Sb      19.44695838       8.09583935      14.68539597
Sb      16.89015006       6.75253206      14.43195085
Sb      12.17650056      15.85607526      13.97536515
Sb      16.00549380       9.40039968      13.60552292
Sb      11.00338876       8.71476875      14.18450573
Sb      16.99837833      14.29890727      13.72500817
Sb      18.90585162      12.32962508      14.63066331
Sb      13.70218568      13.95096789      16.19744181
Sb      10.50870341      17.52991815      15.59892127
Sb       9.14801107      10.58591351      15.44009189
Sb      16.78844198       6.91984025      17.27962666
Sb      13.96365463       7.63305145      17.56856749
Sb       8.36143648      15.98257324      16.75063662
Sb       9.71206315      13.75125995      17.90534721
Sb      18.47948362       9.26259819      17.15971390
Sb      16.61542353      11.07551635      15.93939078
Sb      11.93547498      10.62563933      18.11612702
Sb      13.88709333      12.61834375      18.80562329
Sb      12.24231438      15.02935533      18.42492825
Sb      13.73608129       9.19373290      19.87404565
55
Properties=species:S:1:pos:R:3 config_type=qcd gap_pre_relax_energy=-215.3773350241265 gap_pred_energy=-216.6397670683002 gap_fmax_final=0.0008132714940799536 gap_converged=1 pbc="F F F"
Sb      13.44081572      10.47158259       5.40174553
Sb       6.97506549      11.02619516       6.96939990
Sb      10.84129152       9.49320894       6.10610941
Sb      14.73791660      15.08494745       7.04080368
Sb      13.14888705      12.66139618       7.36923626
Sb       8.60679206      14.44453556       6.05012782
Sb      15.05383274       8.77547131       7.14181658
Sb      10.62082908      15.66404944       7.87006520
Sb      11.28499933       9.50320247       8.96026859
Sb      17.56121341      11.77188469       8.14116189
Sb       6.42600789       9.54816775       9.35950621
Sb      17.19591580      14.64065206       8.45431997
Sb       9.67099593      12.00280116       7.21260714
Sb      11.49387910      18.08874444       9.23707734
Sb      13.15941825       7.28426237       8.75200812
Sb       8.91237755       8.35212184      10.18058741
Sb      13.60603657      16.12596071       9.64440973
Sb       6.60212050      13.70308748       7.98825573
Sb      14.93563740      10.99924148       8.94334492
Sb       5.74436907      11.90243164      11.34117208
Sb      11.47926730      14.08347574      10.08398516
Sb       8.11313486      13.29550769      10.57262004
Sb      15.13103083       7.32535017      10.87607233
Sb      18.20349911      11.64914882      10.98982066
Sb      16.20647162      13.73358049      11.01675554
Sb      14.18849127      16.66452773      12.64186987
Sb       9.44460269      10.09657089      12.46484792
Sb       6.74380825      10.10534664      13.41891763
Sb       8.89899479      13.74462619      13.62589689
Sb      16.41987671       6.71003548      14.90922151
Sb      16.77523694      15.49242859      13.25517457
Sb      15.97147534       9.96750960      11.92977189
Sb      10.40683877      16.48931075      11.42524138
Sb       7.56700009      16.13724379      10.75269373
Sb      12.88246268      14.00728390      13.26596173
Sb      18.06409972       8.54400104      13.40290845
Sb      11.93458597      16.38046408      14.52041583
Sb      10.22894263       7.88175822      14.17970431
Sb       6.88092830      12.42662743      15.20472637
Sb      13.94479865       6.36568967      13.36457136
Sb       5.02928449      13.92972547      13.60996039
Sb      12.95883311       8.90012121      14.38540778
Sb       7.03389123      16.00889719      13.57719343
Sb      15.43387329      13.23165312      14.48066623
Sb      12.51746560      15.49476917      17.29716479
Sb      16.11889735       9.53402385      15.41922806
Sb       9.33267629       9.81641577      16.14732213
Sb      11.11266360      11.84692482      15.01698479
Sb      10.34649652      13.53411294      17.28081842
Sb      13.06230840       7.82832959      17.12980603
Sb      14.98886194      14.04104061      17.21367630
Sb      15.18851196       9.43441305      18.24798629
Sb      13.57522477      11.53797591      17.11605329
Sb      10.84704077       9.13409005      18.53279288
Sb      11.71063635      11.84368887      19.24035173
55
Properties=species:S:1:pos:R:3 config_type=qcd gap_pre_relax_energy=-215.27472413899724 gap_pred_energy=-216.99267062694182 gap_fmax_final=0.0009777441030911467 gap_converged=1 pbc="F F F"
Sb      10.49034592       9.88573638       6.84476198
Sb      11.60708843      12.26605839       5.25758579
Sb       9.46877196      13.83009114       6.35608173
Sb      13.21058239      12.84848388       7.57137809
Sb      13.57604163      15.49973526       6.49318301
Sb       8.36956447       8.30477380       8.45729863
Sb      10.90166754      16.15096853       7.41121169
Sb       7.02828763      10.79346803       8.93620609
Sb      12.54762152       9.87355841       8.84400609
Sb      16.01823087      12.42587264       7.10234363
Sb      16.56865746       9.68163987       7.86654540
Sb       9.60528664      12.03706737       8.64491270
Sb      14.17871849       8.21091145       7.15196542
Sb      14.34006217      16.19707640       9.22164924
Sb      10.45180790       8.44938422      10.43294024
Sb      15.97977944      13.81912080       9.82141184
Sb      14.24385967       5.99769621       8.97760894
Sb      10.37314625      17.76610705      10.81833406
Sb       6.91088641      11.79375866      11.70617541
Sb      11.73660459      15.29602872      10.05521888
Sb      14.60713432      11.63582017      11.11052189
Sb      16.84694342       9.86201347      10.72499748
Sb      11.75377778       5.88982100      10.50923417
Sb       8.00210288      15.89825005      11.21027289
Sb      13.03010307      18.66996931      12.04272844
Sb      15.84707610       7.22449659      11.11088721
Sb       9.32130796      18.22743770      13.52220199
Sb      13.07926086       7.17361260      12.84153790
Sb      11.80447102      20.02743978      14.22355345
Sb      16.98225013       5.94343375      13.47978071
Sb      16.17655207      15.27294193      12.54512547
Sb      10.65426374       9.71688872      13.52081406
Sb      13.43404183      15.94432631      13.00888114
Sb       6.70242844      16.69702892      13.59855878
Sb      15.52702548      12.57603566      13.70850454
Sb      12.69732159      13.01754664      14.15631489
Sb      10.61293078      16.17361353      15.06581331
Sb       7.80662300      10.17039174      13.93319940
Sb      10.52114454       6.93447586      14.19405280
Sb      14.37330090       5.08954096      14.37003503
Sb      14.46508824       9.59836336      14.30601460
Sb      17.19609828       8.65560328      14.39492414
Sb       9.30846952      13.37044323      11.64594124
Sb      11.82028745      10.46900654      16.16234535
Sb      14.42178730      16.60628109      15.66608245
Sb      12.15418537      18.22102904      16.43148295
Sb       6.92899885      14.58687274      15.57827451
Sb      11.46862625       7.60130244      16.84000970
Sb      13.24238159      14.13076733      16.75740951
Sb       8.78409995      16.02156779      17.26014702
Sb       8.95435503      12.70367940      14.74928161
Sb      14.08032422       6.33260343      16.95075548
Sb      15.64054376       8.74984339      16.82624444
Sb       9.51734347      11.66797309      17.41827410
Sb      10.74211084      14.12381337      18.27674993
