3
Properties=species:S:1:pos:R:3 config_type=qcd gap_pre_relax_energy=-10.325094296030317 gap_pred_energy=-10.345131659450583 gap_fmax_final=0.0007357711266349763 gap_converged=1 pbc="F F F"
Sc       7.81658758       8.41863697       6.38536120
Sc       6.80047665       6.76292461       8.28781104
Sc       8.92354593       8.35904858       8.86743792
4
Properties=species:S:1:pos:R:3 config_type=qcd gap_pre_relax_energy=-15.449528424094648 gap_pred_energy=-15.47934671448482 gap_fmax_final=0.0007420316814828761 gap_converged=1 pbc="F F F"
Sc       7.90293447       9.41091615       7.09753217
Sc       8.63455264       7.83875167       9.36769961
Sc       8.59699792       6.65987960       6.76585045
Sc       6.14476496       7.36970257       8.04816777
5
Properties=species:S:1:pos:R:3 config_type=qcd gap_pre_relax_energy=-20.321137987824837 gap_pred_energy=-20.381661785604656 gap_fmax_final=0.0006180618179698088 gap_converged=1 pbc="F F F"
Sc       6.49588616       8.51962150       9.80423535
Sc      10.52842270       8.50460202       7.22004117
Sc       9.41196046       8.55568854       9.91620579
Sc       8.04589958       9.93463294       7.77612326
Sc       8.07882591       7.04644980       7.84438924
6
Properties=species:S:1:pos:R:3 config_type=qcd gap_pre_relax_energy=-25.33557743406548 gap_pred_energy=-25.358911929699463 gap_fmax_final=0.0009030874824067747 gap_converged=1 pbc="F F F"
Sc      10.05504949       8.40297142      10.36602841
Sc       8.90315815       6.62650050       8.16637229
Sc       7.35941919       9.01149815       7.04860025
Sc      10.20307834       9.14300185       7.57167785
Sc       8.51107952      10.78802182       9.24777556
Sc       7.21163282       8.27142380       9.84296314
7
Properties=species:S:1:pos:R:3 config_type=qcd gap_pre_relax_energy=-30.511284133233662 gap_pred_energy=-30.545725722032948 gap_fmax_final=0.0007972030903133901 gap_converged=1 pbc="F F F"
Sc       7.29719801       9.47952521       6.79001809
Sc       8.28964751      11.28192687       8.99895683
Sc       9.95036169       9.06603578       7.99788100
Sc       8.33996903       6.69669385       7.31787552
Sc       9.94611246       9.61280640      10.89098139
Sc       7.58963905       8.47411177       9.54216050
Sc       9.97720842       6.77903631       9.85226285
8
Properties=species:S:1:pos:R:3 config_type=qcd gap_pre_relax_energy=-35.44773119749579 gap_pred_energy=-35.45971603659228 gap_fmax_final=0.0006932401290219281 gap_converged=1 pbc="F F F"
Sc       9.52037077       7.44484894       9.27875966
Sc       9.69574466       8.98676548       6.81165431
Sc      11.57775169       9.52394880       9.15401642
Sc       7.33517010       6.92827735       7.49280216
Sc       6.92670863       7.51292800      10.50391408
Sc       9.13313854       9.79198364      10.96240923
Sc       9.64490664      11.52519068       8.50403901
Sc       7.45892027       9.57876842       8.58511644
9
Properties=species:S:1:pos:R:3 config_type=qcd gap_pre_relax_energy=-40.45546103654377 gap_pred_energy=-40.49323504718383 gap_fmax_final=0.0007306320165632217 gap_converged=1 pbc="F F F"
Sc      10.36736294      10.75350947       8.12927329
Sc       8.43980245      12.12271088      10.09507814
Sc       9.68313887       7.41972036      10.69726224
Sc      11.69257749      12.30824862      10.10157410
Sc       8.07448941       9.25540720       9.04551495
Sc      10.36708080       7.77947024       7.81681180
Sc      10.12320707      10.18820563      11.14384184
Sc      12.29284760       9.12519385       9.65418249
Sc       7.44334458       9.53138498      11.80031239
10
Properties=species:S:1:pos:R:3 config_type=qcd gap_pre_relax_energy=-45.53203008556992 gap_pred_energy=-45.569535595181414 gap_fmax_final=0.0009735450667878086 gap_converged=1 pbc="F F F"
Sc       8.47781151      11.22295883       7.70105483
Sc      10.15488048       8.26035831       7.58751625
Sc       8.93843247       9.51102954       9.78908464
Sc      12.65542281       8.23120351       9.19067612
Sc      11.35189900      10.82120412       8.49351944
Sc      10.33029803       7.27897989      10.77529155
Sc       9.49921792      12.16769483      10.57614777
Sc      11.50898007       9.94258988      11.34699636
Sc       6.75256582      11.23448828      10.44016072
Sc       8.74244632       9.74144728      12.51150679
11
Properties=species:S:1:pos:R:3 config_type=qcd gap_pre_relax_energy=-51.01834007327764 gap_pred_energy=-51.20646596043846 gap_fmax_final=0.0008132683917457801 gap_converged=1 pbc="F F F"
Sc       6.01082008       9.11360122       7.34067946
Sc       8.51472483       7.79281490       6.25299830
Sc       8.79360204       8.79360346       8.79362455
Sc      11.08285559       9.35119731       7.38586171
Sc       8.35331325      11.03880939       7.27749130
Sc      10.06712118       6.36525458       8.67423324
Sc      11.57614792       8.47418053      10.24691930
Sc       6.75488675      10.06101115      10.12408141
Sc       6.91642061       6.81460005       9.09942353
Sc       9.83792177      10.95611558      10.12313484
Sc       8.82170951       7.96833538      11.41107589
11
Properties=species:S:1:pos:R:3 config_type=qcd gap_pre_relax_energy=-50.87183577778205 gap_pred_energy=-51.206465732552005 gap_fmax_final=0.0009294780342398544 gap_converged=1 pbc="F F F"
Sc      10.31256416      10.68618801      11.91395812
Sc      12.22395752       9.99626576       9.17723486
Sc       9.91746243      12.22846130       9.12578024
Sc      11.59765397       7.99426379      11.36762695
Sc      10.48284735       7.10812365       8.69041836
Sc      10.03676774       9.69814408       6.84625891
Sc       8.57204494       7.79828689      11.42697837
Sc       7.45388657       8.14360006       8.43725978
Sc       9.54143672       9.54180175       9.54143282
Sc       7.48582703      11.08935115       7.71548892
Sc       7.33391042      10.67387242      10.71592150
12
Properties=species:S:1:pos:R:3 config_type=qcd gap_pre_relax_energy=-55.54620258972542 gap_pred_energy=-56.36243917202908 gap_fmax_final=0.0009370452169494035 gap_converged=1 pbc="F F F"
Sc      11.27847598       9.67642756      10.44176436
Sc       6.20647257       8.24436081       7.65772402
Sc       6.97851242      11.29047407       8.35204964
Sc       7.52509132       6.34707930       9.89927739
Sc       8.78354277       6.72911221       7.17024206
Sc       9.99784432      11.51842299       8.26458452
Sc      10.52851479       6.71564129       9.76594072
Sc      11.16195531       8.73252706       7.46670050
Sc       9.11153567       8.22141749      11.97986193
Sc       8.77266844      11.27567545      11.02426520
Sc       8.63222482       8.98430968       9.16832173
Sc       8.45570559       9.69709609       6.24181194
12
Properties=species:S:1:pos:R:3 config_type=qcd gap_pre_relax_energy=-56.345166118589496 gap_pred_energy=-56.36244017944036 gap_fmax_final=0.0009679736590580679 gap_converged=1 pbc="F F F"
Sc       9.22831262       9.07167087       8.70591066
Sc      10.10032836       7.62349457      11.20466284
Sc      11.67527540       9.96163148      10.09684889
Sc      11.46483448       7.15157603       8.54163369
Sc       8.63834022       6.11814443       8.88603680
Sc       8.96940302      10.53651267      11.33027439
Sc       6.80783473      10.83113324       9.09000317
Sc       9.58079213      12.00220096       8.75102116
Sc       7.06861607       8.14771463      10.66688850
Sc       9.24030174       7.45532412       6.23545379
Sc       8.07553600      10.45285982       6.36497643
Sc       6.60317721       8.10048917       7.57904167
13
Properties=species:S:1:pos:R:3 config_type=qcd gap_pre_relax_energy=-62.33053514077568 gap_pred_energy=-62.33114634892863 gap_fmax_final=0.00012572042882868362 gap_converged=1 pbc="F F F"
Sc       8.55433281       8.55437387       8.55439403
Sc      10.12233059      11.09109860       8.55446453
Sc      10.12232110       6.01774714       8.55444152
Sc       6.98658132      11.09116114       8.55444523
Sc       6.98654698       6.01771788       8.55442309
Sc      11.09109353       8.55446495      10.12229650
Sc      11.09112142       8.55444903       6.98657673
Sc       6.01774784       8.55444700      10.12233383
Sc       6.01772489       8.55443104       6.98653730
Sc       8.55445834      10.12231885      11.09108945
Sc       8.55448339      10.12232028       6.01776360
Sc       8.55443321       6.98656537      11.09113206
Sc       8.55446004       6.98654035       6.01773760
13
Properties=species:S:1:pos:R:3 config_type=qcd gap_pre_relax_energy=-62.106438315442375 gap_pred_energy=-62.33114522669631 gap_fmax_final=0.000803956842347155 gap_converged=1 pbc="F F F"
Sc       9.69129295      11.90376149       7.71968890
Sc       6.91985444       9.00143493      10.82317094
Sc      12.20760763      10.12499965       8.30330549
Sc       9.43484178       7.22369989      11.40810193
Sc       8.09763639       7.16306012       8.57212857
Sc       9.56403080       9.56320789       9.56220569
Sc       9.81023155       8.95695364       6.65378982
Sc      11.97533586       9.05454090      11.24198168
Sc      11.22208281       7.19557874       8.83165484
Sc       7.15120583      10.07303875       7.88588178
Sc       9.31623896      10.17055991      12.47233645
Sc       7.90529614      11.93096417      10.29675215
Sc      11.02981235      11.96366744      10.55446928
14
Properties=species:S:1:pos:R:3 config_type=qcd gap_pre_relax_energy=-67.2265403351814 gap_pred_energy=-67.24779621834777 gap_fmax_final=0.0006955394104853182 gap_converged=1 pbc="F F F"
Sc       8.71986027       9.12542685       9.03812965
Sc      10.81292836       6.84849659       9.92953883
Sc       5.99991129       8.48116128       9.92649181
Sc       9.84195623      11.80981399       9.40742249
Sc      11.42079514       9.14821199       7.96829512
Sc      10.75234274       9.52868166      11.23101734
Sc       6.55894175       8.88595253       6.94626597
Sc       7.85415361      10.51251530      11.52638303
Sc       8.39414152       7.48553870      11.54960909
Sc       8.18113884       6.34134863       8.40593891
Sc       6.75759537      11.34928766       8.77580468
Sc       8.91714733      10.92909036       6.62769152
Sc       9.27206702       8.02430839       6.06449337
Sc      11.08808955       6.10123508       7.17398720
14
Properties=species:S:1:pos:R:3 config_type=qcd gap_pre_relax_energy=-67.1120611542383 gap_pred_energy=-67.24779493887776 gap_fmax_final=0.0009182507941575956 gap_converged=1 pbc="F F F"
Sc       8.88328257      10.32166149       8.19139748
Sc      11.49340123       8.61962857       8.54207230
Sc      11.59290163      11.54000225       7.95722917
Sc       8.94627420       7.92720132      10.11947778
Sc       9.74860248      13.07913961       9.88950277
Sc      12.81170867      13.70509908       9.39064268
Sc      11.81441249       7.90232215      11.49883718
Sc      13.33517171      10.74110634      10.37230019
Sc      10.47500819      10.40231331      10.75354492
Sc      11.96735570      12.95440481      12.02709416
Sc       7.55997668      10.67409724      10.92707812
Sc      11.94020035      10.30423423      13.38939514
Sc       9.21333625       8.93347045      13.01466385
Sc       9.32902020      12.00597149      13.03741660
15
Properties=species:S:1:pos:R:3 config_type=qcd gap_pre_relax_energy=-71.9727234512851 gap_pred_energy=-72.39526761484714 gap_fmax_final=0.0007227122574326151 gap_converged=1 pbc="F F F"
Sc       9.55685191       9.49358158       7.07121616
Sc      10.36901842      12.24776391       7.69224135
Sc      12.45943453       9.83181483       8.55595452
Sc       7.59346622      11.29417800       8.56234903
Sc      10.29214322      10.32336908      10.31598187
Sc      12.08918527      12.79642530      10.04719815
Sc       7.63864169       8.43178902       9.18662812
Sc      10.42392686       7.27005642       8.76734752
Sc       9.03383270      13.20571330      10.28865022
Sc       9.10316248       7.42395945      11.51618244
Sc      12.11966296       7.76136330      11.11638421
Sc      12.97676955      10.52441128      11.78210617
Sc       7.84515801      10.46214804      11.74057946
Sc      10.53160701      12.22494587      12.67667692
Sc      10.55801407       9.29935554      13.27137876
15
Properties=species:S:1:pos:R:3 config_type=qcd gap_pre_relax_energy=-71.86365199039255 gap_pred_energy=-71.96623053222699 gap_fmax_final=0.0008530177349048073 gap_converged=1 pbc="F F F"
Sc      10.06938361      10.92241740      12.82106867
Sc       9.09121695       7.91845326      12.78390506
Sc      11.82362751       8.69003099      11.57498590
Sc       9.26389785       9.53689089      10.39807626
Sc       8.68942399      12.42356227      10.48509233
Sc      11.70644868      11.45549617       9.92034237
Sc       7.05489904      10.34647569      12.07518217
Sc       9.77960809      11.16003564       7.57443781
Sc      12.64407835      11.34163603       6.86927794
Sc       9.96359726       6.69614584      10.08803846
Sc       6.83189924      10.43209933       8.99984965
Sc      11.65834969       8.91432705       8.23630735
Sc       7.03673540       7.67144652      10.39653338
Sc      10.85472142       9.42293755       5.43851563
Sc       8.75246800       8.28840045       7.55874207
16
Properties=species:S:1:pos:R:3 config_type=qcd gap_pre_relax_energy=-77.37217457751285 gap_pred_energy=-77.5411639049083 gap_fmax_final=0.0009101496251299056 gap_converged=1 pbc="F F F"
Sc      12.23973050      11.72519259       8.95233854
Sc      12.31051061      10.52326397      11.63776872
Sc      12.02464616      14.42569006      10.59116703
Sc       9.16254829      13.80489003       9.46415526
Sc      11.61177559       8.67040702       9.54136834
Sc       9.47914946       9.24458406      11.59738508
Sc      14.48985511       9.29511434      10.70159660
Sc       9.24307216      10.70237055       8.99620919
Sc       7.68164336      11.89174950      11.55123830
Sc      14.41982982      12.42799256      11.15004772
Sc      12.18658657       8.05340351      12.69866030
Sc       9.50539857      14.33104614      12.59763959
Sc      12.40555098      13.16089733      13.27408249
Sc      10.34922646      12.15278645      11.24903090
Sc      13.99566665      10.47386894      13.73517029
Sc      10.59139146      10.81332468      13.95872338
16
Properties=species:S:1:pos:R:3 config_type=qcd gap_pre_relax_energy=-77.25766116309332 gap_pred_energy=-77.3865457472168 gap_fmax_final=0.0009018627053705122 gap_converged=1 pbc="F F F"
Sc       9.85348026       5.93548175       9.62118169
Sc       8.49450897       7.80662458       7.45666893
Sc      11.49458448       8.31533205       7.99776494
Sc      11.88823081       7.90513494      11.07323128
Sc       9.81521653      10.48006631       6.66590696
Sc       9.31274031       8.56577869      10.14408448
Sc       6.91977108       7.27475649      10.13557794
Sc       9.13850834       7.24144177      12.53157158
Sc       7.39365771       9.81752664      11.93804443
Sc       7.59033111      10.51994123       8.84411688
Sc      10.72447218      10.81481585       9.48161709
Sc      12.41048193      11.87140927       7.58727821
Sc      10.40631936      10.30326801      12.42782903
Sc       9.71733272      13.14414670       8.18910180
Sc      11.69617173      13.17629850      10.49547159
Sc       8.74712916      12.43091388      11.01348983
17
Properties=species:S:1:pos:R:3 config_type=qcd gap_pre_relax_energy=-83.40887808237966 gap_pred_energy=-83.44689810069178 gap_fmax_final=0.0009889093656974897 gap_converged=1 pbc="F F F"
Sc      12.63923965       9.47108134       9.78651724
Sc      11.43262344       7.10351904       8.25704677
Sc      10.81980478      10.05189249       7.25220932
Sc      11.72919115      12.47955019       9.59365753
Sc      11.43434630      10.84871631      12.34903576
Sc      10.39831650       7.71934239      11.19426992
Sc       9.05131272       7.22819888       6.20017882
Sc       9.94407704      10.47352144      10.09083013
Sc       8.75634028       5.59746900       8.95455401
Sc       8.90612075      12.40052552       8.20114506
Sc       8.84434237       8.31490211       8.69765181
Sc       9.03406444      12.73065893      11.33010432
Sc       8.44737941       9.86179753      12.48824418
Sc       7.70000538      10.03282782       6.67284007
Sc       7.24045482       7.49469032      10.95913185
Sc       6.35761240       7.47994216       7.93640616
Sc       6.96521166      10.41180763       9.73662016
17
Properties=species:S:1:pos:R:3 config_type=qcd gap_pre_relax_energy=-82.01320152925348 gap_pred_energy=-82.63829672130666 gap_fmax_final=0.0009770326167304448 gap_converged=1 pbc="F F F"
Sc      12.77193689      10.97278632      10.98088091
Sc      12.34899102       8.64277429       9.13937565
Sc      13.53533959      11.75395376       8.32207570
Sc      12.91186016      13.74170276      10.88818138
Sc      12.26941892      11.99334829      13.62369637
Sc      11.50287418       8.81284832      12.63196736
Sc       9.46295997       8.21524175       7.79251271
Sc       9.98514630      10.03524640      10.35204115
Sc       9.99534972       7.03386324      10.50173924
Sc      10.83181689      12.73111329       8.94367462
Sc      11.07355507      10.52956993       7.08048993
Sc      10.16872474      12.85253642      11.76918725
Sc       9.47431794      10.84079926      13.72183800
Sc       8.22571702      11.11958591       8.25725241
Sc       8.31232987       8.44810981      12.54839956
Sc       7.26058158       8.63223005       9.76406150
Sc       7.49867970      11.27388978      11.31222580
18
Properties=species:S:1:pos:R:3 config_type=qcd gap_pre_relax_energy=-88.58621562013047 gap_pred_energy=-88.68253054450926 gap_fmax_final=0.0008764958232181211 gap_converged=1 pbc="F F F"
Sc      13.06446148      14.97030465      11.63534725
Sc       7.89745940       9.31667267      12.46694018
Sc      13.02608074      13.48883069       8.86548919
Sc      10.97592755      10.98071524       8.51203321
Sc      10.69456551       7.89887112      12.65159348
Sc      13.36046588       9.75873563      12.42789785
Sc       8.36701987      12.30922528      12.52860192
Sc      13.92855983      10.61248172       9.36760100
Sc      10.84667454      10.90382922      14.04282446
Sc      15.11721622      12.75500434      11.14978296
Sc      12.33440800      12.24857026      11.32857661
Sc       9.08707100       8.12254700       9.91427585
Sc       9.98247194      13.52152963      10.18236024
Sc      10.24799676      10.33443434      11.25351018
Sc      13.52962017      12.74379527      13.86052709
Sc       7.91469546      11.03424655       9.78779022
Sc      10.76084305      13.90475957      13.29002335
Sc      12.10833018       8.33931437       9.97869251
18
Properties=species:S:1:pos:R:3 config_type=qcd gap_pre_relax_energy=-88.29862541154228 gap_pred_energy=-88.43658687180258 gap_fmax_final=0.0008599564886781916 gap_converged=1 pbc="F F F"
Sc      12.07867129      10.56562903       6.87782319
Sc      12.41606196      12.59910202       9.15240747
Sc      12.45345818      11.77121041      11.89249536
Sc      12.83331575       9.36194113       9.89669160
Sc      10.57837553       7.77800175       7.90943985
Sc      10.40296199      10.58083658       9.10982577
Sc       8.64096715       8.50672508      10.04724849
Sc       9.57208355      12.59454365      10.91711248
Sc      10.43725335       9.69224455      12.03257424
Sc       7.44269873      10.34498721      11.97531100
Sc      10.92590789       6.89178739      10.88578620
Sc       8.21278650       7.30645656      12.48349961
Sc       9.78119110      12.84216207       7.59650857
Sc       9.09293929      10.09562765       6.45840467
Sc       7.37763013      10.94951573       8.91023939
Sc       5.95823713       8.06927833      10.36289192
Sc       7.31007228       7.94737200       7.56372435
Sc       8.21480248       5.83199315       9.65743011
19
Properties=species:S:1:pos:R:3 config_type=qcd gap_pre_relax_energy=-93.5967653876076 gap_pred_energy=-93.71512320739208 gap_fmax_final=0.0009815544179826224 gap_converged=1 pbc="F F F"
Sc       9.04178219       7.66239293      12.97437356
Sc      12.08561310       8.25495092      12.72417654
Sc       7.52972650      10.38093284      12.97260534
Sc      12.45486283      11.33988297      12.56740726
Sc       9.63902286      12.65408446      12.72136866
Sc      12.56765774       9.61525256       9.75722613
Sc      11.05046060      12.34203526       9.75569037
Sc      10.45149349       7.33515082      10.00974342
Sc       7.99725911      11.74774363      10.00700561
Sc       7.62639894       8.65311686      10.16344496
Sc       9.21598364      12.41425548       7.01440600
Sc       7.10684312      10.14155426       7.26598160
Sc      12.03140321      11.10037635       6.86083924
Sc       8.61885997       7.42276414       7.26769340
Sc      11.66249932       8.01544610       7.01721745
Sc      10.27549195      10.12934824      14.48192157
Sc      10.06572338      10.01104642      11.65298736
Sc       9.81151989       9.86617160       8.22476964
Sc       9.60184320       9.74793914       5.39558690
19
Properties=species:S:1:pos:R:3 config_type=qcd gap_pre_relax_energy=-93.72783501351297 gap_pred_energy=-93.87682057525866 gap_fmax_final=0.0009599064714667949 gap_converged=1 pbc="F F F"
Sc      11.11881675      11.88794543      11.72872933
Sc       8.06400043      12.58092720      11.76130308
Sc       8.95673029       9.88922393      12.83384991
Sc      11.64016961       8.77413301      13.27115275
Sc       9.83015158      13.95049363       9.53561953
Sc       6.92776029       9.90000894      10.63386752
Sc      12.03450885      11.60579959       8.58709687
Sc       9.39244439       6.89926043      11.87480104
Sc      10.68018494       8.93551200      10.42264034
Sc      13.44101302       9.91538730      11.04652695
Sc      12.65908177       6.89972792      11.20132445
Sc       9.22046540      11.20883065       9.39822700
Sc       9.27472011      12.38085289       6.84273499
Sc       8.17799932       7.68635814       9.05441272
Sc       6.91350631      12.78675754       8.95399488
Sc      10.75981239       6.28438873       8.99912761
Sc      12.91497732       8.42795866       8.49407481
Sc      10.18908202       9.25894063       7.21769620
Sc       7.19170950      10.11462767       7.52995428
20
Properties=species:S:1:pos:R:3 config_type=qcd gap_pre_relax_energy=-99.35780540042241 gap_pred_energy=-99.38602215335213 gap_fmax_final=0.0009931863557608544 gap_converged=1 pbc="F F F"
Sc      12.20170805      11.69897413       7.83513743
Sc      10.84241826       5.79202194       9.29269725
Sc       9.46279709      10.45889075       6.92606453
Sc      12.87245573       7.37835966      10.90489769
Sc       8.76191397      14.06289860      10.54669433
Sc      10.18893575       8.49927230      10.27589476
Sc       9.73349298      11.42333206       9.64672674
Sc      10.29172163       6.35522761      12.30442688
Sc       7.99256179       6.49259527      10.32133804
Sc       8.33101959       9.01239147      12.44147109
Sc      10.10199720      11.76052102      12.50258232
Sc      11.41229974       9.00633277      13.04979728
Sc       7.18330617      11.67313698      11.34433948
Sc       7.32448718       9.40240607       9.27322872
Sc       7.23978904      12.43583937       8.37824738
Sc       9.04751376       7.46645322       7.61494279
Sc      11.73988661      13.53819583      10.24132446
Sc      12.59779657      10.51990305      10.64861546
Sc      11.94985066       8.61358903       7.97545743
Sc       9.94912422      13.63473484       7.70119195
20
Properties=species:S:1:pos:R:3 config_type=qcd gap_pre_relax_energy=-99.2638268239934 gap_pred_energy=-99.45037949821204 gap_fmax_final=0.0007635765075386403 gap_converged=1 pbc="F F F"
Sc      12.86797324       9.33496887      10.36336431
Sc      12.90817814      11.88606994       8.64632423
Sc      11.50638674      12.05835158      11.55062973
Sc      11.33831842       9.31903899       7.47486742
Sc      11.61135623       9.55156913      13.32972496
Sc      11.88926480       6.78954352      12.11494798
Sc      11.43837701       6.72167479       9.11927665
Sc      10.79627224      12.37096049       6.52795367
Sc      10.04702526       8.74813007      10.87427783
Sc       9.24366659       7.66933913      13.51223414
Sc      10.90332891      14.10952081       9.11458772
Sc       9.99311326      11.29225762       9.16602369
Sc       9.13747603       5.93062823      10.92533961
Sc       8.15151314      13.25133064       7.92558374
Sc       8.70163288      10.72104704      12.56514179
Sc       7.13214694       8.15357651      11.39353084
Sc       8.53405080       7.98201073       8.48977683
Sc       8.42828515      10.48891874       6.71107904
Sc       8.60256548      13.31870644      10.92130642
Sc       7.17222829      10.70551626       9.67718895
21
Properties=species:S:1:pos:R:3 config_type=qcd gap_pre_relax_energy=-104.45230103552001 gap_pred_energy=-104.60220924867657 gap_fmax_final=0.0009599314240063899 gap_converged=1 pbc="F F F"
Sc      10.30436453      12.47599693       7.09651926
Sc      10.58845758       9.56975475       8.53074394
Sc      13.09504949      11.58179336       7.72427587
Sc       8.19143471      11.46280297       8.95450369
Sc      12.22945465      14.43002743       8.69019185
Sc       9.18144526      14.31472777       9.24479570
Sc      14.10957987      12.62533894      10.41186153
Sc      11.10464039       7.47128206      10.77983729
Sc      13.33532244       9.59789798      10.13845770
Sc      11.14184711      12.10568011       9.95540926
Sc      10.14056226       7.75646213      13.61278986
Sc      11.03102668      14.60776478      11.63281372
Sc       8.61844328       9.27142279      11.15870299
Sc       8.73809513      12.39241551      11.82588700
Sc      11.17798750      10.19721992      12.25591520
Sc      12.76624375      12.68713165      13.04678342
Sc      13.06982620       7.88288782      12.99461568
Sc      14.48922754      10.46207152      12.81216169
Sc      10.26766743      12.88977796      14.32754957
Sc       8.78583422      10.31773551      14.21049392
Sc      11.99849862      10.26481673      14.96069950
21
Properties=species:S:1:pos:R:3 config_type=qcd gap_pre_relax_energy=-104.13253769264935 gap_pred_energy=-104.31413696162089 gap_fmax_final=0.0008429147920633166 gap_converged=1 pbc="F F F"
Sc      13.03045120       6.86442159       7.82303434
Sc       9.55699883       9.42914957      13.36040136
Sc       8.47113499       9.66316680       6.99498742
Sc      13.38960448       8.95214861      10.12756465
Sc      12.23640152      11.78018024       9.24129496
Sc      10.45617676      12.22121475       6.94947601
Sc       9.05907995      11.16577832       9.50663411
Sc      11.84456358      11.00369965      12.06453320
Sc       7.15481375      10.08291166      11.67002150
Sc       6.10170281      10.63630517       8.81869913
Sc       6.94856794      13.04982817      10.49317272
Sc       9.14520911      12.30981244      12.34548719
Sc      12.04390092       6.20034271      10.47006328
Sc       7.63061639       8.12592567       9.46299728
Sc       9.94012932      13.86036921       9.69605499
Sc      11.42096185       9.35336206       7.70086973
Sc      12.02823007       7.93998857      12.87405664
Sc       7.64644322      12.90717677       7.54391376
Sc       9.98909149       6.73917123       8.36255089
Sc      10.48189641       8.86257184      10.55448906
Sc       9.22828452       6.65673409      11.74395691
22
Properties=species:S:1:pos:R:3 config_type=qcd gap_pre_relax_energy=-109.70071527659069 gap_pred_energy=-109.87176437647733 gap_fmax_final=0.000804000845474369 gap_converged=1 pbc="F F F"
Sc       8.75642038      10.08392952      13.90296273
Sc      13.84869880      11.22481157      10.53978930
Sc       8.53397248       9.99648689       8.66332599
Sc      10.83845889       7.78358035       9.67480702
Sc       9.19954258      12.94051851      14.00616418
Sc      11.11313500       7.92915198      13.59752672
Sc      12.04869540      12.94341994      12.65613689
Sc      13.47372205       8.06453036      11.35043669
Sc      13.55449460       8.80662363       8.44471987
Sc      13.81204500      10.03093956      13.58852749
Sc       9.63641354      11.80185219      11.19842916
Sc      11.05660914       9.18953036       6.70051178
Sc       9.11299899      14.54378407      11.52738585
Sc      11.48652906      10.02549504      12.00989089
Sc       8.63562441       8.83329670      11.43782008
Sc       7.05343743      11.82803151      11.81741609
Sc      11.36398012      10.58823310       9.06175356
Sc      13.15072308      11.60936533       7.22456477
Sc       8.23666801      13.09335343       9.05337970
Sc      11.33224482      10.89253793      14.94139824
Sc      10.12074011      12.10427162       6.93844188
Sc      11.46375366      13.51516396       9.49351866
22
Properties=species:S:1:pos:R:3 config_type=qcd gap_pre_relax_energy=-109.49449238491943 gap_pred_energy=-109.77766191858169 gap_fmax_final=0.0009227994583297454 gap_converged=1 pbc="F F F"
Sc      12.30092334       8.83291972       9.57135274
Sc      12.25327370       7.07035109      11.91015583
Sc      14.12472190       9.65394824      11.85620320
Sc      13.67032806      11.38597790       8.85025277
Sc      10.66743882      10.37249359       7.64548597
Sc       9.61147322       7.91790359      10.56754300
Sc      12.70099633       8.53915317      14.47429331
Sc       9.83086109       7.58108591      13.61795791
Sc      13.67967364      12.59815301      11.63497843
Sc      11.69940963      13.23125250       7.16659546
Sc      11.17169715      10.01517582      12.17531602
Sc      13.17090526      14.47992058       9.44895280
Sc      11.06518230      12.22112851      10.06197977
Sc      10.22845399      10.10012951      15.17726684
Sc      12.75628240      11.60854754      14.26472402
Sc       8.22880952      10.16949245      12.69197036
Sc       8.51310953      10.53681235       9.74220178
Sc       8.82128137      12.82288747       7.93705325
Sc      10.24228064      15.12153377       9.21388958
Sc      11.43779779      14.57490164      11.99548432
Sc       9.97928885      12.50645772      13.52573477
Sc       8.45036936      13.26433178      11.07516575
23
Properties=species:S:1:pos:R:3 config_type=qcd gap_pre_relax_energy=-115.16545143532967 gap_pred_energy=-115.48528724034237 gap_fmax_final=0.0009619109764624148 gap_converged=1 pbc="F F F"
Sc      10.57232514       5.58322229       9.70848956
Sc      11.28717992       7.81077644       7.50296373
Sc       8.25784752       7.44112683       8.30239116
Sc      12.91228096       7.64780380      10.26322785
Sc       8.95732249       9.93846353       6.88141785
Sc      10.65243973       6.80379533      12.65601977
Sc       7.98575022       6.29047561      11.08798158
Sc      13.84125795       9.69004489       8.05514405
Sc      10.11442388       8.27292537      10.41330030
Sc       6.18022200       8.59294319      10.10174755
Sc      11.78167697      10.94321631       6.07189969
Sc      11.18536775      10.49372106       8.79098829
Sc      12.93345852      12.64018916       8.41757011
Sc       8.43083529      10.58752523      10.17533835
Sc       9.58127980      12.75339535       7.73905873
Sc       7.98072029       8.87023569      12.70331768
Sc      13.23385399      10.67740606      10.85514352
Sc       6.46224094      11.15060881       8.21918560
Sc      10.79977945      10.08556389      12.66203142
Sc       5.80422741      11.29871962      11.28428034
Sc      10.73078042      12.65487724      10.81336028
Sc       8.34094602      12.02713434      12.81197819
Sc       7.61253259      13.38457921      10.12191364
23
Properties=species:S:1:pos:R:3 config_type=qcd gap_pre_relax_energy=-114.92336275661165 gap_pred_energy=-115.1099588567538 gap_fmax_final=0.0006670557480480423 gap_converged=1 pbc="F F F"
Sc       9.96733971      14.31387197      11.88277474
Sc       7.81306285       8.79061650      10.18927794
Sc      13.85501232      13.37178108       8.88829023
Sc      10.26382879       8.73096011       8.45232439
Sc      11.04898024      13.01715519       9.50409726
Sc      14.17630952      10.67179983      10.29513359
Sc      12.35308832      10.92968606       7.75151056
Sc      11.37422469      13.96809662       6.97515801
Sc      10.03166746       8.61785773      14.80158538
Sc       9.79951151       6.32763856      10.24690041
Sc       8.13744565       6.80735423      12.86180791
Sc      10.34382502      11.50144593      13.32252844
Sc      11.86180411      15.60122758       9.78307904
Sc       8.48102359      11.83584200      10.72902350
Sc      10.03519803       8.57298932      12.02396585
Sc      11.41930696       6.38333507      12.98552058
Sc      11.29784037      10.49630377      10.60955442
Sc       7.68316777       9.88475275      13.12199781
Sc       8.87898083      14.58027467       8.94034273
Sc       9.25292085      11.60075716       7.71837297
Sc      12.60396458       7.83981577      10.32250344
Sc      12.80638552      13.00031999      11.83673474
Sc      12.77435354       9.41536036      13.01675834
24
Properties=species:S:1:pos:R:3 config_type=qcd gap_pre_relax_energy=-120.98585180903964 gap_pred_energy=-121.01408033147605 gap_fmax_final=0.0007405556773963912 gap_converged=1 pbc="F F F"
Sc      11.82595998       8.42810331       7.85031458
Sc      11.22546607      11.00169605       5.76503371
Sc      14.06331519       8.95482582       9.96991674
Sc       9.13884980       8.82969387       6.05576726
Sc      12.90032309      11.48931990       8.42601245
Sc      11.43407415       7.22553989      10.80470222
Sc       8.98307486       7.21141143       8.72629218
Sc      13.32768664       9.05488013      12.90307145
Sc      13.95169418      11.65681287      11.42437938
Sc      10.48459364      13.37954714       7.56049462
Sc       9.89931416      10.57807837       8.31988891
Sc       8.30230099      11.78031282       6.20606009
Sc      11.51936306      10.14812565      10.90290595
Sc       8.58467537       6.52233967      11.88379888
Sc      10.97376025      13.00829938      10.62611480
Sc       6.89480203       9.69285980       8.15191676
Sc      10.19663383       8.80951031      13.41374878
Sc      11.72187224      11.60991526      13.46919625
Sc       6.15397378       7.67048163      10.49441435
Sc       7.02235592       8.81973308      13.19055030
Sc       8.01486755      12.48853517       9.48508391
Sc       8.57184648       9.26443155      10.76925535
Sc       8.75269875      11.62278981      12.49063044
Sc       5.99019611      10.68645518      11.04414877
24
Properties=species:S:1:pos:R:3 config_type=qcd gap_pre_relax_energy=-120.75064503181919 gap_pred_energy=-120.96739417124577 gap_fmax_final=0.0009301972986359761 gap_converged=1 pbc="F F F"
Sc      10.59301434      12.12040315       7.73697504
Sc      11.81551331       9.14750950       7.33649485
Sc       9.37343572       7.25403894       6.91737373
Sc       7.48639529      11.89344635       6.94768518
Sc      11.72463556       6.20249454       8.48423519
Sc       9.93581488      11.19958468      10.97212987
Sc      12.83075973      10.97880437       9.78599295
Sc       8.99551329       9.80183213       8.52309701
Sc      13.83116994       7.90551203       9.95042898
Sc       6.66392887       8.77892970       7.49855425
Sc       9.17713250       9.88501009       5.61811086
Sc      11.36457410      13.79604799      10.29624845
Sc       8.30123941      13.33124688       9.72455292
Sc       8.97728410       6.54882880       9.84047345
Sc       6.20878274      11.13909656       9.43856426
Sc      11.12019981       8.53789612      10.20190994
Sc      12.24940912      12.10677646      12.62459650
Sc       7.29548784       8.86531985      10.78011492
Sc      11.76373193       6.13062238      11.50628817
Sc       9.55330121      13.51024369      12.72115120
Sc       7.29133300      11.52920066      12.27865381
Sc      12.46572701       9.00753250      12.71468348
Sc       9.48717083       7.98503486      12.59188999
Sc       9.82966039      10.67980269      13.84500995
25
Properties=species:S:1:pos:R:3 config_type=qcd gap_pre_relax_energy=-126.15737768870423 gap_pred_energy=-126.66541209651203 gap_fmax_final=0.000871615693395948 gap_converged=1 pbc="F F F"
Sc       6.06521040       9.78099577       8.56820722
Sc       6.85539748       7.75220503      10.90519452
Sc       7.69644948      10.92170005      10.89203066
Sc       8.12625863       9.25533547      13.42135615
Sc       9.92977890      11.87184528      13.09661594
Sc       7.81720499       7.32478846       7.83583193
Sc       7.34775381       9.95167226       5.91776381
Sc       9.70009883       8.39830102      10.87358329
Sc       7.75510425      12.42643810       7.97936496
Sc       9.15824795       9.87977690       8.21570620
Sc       9.01006767       6.47776279      12.97094008
Sc       8.98014692      13.68781833      10.64659296
Sc      11.20867583       8.89747418      13.31203750
Sc       9.02077802       5.56221668      10.11791305
Sc      13.00992842      11.32731517      12.52843481
Sc      11.62806785       6.23549557      11.49166143
Sc      10.86885024      11.22196933      10.41225735
Sc      11.84361058      13.81978507      11.34200133
Sc       9.98973564       8.50841490       5.72455418
Sc       9.89294698      11.52875635       5.80414973
Sc      10.89871026      13.17944040       8.25902944
Sc      11.05235010       7.26094721       8.39941232
Sc      12.86828028       8.93231355      10.47739727
Sc      13.61045488      12.04977565       9.65515717
Sc      12.11939039      10.20095525       7.60630543
25
Properties=species:S:1:pos:R:3 config_type=qcd gap_pre_relax_energy=-126.42758649389168 gap_pred_energy=-126.56006045823707 gap_fmax_final=0.000781406794768897 gap_converged=1 pbc="F F F"
Sc      12.52203844      12.00145826      15.63585893
Sc      14.11249735      10.77023205      13.11187462
Sc      12.57812555      13.76974508      12.81942056
Sc      12.26927661      15.10571397      10.03099832
Sc       9.65884548      14.94625328      11.93535233
Sc      15.05692187       9.32012464      10.57761720
Sc      10.13980721      13.57833416      14.68873062
Sc      12.14655335       9.05160354      15.04996684
Sc       9.67204605      10.71426682      15.57017237
Sc      12.70506838       7.89078733      12.28370092
Sc      13.95134064      12.42078612      10.35188427
Sc      12.09880797      10.02285273      10.44416929
Sc       9.65949988       8.73455542      12.99224317
Sc      13.92117558      10.32094236       8.00642695
Sc      10.56956471      12.64558960      10.47631413
Sc      11.95512869      12.71828082       7.87682149
Sc      13.10623690       7.62168795       9.05272167
Sc       9.62771580      14.82887033       8.71184480
Sc      11.23251686      11.14463488      13.18717755
Sc       8.39641832      11.91137819      12.83793557
Sc      10.38240817       7.46653901      10.21327879
Sc      10.87122320       9.61344909       7.83314319
Sc       7.57666109      13.22466778      10.19707975
Sc       8.94439551      12.04931363       7.84029019
Sc       8.85369357      10.13590014      10.28294368
26
Properties=species:S:1:pos:R:3 config_type=qcd gap_pre_relax_energy=-131.5665156178102 gap_pred_energy=-131.70607694282918 gap_fmax_final=0.0008359896280889309 gap_converged=1 pbc="F F F"
Sc       8.28176655      10.57307305       9.49419017
Sc       9.69961803       7.97243719       9.27442397
Sc      10.57967042      10.33979571       7.38972210
Sc       9.69851381      13.12980186      10.13432346
Sc       7.61879395      12.17811467      12.21824334
Sc      12.54381260       8.12640625       8.53379399
Sc       8.93446939       9.16585811      12.07590098
Sc      11.34313757      10.37256967      10.12504522
Sc      12.08233419      12.88631289       8.45416526
Sc      11.93862114       7.97663896      11.66125796
Sc       9.22184696      15.00753886      12.26144540
Sc      13.69520468      10.71005280       7.68418550
Sc      10.42770196      11.72101551      12.83442986
Sc      14.34850544       9.94119389      10.50939009
Sc       8.48838388      10.67918142      14.88905743
Sc      12.06783067      15.09002437      10.58040997
Sc      14.92605745      13.07050896       9.48974841
Sc      10.78883111       8.92007631      14.46837001
Sc       8.95050784      13.57421077      14.80522670
Sc      13.07948547      12.53295643      11.62417013
Sc      14.74657821      14.81623023      12.21101423
Sc      11.81862797      14.49603226      13.68315643
Sc      13.30811768      10.19647644      13.47952518
Sc      11.45985925      11.83229697      15.54535605
Sc      15.92127213      12.00301393      12.26716773
Sc      14.25430022      12.91203104      14.53012901
26
Properties=species:S:1:pos:R:3 config_type=qcd gap_pre_relax_energy=-131.60035488628856 gap_pred_energy=-131.7396420351161 gap_fmax_final=0.0009440603821821249 gap_converged=1 pbc="F F F"
Sc       9.26708024       6.89695043       7.65573314
Sc       7.25975890       8.92076810       8.39425586
Sc      11.28094147       6.22900340       9.74709681
Sc       8.51290572       7.19057019      10.79144246
Sc       9.77789643       9.94316571       6.58751231
Sc      12.08456193       7.85505800       7.35763908
Sc       8.57536129       8.60384379      13.64246837
Sc       7.79851281      10.25300931      11.20170750
Sc      10.16202981       9.18085427       9.36675395
Sc      11.18991551       7.39561641      12.64220323
Sc      13.02285797       8.68131544      10.37757655
Sc       8.17458317      11.84005845       8.48074110
Sc      10.58763878      13.01563332       7.09262920
Sc      10.98708137       9.61605345      15.04941185
Sc      13.48262160       9.47585422      13.39103382
Sc      10.78419345      10.29727255      12.23350262
Sc      12.53363695      10.82967596       8.05766824
Sc       8.80268876      11.66009414      13.95805244
Sc       7.87592867      13.27551841      11.16162903
Sc      10.75271312      12.28943649      10.03278961
Sc      12.28938062      12.25799935      13.95161802
Sc      13.51752004      11.66341235      11.08396642
Sc      10.22089541      13.87760932      12.57656152
Sc      12.92388242      13.88621783       8.66673877
Sc      10.07311004      14.96506720       9.64163292
Sc      12.72016290      14.55780129      11.51549455
27
Properties=species:S:1:pos:R:3 config_type=qcd gap_pre_relax_energy=-136.81241297065566 gap_pred_energy=-137.250168089915 gap_fmax_final=0.0008291239027022692 gap_converged=1 pbc="F F F"
Sc       6.64235733      10.51702987      12.48233041
Sc       9.24587740       9.97183744      14.09985276
Sc       8.50855561      12.85935172      13.15885841
Sc       7.44507253       7.70989263      11.37452232
Sc       9.82488298       6.67794777      13.44633628
Sc      11.38833871      11.62372908      12.52620220
Sc       6.76559529      13.02118233      10.63860893
Sc       6.71685161       9.99124515       9.27785574
Sc       8.91160282      11.21073391      10.86902154
Sc      10.18000478       8.71485703      11.68179524
Sc       9.94956421      13.88308981      10.27382262
Sc      12.13596561       8.81933053      13.69625142
Sc       7.17630606       7.00971465       8.36961579
Sc      12.90129388      12.76644596       9.95703196
Sc       9.71572778       5.94124908      10.15726194
Sc       8.25638042      12.51380606       7.89762374
Sc      12.32632884       6.71366093      11.56874609
Sc      11.51439055      13.80638744       7.48248740
Sc       9.61584081       8.57334059       8.84068944
Sc       8.27063156       9.52607031       6.48940491
Sc      12.64025307       9.60546251      10.32001297
Sc       9.69813331       6.45152946       6.87130312
Sc      10.76709468      11.28872316       8.58524163
Sc      12.26324827       7.13735214       8.50657040
Sc      10.52033607      11.68235112       5.67169601
Sc      13.25873962      10.98308548       7.39865052
Sc      11.27925421       8.91922186       6.27683425
27
Properties=species:S:1:pos:R:3 config_type=qcd gap_pre_relax_energy=-136.87900574133306 gap_pred_energy=-137.0977740385952 gap_fmax_final=0.0009601416583905935 gap_converged=1 pbc="F F F"
Sc      10.88492221      10.78748565       6.77085027
Sc      11.67592227       7.58544258       7.37615378
Sc       8.92950193       8.36561932       6.69195861
Sc      13.12833330       9.94258218       9.02296960
Sc       7.81007248      11.11317784       6.19084167
Sc       9.22343337      13.74995187       7.06670482
Sc       9.09973310       6.69868928       9.35363008
Sc      10.26845827       9.19635122       9.26131696
Sc      12.33705249       6.71095587      10.22840891
Sc      11.63466958      12.87112136       9.08752536
Sc       7.03395407       9.37284640       8.78115250
Sc       8.81138726      11.67777550       8.88241753
Sc      14.73049186       8.65698845      11.55812789
Sc       6.42416370      12.96462498       8.14920916
Sc       8.34278963       9.26769433      11.61062494
Sc      10.07557760       6.84694198      12.32891217
Sc      13.42455729      11.79690085      11.62196847
Sc       8.54393826      14.09416212      10.33958098
Sc      11.12091199      14.20863381      11.97363909
Sc      12.89691237       7.00231452      13.42178138
Sc      10.41967758      11.49912737      11.42719619
Sc      10.26834605       9.55969922      14.05175326
Sc       6.63819493      11.73397953      10.91737993
Sc      11.97553165       9.06940604      11.74681305
Sc      13.46909639       9.89369054      14.12573839
Sc      11.59554063      12.24435537      14.10291809
Sc       8.58664245      12.43929454      13.26023965
28
Properties=species:S:1:pos:R:3 config_type=qcd gap_pre_relax_energy=-142.19469303554638 gap_pred_energy=-142.46863767080598 gap_fmax_final=0.0009426640789787571 gap_converged=1 pbc="F F F"
Sc       9.07246247       8.86619732      14.85726673
Sc       9.22685843       6.74601744      12.61945246
Sc       8.14954073      11.44975498      13.76050194
Sc       6.73312035       8.60027714      12.93237134
Sc      10.97565952      11.42194683      14.95924005
Sc       7.70192819       7.91339809       9.95951841
Sc       8.54940642      13.45858481      11.67267495
Sc       6.84193588      11.05267466      10.84191878
Sc       7.32800596      10.33277824       7.93235967
Sc      11.72237035       8.82796268      13.50862431
Sc      11.05330604      11.56701195      12.03142607
Sc       9.17974472       9.42177882      11.81249382
Sc       9.62201073      11.36938984       9.43133591
Sc      11.39708404      14.02008276      13.19966390
Sc      14.02465265       8.73905399      11.65143692
Sc       9.59377687      11.53548036       6.50401998
Sc      11.37730824       7.87815733      10.46288165
Sc      13.65148928      11.51396483      13.25106880
Sc      12.56502756      10.63298507       9.60734282
Sc      10.66373755      14.26580791      10.12083414
Sc      13.44620290      13.31672379      10.66756623
Sc       7.99426025      13.40120941       8.54284719
Sc      15.46830873      10.90425199      10.53973929
Sc      10.07220630       8.83186283       7.92961538
Sc      12.39637499      10.27081455       6.60086822
Sc      14.11124326       8.57865978       8.61400418
Sc      11.94646074      13.03272897       7.76988132
Sc      14.70848518      11.62341199       7.79201388
28
Properties=species:S:1:pos:R:3 config_type=qcd gap_pre_relax_energy=-142.08321939064152 gap_pred_energy=-142.7754552331887 gap_fmax_final=0.0007704590859374911 gap_converged=1 pbc="F F F"
Sc       8.73713587      12.02338502       6.96075570
Sc       6.97417714      12.63618304       9.48814653
Sc       9.66003219      14.17240710       9.48243808
Sc       9.56933689       8.70584247       6.57477683
Sc       7.77112976      14.05039550      12.03525248
Sc      11.64554159      13.65720427       7.05504092
Sc      11.48110719      11.00201422       5.83814383
Sc      12.66818014      13.57640259       9.89582024
Sc      10.88070345      11.50791052       8.72777904
Sc       6.65813723      10.78110848      12.03820399
Sc      11.01348610      13.46840948      12.56486405
Sc       7.99032609       9.71394302       9.25187975
Sc       8.61510945      12.19878188      14.13696590
Sc       9.20813646      11.74796487      11.23667988
Sc      12.75890631       8.51343687       6.75290726
Sc      10.89296949       8.66041344       9.08992348
Sc      10.02798079       9.09293584      11.95569899
Sc       8.66160503       6.70969111       8.86296242
Sc      12.51442537      10.79082057      11.25280536
Sc      11.47481289       6.15477169       7.91309026
Sc       7.69587089       7.51194022      11.74303391
Sc       8.15290171       9.29573134      14.28106615
Sc      13.64093800      11.08280629       8.19891345
Sc      11.14056047      10.44103300      14.19692904
Sc      13.56331958       8.00586983       9.74100041
Sc      12.70635752       8.08722057      12.76305862
Sc      10.84515317       6.33213555      11.02266361
Sc      10.11963776       7.14721974      14.00717836
29
Properties=species:S:1:pos:R:3 config_type=qcd gap_pre_relax_energy=-148.4830428541163 gap_pred_energy=-148.5868220741757 gap_fmax_final=0.0007675992940252042 gap_converged=1 pbc="F F F"
Sc      12.67590181      13.42681092       7.78650284
Sc      15.08139063      13.38476060       9.90963792
Sc      12.58526398      14.89024753      10.73734493
Sc      10.04819875      14.93900765       8.81694559
Sc      15.15986593      14.29508223      12.70010250
Sc       9.61633267      12.48946996       7.21320611
Sc      11.73701621      10.45954110       7.26387581
Sc      13.78128913      10.74130650       9.42153310
Sc      14.58002112      12.28752775      14.79601025
Sc      11.01888821      12.29635421       9.79881770
Sc      15.78663733      11.17228306      12.04754335
Sc      13.14403975      12.20703689      12.18435764
Sc      12.19544413      14.35027032      13.94067400
Sc       9.66568999      14.73711501      11.92547682
Sc       9.33200999      13.75565842      15.02626801
Sc      14.51808810       8.38214447      11.09695727
Sc      11.54372881       9.56238105      11.36906740
Sc       8.11837869      12.61103267      10.05410912
Sc      12.09038279       7.88314083       9.14346211
Sc      10.06322162      11.95613152      12.77903749
Sc       9.38913456       9.76827214       9.05034322
Sc       7.25928529      12.90206089      13.03916475
Sc      11.58562515      11.45884757      15.23936616
Sc      13.53099907       9.47302317      13.74586004
Sc       8.37133105      10.91862176      14.98923456
Sc      12.28565183       6.83789059      12.21606370
Sc       9.59827935       7.32217421      11.07439411
Sc       8.10083179       9.94562122      11.92592863
Sc      10.34433053       8.75344405      13.91597312
29
Properties=species:S:1:pos:R:3 config_type=qcd gap_pre_relax_energy=-147.78890873700288 gap_pred_energy=-148.01332512351595 gap_fmax_final=0.0009168755597007363 gap_converged=1 pbc="F F F"
Sc       6.94211991       8.93222576      10.21807646
Sc       6.54503077      11.97238333      10.73178761
Sc       6.29193270      10.95151012       7.76840237
Sc       7.93256954      13.25262575       8.37223672
Sc       9.20651016       7.93396419      12.13586706
Sc       7.18710985      10.26035930      13.30852448
Sc       8.59580633      14.21153714      11.17021685
Sc       9.48179276       7.17525321       9.00150161
Sc       7.66827110       8.53310962       6.80439922
Sc       9.08204920      10.25147121       8.69181945
Sc      10.12435907      10.09443243      14.22737639
Sc       9.15078356      11.37625700       6.19292564
Sc      11.80071285       6.17333027      10.85223141
Sc      10.67383858      12.95356304       9.47199790
Sc       9.19938337      10.99636936      11.47868803
Sc      14.21706482       7.83030544      11.19211185
Sc      11.45163830       8.98892915      10.32483513
Sc      12.12717991       8.24480204      13.19762990
Sc      12.08895812      11.42751114      11.82261581
Sc      12.36830954      12.17780489      14.55173028
Sc       9.25979920      12.82023950      13.75210580
Sc      13.51746376      13.48082541       9.64138852
Sc      12.11407654      10.89366089       7.85195582
Sc      10.60007249       8.66207629       6.55559098
Sc      11.60929170      14.29193072      12.20857273
Sc      13.00843295       7.81514087       8.32006045
Sc      14.40502602      10.18307582      13.20003696
Sc      14.46337406      13.02585674      12.42056939
Sc      14.37011289      10.57251946      10.01781526
30
Properties=species:S:1:pos:R:3 config_type=qcd gap_pre_relax_energy=-153.211239046736 gap_pred_energy=-153.4263944116139 gap_fmax_final=0.0008809543662736608 gap_converged=1 pbc="F F F"
Sc      12.06583095      14.60229880       7.49683748
Sc       9.72828463      13.15127233       6.25400210
Sc      12.39916787      11.87593606       6.05425917
Sc       6.55963283       9.80238730       9.76761283
Sc      11.12972636      12.10553256       8.62929037
Sc      13.07093495       9.42749743       7.87330680
Sc       8.35793845       7.57255870      11.27461336
Sc       9.81024278      10.01221475       7.13125444
Sc      15.31234700       9.95836815      10.38411871
Sc      12.66582255      14.55918730      10.42171253
Sc      13.77156011       7.42229573      10.36519463
Sc      10.87125068       7.69407778       9.25872212
Sc       7.92353657      12.23341540       8.39122781
Sc      14.06646741      12.31852680       8.82944679
Sc       9.25309293      10.18933939      10.22350368
Sc      13.90192697      12.31808140      12.09838063
Sc       9.70956014      14.49294192       9.86667626
Sc      10.82627131      12.36349586      11.64211436
Sc       7.37318806      10.00462479      12.90372198
Sc      12.40522626       9.99156053      10.61804767
Sc      11.36367721       7.08716732      12.29625887
Sc      10.36316282       9.70599329      13.04622008
Sc      11.14938113      14.69702891      13.01189063
Sc      13.64814882       9.29374043      13.10798367
Sc       7.56959437      12.54359254      11.23923495
Sc       8.98983116      12.64924778      13.92471367
Sc       8.89059064       7.53208177      14.33351848
Sc      11.63251096       8.36870639      15.29316020
Sc      11.88389419      11.79295923      14.52333402
Sc       9.28130338      10.20797280      15.71374516
30
Properties=species:S:1:pos:R:3 config_type=qcd gap_pre_relax_energy=-153.04951913577312 gap_pred_energy=-153.48376859280484 gap_fmax_final=0.0008608524692421674 gap_converged=1 pbc="F F F"
Sc      11.87083903      10.97893735       6.73935023
Sc       9.14058995      12.33599355       6.06146711
Sc      11.88945390       7.78740735       6.87244510
Sc       9.12883947       9.21614816       6.16427308
Sc      11.18254400      14.14639350       7.31693777
Sc       8.27998745      14.16565586       8.25737062
Sc       9.39003957       6.34333589       7.60436735
Sc      13.34258519      12.83157721       9.09872559
Sc      10.08246015      11.97513098       8.86562741
Sc      13.12101096       9.55649508       9.15710211
Sc       7.40789831      10.95092393       8.28794950
Sc       7.03939159       7.99321835       8.26575507
Sc      11.53160470       6.52080527       9.78354712
Sc      10.02308611       8.94121616       8.87642823
Sc      13.35662685      13.63246932      12.26938785
Sc       8.58118450       7.03231237      10.73213924
Sc       7.85478604      12.61148106      10.95689453
Sc      10.73349640      14.32377842      10.53768792
Sc       6.42995972       9.58357517      10.99617899
Sc      11.84959103      11.57422872      11.18243555
Sc      11.93145551       8.75286604      11.79520639
Sc       9.20280747      10.01864940      11.58727080
Sc      14.47342959      10.58377345      11.91985733
Sc       7.73285636       8.07598959      13.45618197
Sc      10.01517321      12.67648752      13.23418908
Sc       7.36395073      11.01040439      13.64875304
Sc      12.64264290      11.31699743      14.06880466
Sc      13.19229036       8.39568505      14.30291272
Sc      10.55093110       6.71686217      13.18832740
Sc      10.25515450       9.54786789      14.36909289
31
Properties=species:S:1:pos:R:3 config_type=qcd gap_pre_relax_energy=-158.87985690121485 gap_pred_energy=-159.28601387122757 gap_fmax_final=0.0008958353553687137 gap_converged=1 pbc="F F F"
Sc      13.39052046       9.93757108      14.89560443
Sc      13.01454619      12.51100127      13.27676864
Sc      10.88500705       8.31833532      15.19261492
Sc      10.21322042      11.42820512      14.57663099
Sc      14.27473825       9.79305386      11.76420448
Sc      10.01153543      13.77531520      12.46846224
Sc       9.14900248      10.98840223      11.43752256
Sc      11.54333482       9.65751179      12.64481845
Sc      14.72172673      12.58086220      10.50776873
Sc       8.33308946       9.14516604      13.60402638
Sc      12.83311837      14.85882220      11.07011257
Sc      10.34543226       6.79214521      12.32138559
Sc      13.19584656       7.33958940      13.43980208
Sc      11.86756799      12.19100241      10.66590519
Sc       7.28783543      12.11902779      13.22881604
Sc       9.88263076       6.19293806       9.19616948
Sc      12.86513615       7.18008723      10.34349084
Sc       7.86428524       7.79561608      10.94698560
Sc      13.08426628      10.18503107       8.85256453
Sc       7.67575081      13.30516500      10.35689278
Sc      10.25150041      14.48500187       9.46455577
Sc      10.53650572       8.73446242       9.99792424
Sc       8.00867750       8.83674558       8.15665675
Sc       9.93135290      11.26018808       8.48126780
Sc       6.46703855      10.48934267      10.58121694
Sc      10.99057951       8.42441416       7.09149131
Sc      11.85984189      11.32727144       6.18696090
Sc      12.80497500      13.51857983       8.16528516
Sc       7.14866739      11.90039204       7.75493566
Sc       9.01432551      10.59030937       5.77406541
Sc       9.66031017      13.45080967       6.66745920
31
Properties=species:S:1:pos:R:3 config_type=qcd gap_pre_relax_energy=-158.83819894366832 gap_pred_energy=-159.39662916737095 gap_fmax_final=0.0008373483338480486 gap_converged=1 pbc="F F F"
Sc       9.99338457      14.73478892      11.47240919
Sc      12.09087838      11.92513640       6.46204002
Sc      11.27804191      12.22039426      14.84773499
Sc      15.18282272      10.43958797      10.96093881
Sc      10.46131588       9.36634102       6.92028084
Sc      10.94111529      14.14336352       8.50949654
Sc       9.61264940      11.85331910      12.31728332
Sc      13.86434568      12.70567675       8.98548378
Sc      15.01602384      13.54651504      11.89888914
Sc       8.20065249      12.68432631       9.73740145
Sc       9.13137627      12.07391649       6.77240788
Sc      13.00296658      15.31711858      10.56288006
Sc      13.33736476       9.62441720       8.33549441
Sc       7.94957801       9.78822877       8.59989811
Sc       9.26179271      14.13444583      14.38013113
Sc      11.22949272       7.39549601       9.12112609
Sc      10.86459694      11.33491030       9.06024561
Sc      12.46607469      14.64295587      13.53501660
Sc      14.09108265       7.29386709      10.38912162
Sc       8.21101400       7.05392256      10.38886772
Sc       7.07137826      13.25601772      12.60175919
Sc      12.55365390       9.52789704      11.26642352
Sc       8.29635362      11.02698382      14.62810863
Sc       9.72790922       9.22741236      10.89539577
Sc      12.31327805      12.59524329      11.48862955
Sc      13.89452367      11.26653494      13.68993484
Sc       7.05871611      10.24801781      11.60049891
Sc      11.17865649       6.86404189      12.08279129
Sc      11.10966011       9.40710882      13.91744943
Sc      14.13199066       8.21393766      13.25526668
Sc       8.44900742       8.05977366      13.28829184
32
Properties=species:S:1:pos:R:3 config_type=qcd gap_pre_relax_energy=-163.8094711992886 gap_pred_energy=-164.10698234642754 gap_fmax_final=0.0008200383383597307 gap_converged=1 pbc="F F F"
Sc       9.67286179       7.90571451      15.11039823
Sc       9.16380523       7.07228388      12.16873228
Sc      12.89189047       9.46574434      11.52829541
Sc      11.93803175       7.22329087      13.33077918
Sc      11.67823646       6.32917380      10.25433483
Sc      12.16256863       9.95282237      14.91420212
Sc       9.67447464       7.43292779       7.57062069
Sc      10.22645929       9.81120118      12.96074592
Sc      14.27811433      11.05629177       9.31160672
Sc       8.91898134      10.74380104      15.42329687
Sc       7.24594335       9.51594933      12.88551377
Sc      13.86302703      12.15289018      13.10041462
Sc      12.63035676       8.53671845       8.04707258
Sc      10.33566432       8.78774740       9.94840441
Sc      11.76703674      12.36899155      11.25376843
Sc       8.75168478       5.61207149       9.68856175
Sc      10.80196819      12.72953520      14.03068762
Sc       7.41178941       8.44413673       9.92820138
Sc      14.18171357      13.86735633      10.47025467
Sc      11.37932136      11.35295120       8.48413966
Sc       8.98727775      11.24603391      10.76873846
Sc      12.34117761      14.92405267      12.47062149
Sc      10.71935302       9.80024096       5.90680573
Sc       7.72368987      12.40944058      13.15581137
Sc       8.37648011      10.46157447       7.81866892
Sc      13.35485231      10.98618052       6.19745203
Sc       6.36561390      11.60851254      10.32643034
Sc      13.54329102      13.48683901       7.57965250
Sc      11.32683520      14.57925240       9.22021951
Sc       9.38251850      14.28398856      11.55857786
Sc      10.72340238      12.92405532       6.27105937
Sc       8.58843252      13.33508328       8.72278492
32
Properties=species:S:1:pos:R:3 config_type=qcd gap_pre_relax_energy=-164.326766835274 gap_pred_energy=-164.54438380828776 gap_fmax_final=0.0008442885717907791 gap_converged=1 pbc="F F F"
Sc      13.25342454      14.42807726       8.03221523
Sc       6.65634763      10.13502835       8.40680034
Sc       8.01895652      12.95142410       8.08909572
Sc      10.31733679      15.07433793       7.98933938
Sc       7.41663306      10.21724125      13.71888629
Sc      11.04705589       6.74326193      14.14837166
Sc      14.16158338      13.52447858      10.92156396
Sc      11.05338241      12.18938018       7.13889554
Sc      12.36387705      11.63367585      12.41644988
Sc      11.90108621       9.51673764      10.00620855
Sc       9.91250847       6.55275730      11.18835355
Sc      12.01569764       6.61815170       8.88931132
Sc       9.77740439       9.19589536      15.41306843
Sc      11.43104547      13.03410556       9.94633509
Sc      10.19217362       9.16513960      12.51551494
Sc       9.33413968       8.07961439       8.53553062
Sc      11.92962588       9.19161473       7.08860312
Sc      11.04665104      11.88246215      15.01097879
Sc      11.31184755      14.34653417      12.91287466
Sc      13.78125263      11.40649702       8.63531426
Sc      11.99988653      15.85617188      10.37431176
Sc      14.60693741      10.13372082      11.38180819
Sc       9.37615668      12.09809504      12.55879631
Sc       8.97459199      14.52434364      10.71986051
Sc       8.86986217      10.29177401       6.49009363
Sc      14.39516911       8.33774790       8.92901106
Sc      13.00425964       7.40361984      11.73959497
Sc       7.51858183       8.79052355      11.03028297
Sc       6.83902192      11.88672702      10.92705689
Sc       9.30157615      10.87888420       9.59539240
Sc       8.14643265       7.27219660      13.73162570
Sc      12.72398285       9.31826926      14.19694306
33
Properties=species:S:1:pos:R:3 config_type=qcd gap_pre_relax_energy=-170.12608891432342 gap_pred_energy=-170.44509058700334 gap_fmax_final=0.000987797075089031 gap_converged=1 pbc="F F F"
Sc      11.63706849       9.54317773       5.95101605
Sc      13.54757906       8.87521041       8.60786987
Sc      13.08117407      11.87991600       7.52215223
Sc      14.61164801      11.28577590      10.38127882
Sc      14.81379474       8.24191534      11.41514579
Sc      11.39144039      14.46672289       7.97016484
Sc       9.93350019      12.03259692       6.71125895
Sc      11.20030628       7.16082827       7.64590301
Sc       8.73010785       8.87893340       6.93785066
Sc      12.09122393       6.78625795      10.67875285
Sc      12.89510376       7.65899298      13.58223187
Sc      10.73660578      10.07440270       8.71221824
Sc      12.18985090       9.56475293      11.37919415
Sc      13.99674916      10.55839197      13.51590547
Sc      11.90022025      12.53149651      10.16973767
Sc      13.93220490      14.41146795       9.49396002
Sc       9.12596432       7.57447513       9.84960147
Sc       8.87643918      10.39157085      11.00153341
Sc       7.44776401      11.22316539       8.25894556
Sc      13.61941119      13.54500776      12.48628490
Sc       6.41550635       8.87225667       9.33993362
Sc       9.91460092       8.08000740      12.81836985
Sc      11.01868467      11.90346063      13.01672346
Sc       9.04401111      13.23913621       9.56964922
Sc      11.16190101       9.84889727      15.05753741
Sc       6.87524570       8.47776694      12.17418919
Sc      12.67549024      12.60017296      15.47050853
Sc       8.17552973      10.64308246      13.88791160
Sc      11.15168616      15.16067588      11.00421022
Sc       6.33726147      11.52072843      11.17669514
Sc       9.70623023      12.69891210      15.55389400
Sc       8.57481644      13.50559494      12.62176262
Sc      11.18472141      14.75809108      14.03145121
33
Properties=species:S:1:pos:R:3 config_type=qcd gap_pre_relax_energy=-169.4077043387335 gap_pred_energy=-169.61004632389867 gap_fmax_final=0.000975640568869311 gap_converged=1 pbc="F F F"
Sc      11.52464082       8.69867756       6.05032617
Sc      11.08491238       7.69639511       8.95353493
Sc       8.66414958       9.00467202       7.37470787
Sc      10.92096418       6.19727869      11.67265453
Sc       8.36802466       7.57109567      10.55822615
Sc      13.69849163       9.27585974       8.18246987
Sc      10.03377523      11.20980954       5.49431590
Sc      12.90018170      11.33857741       6.24000530
Sc      13.33914469       7.96678486      11.02839587
Sc      10.77386958      10.76213671       8.42565853
Sc      12.14416939       8.11195426      13.86481258
Sc       9.04599317       7.42809946      13.58307249
Sc       7.66019967      10.39567445       9.83185321
Sc      10.52437453       9.25390909      11.61054992
Sc      12.96600467      10.99239742      10.51817942
Sc       8.19814200      12.24748937       7.63535840
Sc       9.75618250      12.23260861      11.06901164
Sc      14.46193218      10.16306487      13.16785128
Sc      14.04717329      12.81909527       8.54556299
Sc      11.85652817      11.62528026      13.36658697
Sc       8.95007897      14.56743957       9.33714243
Sc      12.97077396      10.24472755      15.95024763
Sc       7.82567282      10.22703026      12.73640871
Sc       9.92901132      10.04180395      15.05837417
Sc       7.08052021      13.12615821      11.33249359
Sc      11.13257510      13.55505815       7.39882769
Sc      14.37364508      13.16972372      11.91699128
Sc      11.92570735      14.09989227      10.42064405
Sc       9.00949235      12.86121499      14.02992056
Sc       9.35129306      15.08637924      12.09142271
Sc      14.16398181      12.75852237      14.92167738
Sc      11.37304164      12.76440544      16.11021093
Sc      11.98667225      14.54810381      13.56382478
34
Properties=species:S:1:pos:R:3 config_type=qcd gap_pre_relax_energy=-175.55650394493634 gap_pred_energy=-175.77951862757888 gap_fmax_final=0.0008107116797695125 gap_converged=1 pbc="F F F"
Sc       6.44555953       9.34035309       9.18789533
Sc       9.02979197      10.06333119       9.65693680
Sc       9.81533326       6.99342644       9.20920576
Sc      10.71961289       6.89782326      12.35235760
Sc      12.86486999       6.42168773       9.86836736
Sc       8.86933868       8.96038407       7.02572764
Sc      13.65678156       8.08271998      12.43261449
Sc      12.13721140       8.38331167       7.51198460
Sc       7.84975284       7.59893225      11.46242606
Sc       9.63445924       9.79078096      12.49275562
Sc      11.72108992       8.96549302      10.30292435
Sc      14.63605995       9.16265144       9.61370359
Sc      11.73731916       8.75593982      14.67598781
Sc      10.94530795      11.27826163       7.58536792
Sc      12.83891877      11.72931385       9.91676864
Sc      14.03794311      11.04911519       7.31379485
Sc       6.71767904      10.05997337      12.37965064
Sc      15.13460989      10.73362563      12.28858296
Sc      13.00142265      13.77969486       7.93846481
Sc      12.23075486      10.96028739      12.66837341
Sc       7.77548670      11.83887891       7.59384781
Sc      13.48338432      11.47535764      14.99278340
Sc      10.13293993      12.49872485      10.96632619
Sc       8.48187380       8.45518508      14.53345406
Sc      15.42904820      12.58629243       9.67132514
Sc       9.80586471      14.04788556       8.53248311
Sc       8.26553528      12.55379078      13.33724626
Sc      14.03578565      13.37814340      12.42762993
Sc      11.98789971      14.77324838      10.68915652
Sc       7.11781423      12.44156473      10.42287928
Sc      10.23029445      11.13075160      15.14389236
Sc       6.98155499      14.82436190       8.64405173
Sc      11.20190036      13.68645298      13.62806006
Sc       8.77273068      15.02818454      11.25890358
34
Properties=species:S:1:pos:R:3 config_type=qcd gap_pre_relax_energy=-174.99613174481402 gap_pred_energy=-175.346011466885 gap_fmax_final=0.0009179290017883178 gap_converged=1 pbc="F F F"
Sc      15.07917200      13.24467394      12.06979721
Sc       9.94110496      12.95465612      14.17109000
Sc      12.91130642      11.79660916      14.21261679
Sc      12.39081305      14.65862073      13.11337723
Sc       8.98306908      15.53215385      13.06351334
Sc      10.24853568      10.04274197      15.35043916
Sc      14.83178562      10.03786390      12.23864129
Sc       7.77103549       9.85983665      13.37337397
Sc       7.84941527      12.70752533      11.78575563
Sc       8.00411647      15.44865571      10.19611227
Sc      12.68425474      12.14203170      11.19183391
Sc      10.41166862      10.65486926      12.49135290
Sc      12.49611793       8.86760451      13.74136967
Sc      10.37619296      13.96152435      11.10758694
Sc       9.91958148      11.32538079       9.37225690
Sc       9.84812858       7.48617592      13.41394072
Sc      10.27800714      14.42841328       8.18557467
Sc      13.18125599      14.76799047      10.02380009
Sc       9.69734901       5.61261521      10.65971571
Sc      12.48915849       9.34840505      10.45569420
Sc       7.28704486       7.19955668      11.68380809
Sc      14.97421817      11.22613093       9.49950798
Sc       7.64677714      12.90859604       8.53673204
Sc       7.11661908      10.03176625      10.28766469
Sc      12.50500791       6.66954300      11.67415336
Sc       9.95098030      11.86547562       6.46875867
Sc       9.69409921       8.45473052      10.56837894
Sc      12.50293955      12.50635183       8.07155788
Sc      13.05704549       9.60119936       7.57728676
Sc      11.91290591       6.87994453       8.76177529
Sc       7.60789207      10.12341078       7.35103040
Sc       7.88114723       7.26231174       8.67971024
Sc      10.17409816       8.91198522       7.38163459
Sc      14.78870709       7.97220080       9.73170965
35
Properties=species:S:1:pos:R:3 config_type=qcd gap_pre_relax_energy=-181.0038198180781 gap_pred_energy=-181.7781266963423 gap_fmax_final=0.0009585956459916859 gap_converged=1 pbc="F F F"
Sc      14.61989977      11.79055818       8.35437073
Sc      15.58096410      12.67544954      11.36880426
Sc      15.23442901       9.63234576      10.07501979
Sc      12.64368422      14.08950072       8.81077179
Sc      12.35974680       9.74470096       9.15206883
Sc      14.32366497       9.85064505      13.03457857
Sc      13.38844244      12.79662222      13.90450632
Sc      13.37365755       7.42342187      11.10297065
Sc      11.94729883      11.65641306       6.78085177
Sc      12.18236985       7.46261849      13.99050154
Sc      13.11164261      11.78125423      10.97224332
Sc      12.97078879      14.65874670      11.77172409
Sc      11.84754188      10.40246651      14.85388382
Sc      13.88124283       8.75682572       7.21220923
Sc      11.43728781       9.43521569      12.10762803
Sc      11.60141601       6.88783804       8.70110876
Sc      10.74220804      12.41125724      12.45448487
Sc       9.58661253       9.23445005       9.65906506
Sc      10.45483845      12.17422061       9.40148691
Sc      10.12227732       6.83543808      11.48784373
Sc       9.81946425      14.14405327       7.47599352
Sc      10.72325015      14.64719803      14.03544312
Sc       9.23830909       8.81524469      13.96400463
Sc      10.55018732       8.76451238       6.81262997
Sc       9.24789972      11.93641503      14.88301357
Sc       8.39778110      10.86432340      11.73981359
Sc       8.41842849       7.02540995       8.53854056
Sc      10.00619892      14.81524477      10.70370297
Sc       8.87147585      11.23478866       7.10900858
Sc       7.15743997       8.26604900      11.47829580
Sc       6.62041137      10.64379650      13.99383877
Sc       6.86863251       9.80780651       8.85950480
Sc       7.76362926      13.50657234      12.72677848
Sc       7.60672690      12.91265156       9.49673763
Sc       5.57749936      11.19329322      11.26391994
35
Properties=species:S:1:pos:R:3 config_type=qcd gap_pre_relax_energy=-180.71911731269157 gap_pred_energy=-181.09646855591706 gap_fmax_final=0.0009793607014623488 gap_converged=1 pbc="F F F"
Sc       9.09943606      13.89435961      12.08613113
Sc      13.41525938      15.68901741      12.55963451
Sc      12.29235903      15.27310379      15.54143279
Sc      15.59815402      11.86563533       9.22867727
Sc       9.94382271       7.79290980      10.87807414
Sc       7.54712308      11.58838008      13.17928602
Sc       8.44797708       8.73909632      13.15578295
Sc      11.78044350      13.69523796      10.50876833
Sc      10.14902787      10.75549634      14.83077073
Sc      14.81512775      13.20581254      11.70477610
Sc      10.54170279      16.16489438      13.25572433
Sc      11.75322829      13.20718609      13.51748980
Sc      13.03072365      10.74844385      10.61169691
Sc      10.10764057      10.95125066      11.70059841
Sc       9.58431728      12.35149656       8.91238520
Sc      15.56153383       9.33678951      10.92571873
Sc      13.02843087       7.73086393      10.52345537
Sc       8.90101916      15.27442699       9.47883699
Sc      12.79306577       9.22177455      15.89682827
Sc      14.86153360       8.34600211      13.70563964
Sc      11.74267464       8.69546343      13.08296778
Sc       7.79192031       9.95104289      10.34567410
Sc      14.89058876      13.49124641      14.77545645
Sc      14.07029135      14.86516204       9.24547112
Sc      12.45691777      12.29957439      16.34251563
Sc      14.16958174       9.37315339       8.24410929
Sc      13.70433528      10.96379696      13.56122074
Sc      11.00170032       9.58098350       8.78867114
Sc       9.50229573      13.78469786      15.17159677
Sc      16.59332869      11.13623433      13.08790231
Sc      12.76428808      12.20458917       8.01002012
Sc      11.33369081      14.94207719       7.79257053
Sc       7.01704583      12.90702354      10.36749832
Sc      15.41747736      10.59272321      15.88007528
Sc      11.49332510      16.58144196      10.30393088
36
Properties=species:S:1:pos:R:3 config_type=qcd gap_pre_relax_energy=-187.1083017995876 gap_pred_energy=-187.46657637856745 gap_fmax_final=0.0007772196623374803 gap_converged=1 pbc="F F F"
Sc       7.08229092      13.08616925      10.78879061
Sc      14.85348801       8.94391062       8.07248323
Sc      10.29651528      14.31010490      14.70079130
Sc       8.60112516      15.24846841      12.49999121
Sc      10.17022079      12.73206335      12.15948946
Sc      14.77213173      14.21408938      11.66489850
Sc      11.01386221       8.07557234      15.00385771
Sc      15.17496463      11.73245446       9.61822321
Sc       5.86070367      10.49451473      12.16234012
Sc      10.31223786      10.88824926       6.12122893
Sc      12.61202883       7.11844870      12.38222907
Sc      12.42992381       9.48208678       9.69963243
Sc      13.41724279       9.84645603      13.96182383
Sc      13.11040229      13.05984793      14.12975036
Sc      12.81503467      13.93117831       9.23699467
Sc       9.52030688       6.71190483      12.87223379
Sc      13.40924797       6.73819302       9.39630313
Sc      11.79497166      15.12214608      12.00623609
Sc      10.89792102       9.42119096      12.38610516
Sc      10.62659590      11.20010995      14.83873736
Sc       6.16356657      10.32077937       9.23282328
Sc      10.81911064      13.70023096       6.80769382
Sc       9.67887415      14.56254017       9.62791181
Sc       8.23120747       9.30300452      13.79557338
Sc      12.98890562      11.81336087      11.52116157
Sc      10.37777257       7.29599139      10.04775749
Sc       8.55443209      10.51795739      10.91388104
Sc       7.80538496      12.43753373      13.81065691
Sc       8.93474233       9.22257476       8.21448324
Sc      13.07809416      11.37874253       7.27681827
Sc      11.87962236       8.31723451       7.14011076
Sc      10.66498802      11.78767089       9.04355865
Sc      15.69294347      11.66185337      12.77690667
Sc       8.10637944      12.32963707       7.85955126
Sc      14.91162423       9.02226722      11.24935040
Sc       7.30823593       7.93856208      10.94672134
36
Properties=species:S:1:pos:R:3 config_type=qcd gap_pre_relax_energy=-186.13990079669304 gap_pred_energy=-186.54843618966513 gap_fmax_final=0.0009962335451741014 gap_converged=1 pbc="F F F"
Sc      10.13560535       9.36594446      16.21014876
Sc      11.42712380      12.29085431      16.08301084
Sc       8.67990473      11.68075736      14.68622998
Sc       9.99187769      14.59242515      14.37372605
Sc      13.19521364       9.73127911      15.90513479
Sc      12.46224687      15.25554257      16.06662886
Sc      11.55289901       7.43305024      14.51580541
Sc      14.55663568      13.01958533      15.89327883
Sc       8.91815652       8.68933833      13.39801754
Sc      15.11244580      10.84732754      13.96120732
Sc       7.38553547      13.90721054      12.63084290
Sc       9.98976159      12.64000734      12.19582168
Sc       7.32419129      11.04461951      12.04799856
Sc      12.83573905      13.18590087      13.57875416
Sc      14.24471562       8.10049867      13.21736195
Sc      12.10773281      16.45730581      13.04236831
Sc      11.38787840      10.23704960      13.58623392
Sc      14.73258501      15.64639939      14.27841126
Sc      14.82474860      16.05352855      11.16471877
Sc       8.47773034      12.88037641       9.77807240
Sc      15.75623837      13.37364342      12.70023929
Sc      12.45102221      14.48380179      10.89417335
Sc      14.76447341      12.83463327       9.88346228
Sc      13.51480300      10.43321334      11.36983172
Sc      16.38140464      10.35627848      11.23354844
Sc       9.62201139       9.90408606      10.60715076
Sc      12.13417887      17.13576491       9.89656196
Sc      11.71554893       7.87171550      11.41704508
Sc      11.54050773      11.93046170       9.65163099
Sc       9.63425343      15.50739667      11.20412973
Sc      14.66888853       7.92022127      10.16467604
Sc      13.11221509      12.39286623       7.27061082
Sc      13.80186533      15.24805603       8.29811741
Sc      15.04355863      10.27363704       8.44817943
Sc      10.87014518      14.62025926       8.34790856
Sc      12.27848088       9.28728678       8.63128474
37
Properties=species:S:1:pos:R:3 config_type=qcd gap_pre_relax_energy=-191.73487806707993 gap_pred_energy=-192.22727168043042 gap_fmax_final=0.0008482669594638325 gap_converged=1 pbc="F F F"
Sc      10.75691058      15.58126447      10.91411210
Sc       7.62502672      14.93016902      11.16277923
Sc      11.67723996      14.02141489      13.40092211
Sc      12.31762565      15.33209722       8.25752894
Sc      13.60659129      14.08370873      11.09456120
Sc       9.33599389      14.41430654       8.40136174
Sc       8.73301750      13.57396229      13.85358839
Sc      14.50435216      13.36296507       8.08855496
Sc       7.17069820      12.46589684       9.35171551
Sc       9.63311731      12.95098454      11.09669555
Sc      11.80553202      12.61719265       9.09973062
Sc       6.55885427      11.92079087      12.28686728
Sc       9.29113260      11.51054315       7.24502393
Sc      14.63662881      11.19602887      10.31915336
Sc      11.04107809      11.45791620      14.88304940
Sc      12.16111193      11.42762635      11.99959159
Sc      12.02759077      12.84435443       6.26179146
Sc      14.14195435      12.14936639      13.77985504
Sc       9.18419762      10.28062287       9.86630824
Sc      11.94079460       9.63364382       9.09270529
Sc      11.36202861       8.66076791      11.90764684
Sc       6.50189169       9.51939893      10.15483018
Sc      14.38567205       9.30001065      12.64873597
Sc       7.56108560      11.03067642      15.13882222
Sc      11.38087212       9.78841006       6.10398977
Sc       9.11003276      10.52866190      12.77876317
Sc      14.07286102      10.40621324       7.28652862
Sc      12.36577635       8.61271426      14.66885523
Sc      14.22831269       8.00084072       9.89986090
Sc       9.54376353       8.07724257       7.92384820
Sc       9.39944275       8.68643396      15.03374723
Sc       8.65280420       7.50342061      10.96014848
Sc      12.66231120       7.44937608       7.27772545
Sc       6.94596288       8.68958131      13.19755003
Sc      11.40715169       6.43141426      10.02378393
Sc      13.28001733       6.51217147      12.57057594
Sc      10.30314001       6.36038525      13.28126673
37
Properties=species:S:1:pos:R:3 config_type=qcd gap_pre_relax_energy=-191.36074070102507 gap_pred_energy=-191.7396466726129 gap_fmax_final=0.0009942687273721885 gap_converged=1 pbc="F F F"
Sc      11.58500511       6.67907776       9.79312850
Sc       9.85261369       9.40710750       8.87788514
Sc      12.15966867      14.76055800       9.45634736
Sc       6.65428975       7.80299198      11.26296777
Sc      10.82184780      10.72749199       5.83772305
Sc      12.51292716      10.64606951       8.20416550
Sc      14.04380769       8.14057855       9.20608238
Sc       6.79178329       9.68271629       9.00133075
Sc      15.06691436      14.25353010      10.03206078
Sc       8.54746764       8.65176836       6.36585492
Sc       8.37929247      11.51112457       7.28537636
Sc      10.55924711       9.15013008      14.19905811
Sc      11.45044489       7.81132253       7.05392142
Sc       7.32819070      12.72208089       9.92726813
Sc      11.95865052       9.41193941      11.10078850
Sc      10.16119070      14.17495648      14.66578153
Sc      11.34235137      11.53188541      16.12765110
Sc      13.25249906      13.26054286      14.86534205
Sc       5.79319615      10.68513790      12.01653265
Sc       9.74743398      14.68797906      11.39879423
Sc      15.27197900      12.48370234      12.56237278
Sc      14.97781300       9.51523464      11.59939878
Sc      13.11778461      12.17985121      10.73402155
Sc      12.99641764       7.27785494      12.48631162
Sc       8.54189659      11.37936114      15.16753497
Sc      12.74987810      14.69363614      12.36889976
Sc       7.79668598      12.97842002      12.84705689
Sc       8.55622739      10.21304787      11.61205214
Sc      13.37088147      10.32476886      13.93012402
Sc      10.90743459      12.02059718      13.06001733
Sc      13.66611094      13.20331289       7.45091784
Sc      10.53490737      13.45580792       7.40846626
Sc       8.60867143       6.84974786       8.91113195
Sc       9.62164110       7.32392644      11.92130065
Sc      10.22224005      12.17998367       9.96652885
Sc       7.43982824       8.81166701      13.88476209
Sc      15.46401927      11.26332952       9.26428120
38
Properties=species:S:1:pos:R:3 config_type=qcd gap_pre_relax_energy=-197.0793242671629 gap_pred_energy=-197.56188294367493 gap_fmax_final=0.000972098621472839 gap_converged=1 pbc="F F F"
Sc      10.34060091       9.53659125       7.30499760
Sc       7.12091446      11.00624050       7.44486236
Sc       8.10104849       8.63247980       9.01622037
Sc      12.81379028      14.27337221       6.83462453
Sc      13.02557785      11.23368288       7.24342493
Sc       9.92777737      12.52351835       6.85364601
Sc      14.44232382      13.18673905       9.32975076
Sc       5.37822157       9.04173732       9.58782748
Sc      13.12510577       8.10663306       7.65575199
Sc      10.67515873       7.18925350       9.56242099
Sc       8.98115390      11.40205870       9.71029663
Sc      10.28678011      15.52585087       7.76017510
Sc       7.88961082      13.92410331       8.78276495
Sc      11.52782690      13.17068686       9.30475421
Sc      15.03319006       9.92609128       9.36588521
Sc      12.76872540      15.89697895       9.32597657
Sc      12.12528558       9.95579235       9.72868271
Sc       5.76939100      11.99423388       9.90207457
Sc       7.80900403       7.16379328      11.52764703
Sc      13.58700725       7.30713510      10.63452590
Sc      10.02670005      15.21163438      10.98610815
Sc      13.82315682      11.55510849      11.85436077
Sc      10.83570443      12.25812692      12.19606538
Sc      15.54897045       8.98035814      12.34913538
Sc      12.83238477      14.53298835      12.08396597
Sc       7.81149463      13.31104175      11.87647689
Sc       9.91797921       9.35672561      11.78504507
Sc      10.26048542      14.08910855      14.16405423
Sc       7.03858122      10.06915818      11.87058488
Sc      14.09632562       6.80009625      13.84284461
Sc      12.62698851       9.00989675      12.86623461
Sc      13.09201789      12.81186916      14.53823700
Sc      10.89539765       6.56616328      12.63730689
Sc       8.41954635      11.54756037      14.12115595
Sc      14.16101067       9.75724524      15.08134810
Sc       8.81866274       8.44446382      14.27505776
Sc      11.71048936       7.73828811      15.39760738
Sc      11.06644810      10.67403233      14.90893933
38
Properties=species:S:1:pos:R:3 config_type=qcd gap_pre_relax_energy=-197.2942715546994 gap_pred_energy=-197.50745710651663 gap_fmax_final=0.0009703649321596067 gap_converged=1 pbc="F F F"
Sc       8.95870610       7.74864265       8.56010012
Sc      11.21450611       7.26326349       6.23903402
Sc      11.91722864       6.35156843       8.93037609
Sc      10.54455094       7.88568942      11.23948012
Sc       9.28535862       9.53931133       6.07897971
Sc      14.05614290       8.34374176       7.57148694
Sc      12.59481326       7.58537596      13.74881237
Sc       7.82887815      10.77488736       8.54047971
Sc      11.46843402       9.31762712       8.40669357
Sc      12.19411216       9.96984854       5.46712908
Sc      11.84571079      10.12100733      12.82640035
Sc       9.43642365       8.52030678      14.08487229
Sc       7.78989361       9.18837093      11.33671173
Sc       9.24897579      11.49426580      13.32717015
Sc       9.99562109      11.05050734      10.40046486
Sc       6.99596092      12.06628924      11.30894979
Sc       8.74001740      10.69520754      16.19202500
Sc      13.51435762       8.35952427      10.69097403
Sc       6.65466560      10.49011952      14.03388302
Sc      15.64505066      10.42873421       9.89095757
Sc      10.50149834      12.02921646       7.38428287
Sc      13.64790552      11.43711865       7.63344138
Sc      11.73992296       9.90278944      15.70424143
Sc      14.81193487       9.79152969      13.02910297
Sc      13.04596151      11.52059794      10.52043236
Sc       7.68020520      13.29817091      15.01760308
Sc       9.02120957      13.73415606       9.55934441
Sc      11.34714903      13.48216816      12.29465595
Sc      15.16121850      13.44296134       9.30599080
Sc      12.06406367      14.05175059       9.18451708
Sc      10.80663018      12.93458760      15.51776794
Sc       8.37276386      14.51712576      12.32352059
Sc      15.23844580      12.69337487      12.16382580
Sc      13.45547395      12.18936745      14.41387009
Sc      13.78543858      15.18083157      11.32334079
Sc       9.92837964      15.55681082      14.40444271
Sc      10.90816964      16.15614821      11.51492488
Sc      12.88559234      15.21837669      14.16108557
39
Properties=species:S:1:pos:R:3 config_type=qcd gap_pre_relax_energy=-202.93490157225636 gap_pred_energy=-203.26671890028564 gap_fmax_final=0.0009892467937404406 gap_converged=1 pbc="F F F"
Sc      13.75652991       6.54044063       9.56887537
Sc      15.14707299       9.08177856      11.38291661
Sc      14.24494733       9.69842340       8.36377415
Sc      11.99524789       7.83235395       7.26701727
Sc      15.63918309      11.65449021      13.29221725
Sc      14.23470041       9.37655217      14.71166276
Sc      13.24820521       7.14913984      12.61281375
Sc      13.76285333      12.88997511       7.52501549
Sc      14.67536603      12.13113176      10.47217952
Sc      11.88093447      10.63536514       6.44928594
Sc      10.57220220       6.32959202       9.13918475
Sc      12.15812937       8.62739581      10.32943283
Sc      12.83957279      10.61651368      12.50864246
Sc      14.13076781      12.47277618      15.63032847
Sc      12.03738382      11.57793900       9.38739924
Sc      13.07601612      13.63001229      13.04907861
Sc       9.85482965       9.64842040       8.79383393
Sc      10.58912205      13.17054270       7.30645059
Sc      12.48651313      14.39885675      10.05053963
Sc       8.81490378       7.83783769       6.97223503
Sc       8.78423405      10.90105362       6.38503525
Sc       9.68157674      14.98870556       9.31106880
Sc      11.69419615      11.12958473      15.15994371
Sc      10.30781826       6.54692359      12.04951893
Sc      10.53178458      12.51977549      11.97045882
Sc       9.70924339       9.52971068      11.89537049
Sc       8.53593418      12.22796212       9.87151605
Sc      10.07425915      15.41075430      12.20616798
Sc      11.02463039       8.38437935      14.34095088
Sc       7.96336595       7.67997043      10.21123143
Sc      10.42441055      13.74659026      14.72465232
Sc       6.80716484      10.13002476       8.52028248
Sc       7.34860407      13.50494956       7.67951913
Sc       7.14477730      15.08281986      10.47620827
Sc       8.79644024      10.87549067      14.33590406
Sc       7.94517306       7.91182094      13.50025666
Sc       6.90919251      10.35785213      11.75537219
Sc       7.75132822      13.32488221      12.81058611
Sc       5.58086566      12.60669311      10.14255344
39
Properties=species:S:1:pos:R:3 config_type=qcd gap_pre_relax_energy=-203.40064911827196 gap_pred_energy=-203.64161613325993 gap_fmax_final=0.0009213792875165025 gap_converged=1 pbc="F F F"
Sc      11.93520059      14.91359283       8.37070014
Sc      16.80368045      13.43726786      10.25317055
Sc      14.78660247      13.71809438       8.20032297
Sc      14.15083299      15.22115503      10.80754831
Sc      15.68609667      10.75435437       8.86260983
Sc       9.73376125      12.80665508       7.10813389
Sc      11.26909313      16.52643548      11.04545967
Sc       9.08669769      14.67823990       9.60757029
Sc      16.84497129      11.03332886      11.87059620
Sc      15.48352357      13.49962604      13.22103420
Sc      11.62706297      13.69701326      11.01990457
Sc      14.15440239      12.04823474      10.83199212
Sc      12.55457455      11.73219792       8.21600393
Sc      13.19306002       8.52619523       8.52261363
Sc       7.02165628      12.34180135       8.55791938
Sc      12.52986302      14.90313675      13.63332328
Sc      14.63694141       9.04259409      11.33842564
Sc      10.40861045       9.77287278       7.55570154
Sc       9.46961686      14.69368969      12.96341067
Sc      13.94379232      13.01396442      15.96323415
Sc      11.76564686       9.79762961      10.63511862
Sc       9.60942162      11.70655114       9.74157740
Sc      12.51442289       6.88354510      11.11514857
Sc      15.14332719      10.39905469      14.41020823
Sc      10.69444285      12.88831878      15.43877745
Sc      10.13156368      11.76344795      12.81027967
Sc      12.94546531      11.92482465      13.55096580
Sc       7.43794584      12.96919187      11.43150919
Sc      12.30061302       8.90083126      13.44254947
Sc      10.03070442       7.43849547       9.54734682
Sc      12.47370882      10.44626357      16.07781312
Sc       8.89152147       9.41036915      11.68723430
Sc       7.69798441       9.37559209       8.76288464
Sc       9.80017581       6.95977330      12.83969826
Sc       9.69809246       9.60990027      14.86429723
Sc       7.46283068      11.49585789      14.01538685
Sc       7.14655981       7.22813055      10.97717914
Sc       6.13435205      10.27563698      11.24631072
Sc       7.06036621       8.42532142      13.71522537
40
Properties=species:S:1:pos:R:3 config_type=qcd gap_pre_relax_energy=-208.62789809841647 gap_pred_energy=-209.01436189546448 gap_fmax_final=0.0009289099307886666 gap_converged=1 pbc="F F F"
Sc      14.69814130      12.29421988      10.49011760
Sc      15.16186165       9.00909907      10.25512368
Sc      14.08660757      10.74130598       8.10216697
Sc      15.04072533      13.81034032      13.11481457
Sc      13.34360002       7.92858892       7.41444819
Sc      15.19566274      10.68270002      13.16466379
Sc      14.46935505       7.73590726      12.97002968
Sc      11.68170698      11.96505466       9.60177910
Sc      11.72379881      10.84240979       6.50210803
Sc      12.73272052       9.86579821      11.61423445
Sc      12.70936945      14.65398908      10.92349903
Sc      12.85087604       6.88723192      10.39218006
Sc      13.62752669      12.49201303      15.48999288
Sc      12.74444414       9.65941862      14.67024047
Sc      12.22814304      12.60704333      13.01510768
Sc      11.11487696       8.91041965       8.92793188
Sc      12.80643370      15.23495021      14.33740258
Sc      10.54189660       8.11070176       5.96365083
Sc      13.13975715      13.62367619       7.87697925
Sc      10.97409201       6.02819098       7.98742657
Sc      11.47135798       7.26883961      13.15060223
Sc       8.59313171      10.69656744       6.34656023
Sc       8.30092426       7.96257904       8.01563180
Sc       9.60040585       6.67844550      10.71610414
Sc      10.15995909      13.20314915       7.28328883
Sc       9.74449146       9.35976082      11.85200924
Sc       8.75522441      10.77891189       9.24163876
Sc       9.28865796      12.34802007      11.72957356
Sc       9.78900301      14.66024754       9.81805809
Sc      10.05971478      14.96283295      12.88843439
Sc      10.71354718      13.46431477      15.51799010
Sc       8.44764496       7.69974454      13.68695102
Sc       9.88749207      10.67677690      14.52230929
Sc       7.00980786       8.60584940      10.80801127
Sc       7.35168635      13.19235014       8.43029099
Sc       6.10285722      10.29445205       8.09659011
Sc       7.90213080      13.15028310      14.17716150
Sc       7.16837541      10.38244879      13.26448439
Sc       7.24058706      14.46599423      11.48408310
Sc       6.19426920      11.71823759      10.80919403
40
Properties=species:S:1:pos:R:3 config_type=qcd gap_pre_relax_energy=-208.58618513755022 gap_pred_energy=-208.87057403031488 gap_fmax_final=0.000948117988626 gap_converged=1 pbc="F F F"
Sc      15.30988029       8.26084878      13.36954092
Sc      12.99169906       6.20777873      13.16733738
Sc      12.72282085       8.72251240      15.17938296
Sc      15.41206500       8.47319337      10.39300472
Sc      13.07699171       6.65287806      10.04376502
Sc      14.20240083      10.96161498      13.64898473
Sc      13.50096252       8.78861149       7.92861322
Sc      10.11955071       7.63556561      13.78367891
Sc      12.61213967       8.85338469      12.27955570
Sc      15.88127650      10.93830733       8.56941319
Sc      10.54971660       6.18179016      11.16228498
Sc      16.19336838      11.13272834      11.60901732
Sc      11.82735559      12.10686366      14.85572627
Sc       9.81652531       9.99651124      15.66114367
Sc      10.49227375       7.00854525       8.07750175
Sc      13.53561076      10.76524533      10.19738181
Sc      14.33817353      13.90489362      13.38378899
Sc      10.93684399       8.95750379       9.92311011
Sc      13.03326719      12.04426883       7.56041868
Sc       8.28329319       8.12832321      11.24802928
Sc      10.93590383       9.92731724       6.88593285
Sc      10.39118765      11.77211740       9.31858024
Sc      12.14382751      12.83963723      11.86241006
Sc      14.64543167      13.51786987      10.20087366
Sc       8.41016075       9.60299953       8.32568951
Sc      10.11030491      10.54680689      12.64224523
Sc       7.42250271       9.98481541      13.74712769
Sc      12.97055769      15.83766193      11.55254121
Sc       7.56553546      10.95814739      10.93787512
Sc       8.82481627      12.69045673      14.36843312
Sc      11.07777464      14.93474101      13.74505769
Sc       9.98419759      12.92817261       6.73842560
Sc       9.17843137      13.66908089      11.38872167
Sc       7.43855451      12.76617727       8.65767969
Sc      11.77049915      14.45764237       9.13854307
Sc       6.36296174      13.07923142      12.66742153
Sc       7.92703989      15.58149218      13.38015958
Sc       9.91221436      16.46279576      11.10130854
Sc       8.95136980      15.22966296       8.46017243
Sc       6.88743946      15.23873139      10.58604829
41
Properties=species:S:1:pos:R:3 config_type=qcd gap_pre_relax_energy=-213.58036644589265 gap_pred_energy=-214.1505511429471 gap_fmax_final=0.0008610926978413561 gap_converged=1 pbc="F F F"
Sc       9.24929027      10.97173085       6.11545518
Sc       6.82060349      12.67036578      10.55925069
Sc      11.82642001      13.03112628       7.03737744
Sc       9.89561418       8.13828573       7.71214744
Sc      11.94001414       9.88125421       6.23186550
Sc       8.82397800      13.31107009       8.05567662
Sc       7.67650967      10.30837644       8.76072878
Sc       7.68372834      15.68740143       9.58656663
Sc      11.12305989      15.40472249       9.06576157
Sc       6.46054843       9.77902937      11.84542378
Sc      10.64746171      10.97211375       8.73490637
Sc       7.22431757      15.12421485      12.50943209
Sc      14.32896099      14.26908993       8.84128914
Sc      11.25790792       8.50394706      10.36578006
Sc       8.32153410       7.84659886      10.35072659
Sc      13.24063978       7.93714602       8.23052786
Sc       9.20283094      10.66396876      11.47441846
Sc      12.39460632      12.89119061      10.20541114
Sc       9.54604950      16.75845087      11.63142656
Sc      13.99204771      11.02014696       8.20224586
Sc       9.48955944      13.81552960      11.03433966
Sc      15.86965188      11.92387779      10.34432293
Sc      11.29892344       9.17057592      13.15856731
Sc       7.78572603      12.22974251      13.54229974
Sc      10.79361529       5.80077374      10.29642711
Sc      13.52210818      10.16639673      11.04770004
Sc      12.15884288      15.37687589      12.11977909
Sc       9.33177229       6.90760213      12.93241816
Sc      14.64821355      13.94318199      12.00518446
Sc      11.81906244      12.06258706      12.91717206
Sc      13.71207382       6.76828928      10.86420856
Sc       8.34555883       9.35512133      14.24817464
Sc      15.77567800       8.84309933      10.16398461
Sc      10.33909727      11.39869505      15.43810693
Sc      12.15264526       6.29741718      13.28612292
Sc      10.84389403       8.00241544      15.58972314
Sc      15.03769463      11.38919271      13.37596698
Sc      10.02319011      14.36294280      14.02392531
Sc      14.43589081       8.38033415      13.23029127
Sc      13.10496123      13.59580540      14.81210253
Sc      13.08519575      10.26879172      15.28224284
41
Properties=species:S:1:pos:R:3 config_type=qcd gap_pre_relax_energy=-213.65694952947445 gap_pred_energy=-214.33244600025512 gap_fmax_final=0.0009808605165200054 gap_converged=1 pbc="F F F"
Sc      15.31343640      10.68932632      11.95796676
Sc      14.50675122       8.48213657      14.11076601
Sc      13.16259417      11.21527390      14.52762053
Sc      15.17225505       7.60679703      11.39652429
Sc      14.88091489      12.84403702       9.37753317
Sc      13.28085788      13.05390463      12.04416713
Sc      14.54329263       9.61545490       9.04183695
Sc       9.56196721       6.28674428      14.22904539
Sc      11.39774908       8.74425664      15.01533739
Sc      11.81083889      13.94780050      14.53354492
Sc      12.37283478       6.60164455      12.75566239
Sc      14.28100166      15.13832425       7.34250504
Sc      12.76691998       9.34542111      11.79539340
Sc      12.68477453       7.06524555       9.59399477
Sc      13.63038694      11.96334477       6.81403660
Sc      13.54767648      15.45090973      10.26260195
Sc      10.59216050      14.07355657      10.84222782
Sc      12.27464401      11.40045764       9.51673131
Sc      11.91213528       9.23237069       7.27441623
Sc       7.23526064       7.30798831      12.54873371
Sc      10.71123701      11.59677081      12.80983822
Sc      10.05109673       6.51853562       7.85254976
Sc      10.27451293       8.75167882       9.65983728
Sc       9.37014874      11.51790201       9.95600129
Sc      11.38288075      16.26222460      12.41191467
Sc      11.86005733      13.99643641       8.12597309
Sc       9.80794215       6.09100056      11.01752821
Sc      11.05608027      16.68329696       9.25905750
Sc       9.73573977       8.74604541      12.56730328
Sc       8.27204745       8.83286353      15.07723002
Sc       8.74657064       9.16341524       7.20829710
Sc       7.57034767       7.41957460       9.36166157
Sc      10.10818301      11.80572707       6.98036760
Sc       8.71930550      14.22282841       8.48080911
Sc       7.12649956       9.87962285      10.91626215
Sc       7.79409006      11.30920725      13.43435557
Sc       8.57793517      16.13639640      11.02194463
Sc      10.00929767      11.59788114      15.57395190
Sc       7.04595493      11.44716069       8.24251783
Sc       7.18334278      13.17962004      10.95109317
Sc       9.04340450      14.15194348      13.48598710
42
Properties=species:S:1:pos:R:3 config_type=qcd gap_pre_relax_energy=-219.8025436810656 gap_pred_energy=-220.03677635968234 gap_fmax_final=0.0009121071078465322 gap_converged=1 pbc="F F F"
Sc      11.22869871      10.49784989       6.45078309
Sc      11.71702411       7.69294519       7.70768159
Sc       8.83278976      12.22800914       6.71022231
Sc      10.44971603      14.71858226       7.04948590
Sc       8.80891701       9.21473340       7.77702622
Sc      13.08213927      13.07985512       6.50814912
Sc      13.70123889      10.18104218       8.15095768
Sc       9.15968544       7.27236985      10.14448364
Sc       8.03135456      14.47879074       8.84854712
Sc      14.95429423       7.66112469       9.72295551
Sc      16.26695486      10.49201255       9.84476585
Sc      11.43052315      12.51883922       8.68556368
Sc      12.18493173       6.91304421      10.56203163
Sc      11.10963169       9.66859189       9.67733938
Sc      12.75426672      15.46337235       8.69204369
Sc       8.69986139      11.65309017       9.62267933
Sc       9.84259030      16.91419573       9.07842145
Sc       6.86582723       9.52207475      10.60758374
Sc      14.36290549      12.95018966       9.51945765
Sc      16.44086115       8.88724871      12.26408022
Sc      14.03082686       7.15299117      12.97312259
Sc       7.56573597       7.58439521      12.99226990
Sc       8.10822840      15.55398248      11.69261105
Sc      13.72524474       9.64520974      11.37069673
Sc      10.72722672       7.09403223      13.15977007
Sc       9.37899231       9.54197020      12.05318812
Sc       6.57292377      12.85435018      11.39620012
Sc      12.26737652      12.20799992      11.60960720
Sc      11.76717334      10.04724807      13.78546889
Sc      10.62208436      14.63649895      10.60162992
Sc      13.46375799      14.82088628      11.89083319
Sc       9.36824586      12.54911111      12.44562874
Sc       7.21442543      10.77465632      13.67486585
Sc      15.26678599      12.08290895      12.41843368
Sc      14.55349006       9.88647677      14.62024758
Sc      12.44225657       7.79310294      15.63703293
Sc       9.42391954       8.99706186      15.20930983
Sc       9.85320605      12.09786037      15.30519365
Sc       7.56429159      13.96426049      14.21136857
Sc      12.91771285      12.80356406      14.44553860
Sc      10.59159472      14.84817638      13.74084354
Sc      12.15203000      10.55703595      16.64362182
42
Properties=species:S:1:pos:R:3 config_type=qcd gap_pre_relax_energy=-218.94675983196393 gap_pred_energy=-220.08664182094867 gap_fmax_final=0.0009786980413113394 gap_converged=1 pbc="F F F"
Sc       8.00620408       8.90629468      13.25019570
Sc       8.67060352      11.55972712      14.63945451
Sc      10.21066282       8.77556894      15.54695935
Sc       7.30718439      11.56191506      11.92338099
Sc       9.19260282       8.29628470      10.56445560
Sc      10.07918260       6.84107020      13.07737845
Sc       7.36562182      14.15513679      13.32834864
Sc       9.86341523      14.40412203      15.26335187
Sc      10.74254925       9.92682153      12.94132203
Sc       9.70799319      11.18104631      10.27787568
Sc      11.48733055      11.78476098      15.95270292
Sc      12.17132159       7.88310066      10.91913827
Sc      13.14022474       9.35101587      16.56060879
Sc      11.25271905       9.57455838       8.40313832
Sc      12.13557376      13.77111376      10.00925594
Sc      12.89302363      10.78811322      10.67441897
Sc      10.22243153      13.18345671      12.48211302
Sc       9.39914255      16.12790165      12.49443204
Sc      12.89182833       7.77177570      13.99480610
Sc       8.43525854      14.04509052      10.34993691
Sc      12.73826745      13.80358958      14.04539599
Sc      12.85698626      14.72411340      16.69758298
Sc      14.65941201      12.10678622      16.04201162
Sc      15.64127374       9.06341927      15.09066285
Sc      15.02326240       8.85445309      11.88844467
Sc      14.20400673       8.88420711       8.74929970
Sc      10.33479973      12.92405486       7.88502998
Sc      10.52228327      16.02700722       9.24088185
Sc      12.37254794      16.01214784      12.03808123
Sc      13.55355864      10.69397690      13.80392626
Sc      14.57834966      13.25574207      11.83150824
Sc      13.33172272      11.84203411       7.90542144
Sc      11.46186280      16.77979019      14.83757900
Sc      16.45398092      11.33414360      13.20940708
Sc      14.26714060      16.45125860      14.53002786
Sc      12.58157593      14.83242961       7.22643263
Sc      16.11688527      14.18928253      14.21861310
Sc      15.85459653      11.23693464      10.00317300
Sc      13.51638690      16.62121458       9.34846951
Sc      17.43000768      13.69083053      11.39732564
Sc      15.52550883      16.03997035      11.71023120
Sc      15.21440419      14.15743308       9.06091426
43
Properties=species:S:1:pos:R:3 config_type=qcd gap_pre_relax_energy=-225.02793861562637 gap_pred_energy=-225.57055814339725 gap_fmax_final=0.0009677084989332917 gap_converged=1 pbc="F F F"
Sc      10.41187522       8.77395658      15.63109603
Sc       9.99459783      11.43303124      17.03016884
Sc       7.91109323       7.60035982      13.27491663
Sc       7.77794614      10.35183005      14.84854142
Sc      13.42622766       8.17491555      14.27475754
Sc       5.63343933       9.83436011      12.55521881
Sc      12.83081459      10.85942463      15.80302803
Sc       8.41825589      13.35436693      15.46959081
Sc      10.83790162       8.57848180      12.79504893
Sc       6.75887930       8.14490195      10.31025811
Sc       9.78697998       7.28797882      10.38593917
Sc      10.39583371      11.45219351      14.10249199
Sc      11.61243723      13.82338222      15.37065668
Sc      15.66948401      10.27230820      14.65570652
Sc       7.13259734      12.72982744      12.65793126
Sc       8.33801346       9.92996627      11.81356694
Sc      15.55993997       9.02003588      11.84050157
Sc      12.98356510       7.34246895      11.04043132
Sc      13.30991762      10.71221843      12.83555022
Sc       6.83141533      11.59240015       9.84971631
Sc       9.68026743      14.76450359      13.07503228
Sc      14.58585932       8.80668322       8.95140089
Sc      12.29852655      13.51907884      12.24291822
Sc      14.46714592      13.28257522      14.24867840
Sc      11.79146452       9.91961448      10.17224906
Sc       9.82438309      12.21353339      11.08740092
Sc      11.82111343       7.93559685       8.04200172
Sc       9.14365280       9.75295208       8.76400118
Sc      14.23104741      11.69956251      10.13422592
Sc      16.40022440      11.95008955      12.18231738
Sc      12.86287445      16.03441716      13.29077254
Sc      16.80800885      10.90864585       9.26503391
Sc      11.86369889      13.26152394       9.23604156
Sc       8.36951147      14.54173252      10.11346567
Sc      14.95571756      14.52733138      11.41648349
Sc      11.03962564      15.95353472      10.74092538
Sc       9.19783924      12.71654624       7.84078038
Sc      14.57353195      11.16081560       7.17986787
Sc      11.61689845      10.90947182       7.24181101
Sc      15.60660035      13.68352007       8.46883859
Sc      12.95311977      13.77878014       6.63724927
Sc      13.45237301      15.73971514       9.09983640
Sc      10.62858031      15.46464657       7.81683018
43
Properties=species:S:1:pos:R:3 config_type=qcd gap_pre_relax_energy=-224.9157741015647 gap_pred_energy=-225.5043014300117 gap_fmax_final=0.0009575640451335202 gap_converged=1 pbc="F F F"
Sc      11.76289342       9.57161913      16.05226062
Sc      14.90143475      10.05612760      15.99602246
Sc      13.90448188       7.67639061      14.53954548
Sc      12.84206557      12.43467746      16.10469721
Sc       8.98832871       8.67461245      15.09190093
Sc      15.70111584       9.32496454      12.84024611
Sc      11.40098170       8.14676792      13.03447510
Sc      13.24830778      10.78274124      13.69816648
Sc      15.60661543      12.44271089      14.25826384
Sc       9.28809891      11.64408962      16.20953453
Sc      13.99205612       7.06853163      11.38105786
Sc       7.24866184      10.86765221      13.96297234
Sc      13.16571428       9.72558013      10.76469560
Sc       8.25138204       8.33759986      11.99233550
Sc      15.53488017      11.84464353      11.31885377
Sc      10.20685569      10.93254064      13.57251452
Sc      15.65737305       9.29368183       9.48191300
Sc      10.88490078       7.02089411      10.32867569
Sc      13.35360692      14.28603234      13.69620362
Sc      10.17934494       9.86448455      10.62859912
Sc      12.20203436      12.61438307      11.41128844
Sc      14.35802115      14.62295411      10.92306918
Sc      10.55103014      13.99962908      14.58518304
Sc       7.52811376      13.76202697      14.51839404
Sc       9.16422632      13.33287028      12.09898335
Sc      13.15352619       7.80933271       8.27086003
Sc      14.43151382      10.18198903       6.63510029
Sc      11.85544079      10.51264851       8.04353977
Sc       7.77006485       9.50390041       8.87216163
Sc      14.10444736      12.26867875       8.79826197
Sc       9.80857025      12.35735872       9.23592086
Sc      10.10848980       8.17256830       7.69643247
Sc       6.41641320      14.05455735      11.58315677
Sc       7.29187955      11.21083680      11.06301042
Sc      11.36084901      15.51427562      11.68040124
Sc      11.82018434       9.37852864       5.44048746
Sc       8.47199094      16.02122482      12.85631912
Sc      11.87747437      14.45316412       8.77758387
Sc      12.17670277      12.49577192       6.08428333
Sc       7.06223473      12.74058649       8.48656499
Sc       9.24720513      10.96353250       6.54232097
Sc       8.78648934      15.13231719       9.71064873
Sc       9.43669577      14.00322008       6.83579201
44
Properties=species:S:1:pos:R:3 config_type=qcd gap_pre_relax_energy=-230.69998768534603 gap_pred_energy=-231.01262366035235 gap_fmax_final=0.0009801681395067965 gap_converged=1 pbc="F F F"
Sc      13.94670921      16.52769431      13.49203927
Sc      15.39165007      15.37213045      10.80253305
Sc      13.55522354      15.67846552       8.20478760
Sc      14.02773213      13.63215937      12.53258737
Sc      16.24644774      14.73193887      13.93534228
Sc      14.40011864      10.23206150       7.35102560
Sc      12.20192710      15.97373510      11.09626319
Sc      13.15750958      14.11343884      15.26680545
Sc      15.42846091      13.12827497       8.56511869
Sc      12.59382334      12.88224510       6.87676822
Sc      10.80703501      15.92244328      14.05739029
Sc       9.35304612      15.25342147      11.37350691
Sc      16.63305821      12.52567220      11.77355061
Sc      12.78993024      13.44427529       9.79212742
Sc      11.45803413      10.06030362       5.92295861
Sc      10.15780250      13.30665774      15.87277678
Sc       9.43579948      11.90092254       7.46955979
Sc       7.97741236      13.89835717      13.65472556
Sc      15.39606567      11.82908092      14.68577551
Sc      11.05146360      13.28426674      12.99922218
Sc      11.97693691      10.54545917       8.66937883
Sc      10.47532632      14.75413825       8.51048378
Sc      15.67066732       9.44041133      12.64863815
Sc      14.34929353      11.07207965      10.51903234
Sc      12.49308373      11.36006775      16.34923953
Sc      13.07027361      10.83130219      13.19749400
Sc       7.29120101      13.31078186      10.54028069
Sc      12.35074379       7.76508753       7.51689179
Sc      10.10365887      12.26477833      10.30132336
Sc      13.99064090       8.25460719       9.93351660
Sc      12.97955232       8.71092203      15.35668191
Sc       8.64230973      11.18859376      12.45508590
Sc      11.22215977       6.74602138      10.39143204
Sc      10.51774731      10.41095220      14.34945007
Sc       9.61912592       8.85169187       8.55153643
Sc       7.86236926      11.40467407      15.45278308
Sc      10.00257994       9.24644256      16.68118188
Sc       7.43123163      10.53565009       9.82001047
Sc      13.22254755       7.61863489      12.63789004
Sc      11.10254874       9.43312773      11.34427125
Sc       6.00181020      11.18795018      12.70549073
Sc       8.42022506       8.08450195      11.39422385
Sc      10.44434824       7.42907015      13.75382991
Sc       7.78615664       8.89129679      14.23077687
44
Properties=species:S:1:pos:R:3 config_type=qcd gap_pre_relax_energy=-230.59428959361907 gap_pred_energy=-231.19132115667614 gap_fmax_final=0.000976458444432927 gap_converged=1 pbc="F F F"
Sc      16.49026162      11.79124515      11.65106594
Sc      16.78500558       9.54599431       9.62288735
Sc      15.34497268      12.40757131       8.95116084
Sc      16.05330865       9.20748270      12.74981945
Sc      14.75286548      14.15968741      11.81447808
Sc      15.39114197      12.05483588      14.50901621
Sc      13.89289872      15.16885754       8.91765035
Sc      14.21335479       9.81333181       7.40960879
Sc      14.19143893      10.05478929      10.58025758
Sc      12.79784134      12.60467258       7.17239468
Sc      14.52721655       7.41295023       9.35818408
Sc      13.19653140      11.58100125      12.85689192
Sc      13.50229242       7.59574282      12.33390208
Sc      12.52508575      12.81351609      10.12058008
Sc      10.84661631      15.06163918       8.62776340
Sc      13.76389326       9.31136746      14.69477668
Sc      11.93707893      15.49096189      11.45654629
Sc      12.18354364       7.50755399       7.25100133
Sc      11.66446335       9.96581641       9.07470542
Sc      10.97413492      10.04051550       6.23415318
Sc      10.94573952       9.48316500      12.26955820
Sc      11.55897445       7.06783340      10.17771943
Sc       9.89237869      12.32838166       7.84686939
Sc      10.83636173       6.77832352      13.44940988
Sc      12.64522969      14.21903272      14.21695299
Sc      12.54856752      11.74455262      15.91853837
Sc       9.58170163      13.45373603      11.08107385
Sc       8.88781910      16.32835823      10.66543211
Sc       7.33794185      10.75773279       7.70678671
Sc       9.21585030       8.29625679       8.29053923
Sc       8.89197710      10.63089620      10.22819009
Sc       8.86084393       7.50320836      11.23982491
Sc       7.69685029      14.10601433       8.85031509
Sc      10.23184824      12.17645657      13.80375902
Sc       9.57091742      15.28729971      13.59007106
Sc      10.87519526       9.26966168      15.27623282
Sc       8.36524667       8.52939093      13.93469789
Sc       6.14685513      11.97214541      10.16043267
Sc      10.17118747      13.60343403      16.30473518
Sc       6.91739234      14.33018485      11.95966848
Sc       6.51566923       9.08767715      10.36071990
Sc       7.50307256      11.21730817      12.78899612
Sc       8.51430560      11.00561318      15.92326122
Sc       7.55246128      13.53213715      14.86770492
45
Properties=species:S:1:pos:R:3 config_type=qcd gap_pre_relax_energy=-236.05045383502036 gap_pred_energy=-236.6625805499564 gap_fmax_final=0.0008308324401730655 gap_converged=1 pbc="F F F"
Sc       7.59526203       8.49318963      14.72974395
Sc      10.52197552       9.23372297      15.17211467
Sc       6.14745144      10.50539762      12.97494397
Sc       8.57333954      11.61269177      14.77705315
Sc      11.48104116      12.37861609      15.43719626
Sc       6.91798591       7.64594454      11.89020853
Sc       9.45174803      14.78892365      14.06042532
Sc       7.02108241      13.33480695      12.92572190
Sc       5.88789100      13.22666449      10.03154557
Sc      12.83969427       7.45504315      13.88046014
Sc       9.90874966       6.93573166      13.13345040
Sc       6.41236064      10.07542622      10.07209287
Sc       8.99365179       9.70992267      12.26826349
Sc      12.46440309      10.30102747      13.27670967
Sc       7.98971429      15.27425670      11.07946014
Sc      10.56702316      12.59650411      12.59943192
Sc      12.70373627      14.69600974      13.55586371
Sc       9.32717862       6.82640159      10.29369270
Sc      10.88274431      15.47722049      11.33951815
Sc       8.45309426      12.27029505      10.57661568
Sc      13.60360538       9.83689714      15.84994773
Sc      14.52055754       8.28223841      11.56923698
Sc      14.42645330      12.58285173      14.82115855
Sc      12.36347097       6.09523158      10.91771053
Sc      11.54817838       8.75038836      10.89745781
Sc       7.87677630       8.29264788       8.16268928
Sc      13.80938603      12.41338821      11.85071362
Sc       9.98145901      10.25390581       8.78441714
Sc      13.64841041      14.98548636      10.30946471
Sc      13.44409077      10.70006580       9.57783436
Sc       7.49398971      11.46647026       7.61495932
Sc       8.42312301      14.29451365       8.35172547
Sc      15.61833302      10.35859590      13.52024442
Sc      11.34211011      12.92952295       9.68822686
Sc      10.98545489       7.53327292       7.91766469
Sc      16.30562884      13.36574251      12.40620475
Sc      13.96466140       7.95101289       8.65872701
Sc      11.21723037      15.46858741       8.26197811
Sc      12.43496445      10.12944261       6.84372597
Sc       9.49472637       9.59248521       5.93980258
Sc      15.69826120      13.01573725       9.40635746
Sc      10.42032944      12.59780819       6.79718546
Sc      16.35171279      10.55052719      10.63048674
Sc      15.50782041      10.56546812       7.60638604
Sc      13.38196340      13.15273999       7.54400714
45
Properties=species:S:1:pos:R:3 config_type=qcd gap_pre_relax_energy=-236.21279912167475 gap_pred_energy=-236.94906009821867 gap_fmax_final=0.000998825803995782 gap_converged=1 pbc="F F F"
Sc      12.76571199      15.51403784       9.40189582
Sc      15.16368980      14.08781975      11.43180877
Sc      15.15771798      14.50807679      14.47266455
Sc      12.10818897      13.34073143       6.99207573
Sc      13.26651876      12.53591197       9.72032836
Sc      15.55608187      11.48985281      13.40847292
Sc      12.85018187      16.00799238      12.60548516
Sc      14.53260777      11.12739454       7.24186468
Sc       9.73604178      14.60269035       8.58822350
Sc      15.67882994      10.96571385      10.35546755
Sc      10.30698263      16.84077929      10.77939807
Sc      13.05385130      13.07955777      13.20179668
Sc      12.12675362      14.73246790      15.52807719
Sc      11.58067755      10.17399688       6.53734347
Sc      13.82198702      12.05132359      15.87097600
Sc      11.01246277      14.07112235      11.21640415
Sc      16.05737566       8.55718920       8.50811522
Sc      12.94946939      10.43349927      11.90184647
Sc       9.17161453      12.28278143       6.46102566
Sc      10.57230773      11.65668395       8.85892947
Sc       9.78046867      16.16755229      13.79219148
Sc      13.95537936       8.17602473       6.33103543
Sc       8.12821535      14.50358240      11.47655950
Sc      13.68142760       9.27069730      14.73723290
Sc       7.09508315      14.38098256      14.46671800
Sc       9.77415268      13.36731340      14.00130589
Sc      13.25850375       9.19470250       9.01798522
Sc      14.10197099       6.33953748       8.68034749
Sc       7.63782519      12.18467659       9.33895986
Sc      10.76042744       9.00259237      16.16408406
Sc      11.19034083      10.84888469      14.23079200
Sc      14.64536943       8.05806305      11.53211395
Sc      11.03724691       7.28110188       8.05399616
Sc      10.64332126       8.99617764      10.48642952
Sc      11.01803295      12.07575187      16.89048670
Sc       6.98411787      11.76799750      12.81113681
Sc       9.14393082      14.45503585      16.60432055
Sc       8.77623948       9.49148716       7.90799424
Sc       9.56913241      11.42884126      11.66894168
Sc      11.53452751       7.86120234      13.22273214
Sc      12.06379351       6.32833837      10.72693023
Sc       8.36326722      11.39437492      15.70331296
Sc       7.51856356       9.41797507      10.66421579
Sc       8.73031773       9.08543489      13.42107566
Sc       9.09092263       6.81367980      10.93853355
46
Properties=species:S:1:pos:R:3 config_type=qcd gap_pre_relax_energy=-241.2395748428656 gap_pred_energy=-242.35509652764623 gap_fmax_final=0.0007916433839298653 gap_converged=1 pbc="F F F"
Sc      14.10238368      12.80530907      15.03194326
Sc      15.56335321      11.97352656      12.21700419
Sc      15.72387742      10.22630115      14.77566165
Sc      12.83229385      10.15107545      16.21866227
Sc      14.04165924      14.65812758      12.32043010
Sc      14.25251344       7.77313417      14.59925268
Sc      15.10472427       8.91858988      11.70154572
Sc      11.02770453      12.98306849      16.25186225
Sc      12.50974059      15.47377786      15.04595563
Sc      15.57885326      13.87014926       9.74257684
Sc      11.23990720       7.65287606      14.59175358
Sc      11.69849809      13.16133033      13.41022901
Sc       9.82060299      10.39879202      15.08876597
Sc      10.44807512       9.33429702      12.08667139
Sc      13.04781873      10.32558020      13.37099051
Sc      14.49711545       7.51851014       8.72902282
Sc       7.74793054      12.97838954      15.06313774
Sc      15.22422001      10.74271884       9.27069101
Sc      12.78815259       6.99450380      12.01771880
Sc      12.70273871      15.22688306       9.53207749
Sc      11.16355221      16.00535015      12.14755116
Sc       9.65800012      15.03185463      14.49238552
Sc      13.00916867      12.14548534      10.68193380
Sc       8.29721185       7.84454976      14.08378358
Sc       6.87263375      10.41651059      13.92376898
Sc       9.74852832       6.49377771      11.83964436
Sc      13.57520744      12.98497096       7.56197584
Sc      13.66015469      10.02610922       6.81163678
Sc      11.78361523       6.03812077       9.37821652
Sc      10.35181079      13.67660265      10.40556523
Sc      12.44233154       9.07104368       9.73003221
Sc       9.50257697      16.29880087       9.55929948
Sc       8.91794192      11.08143679       9.80068992
Sc      11.84982090       7.77023016       6.99907483
Sc       7.95496189      14.73056895      12.01154234
Sc       9.06948536      12.01262181      12.71067989
Sc      10.59190025      14.23713034       7.42304630
Sc      11.24544426      11.30127835       8.15573868
Sc       7.40065278       8.92983436      11.32612759
Sc       9.44396364       8.09327708       9.17755428
Sc      11.33914714      11.68175433       5.39100225
Sc       8.57346833      12.15696523       6.79252370
Sc       7.63830518      13.83717722       9.05415968
Sc       9.41287767       9.52652932       6.54742030
Sc       6.80184813      10.15045445       8.35776297
Sc       6.41583899      11.96323570      11.24354178
46
Properties=species:S:1:pos:R:3 config_type=qcd gap_pre_relax_energy=-241.77933875351184 gap_pred_energy=-242.59710314086973 gap_fmax_final=0.0009416433510609621 gap_converged=1 pbc="F F F"
Sc       7.14151858      10.89377642      14.91402506
Sc       8.72061562       8.09728352      15.09783476
Sc      10.05584401      12.76516282      14.98162653
Sc       5.86468189      11.22421822      11.87494324
Sc       6.24482107      10.25642324       8.87629786
Sc       6.83258576       8.60638158      12.69915644
Sc       9.68589509       7.32439789      12.28602882
Sc       7.84755704      13.23957043      12.74784739
Sc       7.95602467      12.15315964       7.04952444
Sc      12.75593304      12.35723232      16.62583363
Sc      11.01202963       9.98597565      15.79304719
Sc       9.84465749      15.50445139      13.72744170
Sc       9.16556845      10.29308255      13.21223659
Sc       6.89953895      13.28438073       9.68713786
Sc      10.67163976      12.84732101      12.00165768
Sc      12.00538295       9.54475041      12.94851857
Sc       7.88928824       7.93154805       9.90359971
Sc      12.43282053       6.64472867      11.59476984
Sc       9.37077922       9.44443172       7.69888547
Sc      11.91534467       7.25916612      14.61381738
Sc      12.75763042      14.83992416      14.76498320
Sc       9.21672946      15.35207458      10.71795196
Sc       8.55087251      10.80113700      10.44381068
Sc      11.20042394       9.07780797      10.11958717
Sc       9.90398139      13.05962874       9.02611990
Sc      14.11860828       9.87248225      15.19072940
Sc      10.48693114       6.56708847       9.06500732
Sc       8.59286464      15.07841073       7.51785412
Sc      13.07208797      12.22045826      13.61387530
Sc      15.30035843      13.02382426      15.32858221
Sc      14.82547079       8.18739628      12.63453185
Sc      13.98326649      10.36845670      10.75546431
Sc      11.96949968      11.15160845       8.07574593
Sc      12.18531181      15.57630502      11.73938504
Sc      13.02748131      13.15199981      10.21096412
Sc      14.22638111       7.68095895       9.48964361
Sc      15.90646028      11.22950478      12.83372480
Sc      12.28699046       8.32895855       7.32073227
Sc      10.78344424      13.30914493       6.28054371
Sc      14.85738619      10.28006993       7.88126941
Sc      14.96956718      14.23168844      12.41098392
Sc      11.68469184      15.38479343       8.52008383
Sc      16.67243200       9.43827828      10.27661643
Sc      15.89428674      12.53185025       9.79906885
Sc      14.63469703      15.49815629       9.56100863
Sc      13.87439364      13.39532675       7.38227748
47
Properties=species:S:1:pos:R:3 config_type=qcd gap_pre_relax_energy=-247.49377182687104 gap_pred_energy=-248.1005487051111 gap_fmax_final=0.0009594070200191814 gap_converged=1 pbc="F F F"
Sc       5.85099273      10.32226840      12.94152515
Sc       5.85171792      11.44174337      10.07739638
Sc       5.93782334       8.46482348      10.58245979
Sc       8.10292417      12.27542670      13.78971735
Sc       9.38736393      15.58531107      12.37890055
Sc       8.04206940      13.29417749      10.88720574
Sc       9.24173341      15.63258119       9.12029021
Sc       7.88188913       7.82962583      13.08576898
Sc      11.50146126      17.07273411      10.80788246
Sc       7.74123529       9.74316693      15.30968667
Sc       7.72572837       9.88360682       8.30504815
Sc      10.03847410      14.27244656      15.07158040
Sc       8.26074098      10.16293200      11.30408777
Sc      10.10665979      11.29615354      16.15844377
Sc       7.80176035      12.95258720       7.91976516
Sc       8.91948472       7.49428945      10.07065219
Sc      10.69416110      12.84494570      12.43943064
Sc      12.43685546      15.42003479      13.31566787
Sc      12.16420673      16.38531651       8.04476851
Sc      10.73022285      13.73764042       7.07262962
Sc      10.23913164       7.99646138      15.62871210
Sc      14.24243433      15.51684562      10.64270989
Sc      11.63994358      14.23277088       9.93353740
Sc      10.45822190       9.93513481      13.53765199
Sc       9.35952669      11.11952721       6.00847963
Sc      13.63818951      12.83302925      11.96310631
Sc      10.19669547      11.57126893       9.26252997
Sc      10.74900249       6.85190862      12.53207912
Sc      12.65462874      12.69406724      14.87888261
Sc      13.51715411      10.08941096      13.00841352
Sc      13.87138229      13.75839271       7.86001144
Sc      11.66336783       6.28769180       9.49320010
Sc      10.57913012       8.77617841       7.74241450
Sc      11.50351730       9.07168286      10.65383398
Sc      12.81872705       9.77451203      16.05750761
Sc      13.34456210      11.31414247       9.48337442
Sc      15.39437433      14.23685443      13.65501586
Sc      13.05083657       7.40313577      14.34569613
Sc      12.38360044      11.11205436       6.75048987
Sc      15.95837270      12.90205979      10.00878302
Sc      13.59333348       8.55326925       8.40673641
Sc      15.32918653      11.40788491      15.24075553
Sc      13.84502792       7.34429201      11.46459197
Sc      15.84459043       8.68143075      13.73746319
Sc      15.49101311      10.98335325       7.59457687
Sc      16.40610805      11.55539713      12.67353729
Sc      15.62332919       9.69832450      10.56589486
47
Properties=species:S:1:pos:R:3 config_type=qcd gap_pre_relax_energy=-247.30836565021468 gap_pred_energy=-247.89391680172506 gap_fmax_final=0.0009660348466503212 gap_converged=1 pbc="F F F"
Sc      11.23650233      13.81270787      16.65796427
Sc       8.28584187      13.59225167      14.76605172
Sc      12.31541962      10.85990491      16.37612198
Sc       9.26322376      12.74921176      12.06378735
Sc      10.25817716      15.75478774      14.60493198
Sc       7.11391654      10.91527119      13.52747995
Sc       8.83330735      15.61301082      11.96392577
Sc      13.21954515      15.76610126      14.63962918
Sc       9.20621069      10.75427956      15.89896699
Sc      14.11374638      12.74872115      14.91571954
Sc       8.74169785      13.79057074       9.20998738
Sc      11.52276053      17.44179066      12.50330615
Sc      11.10916808      12.51384441      14.26528917
Sc       9.80051219       9.81253585      13.11917746
Sc       6.47738993      12.77107782      11.19625089
Sc      11.81044013      14.59699795      12.34239682
Sc      14.83617000       9.60304351      14.99667987
Sc       6.10196100       9.56834301      10.87545044
Sc       8.03106915       8.03333573      14.34661600
Sc      11.17316806      15.78975963       9.76060161
Sc      15.89201408      14.72200468      13.33700062
Sc      11.28892689       8.33332774      15.23552152
Sc      14.12763702      16.05328996      11.33144298
Sc      12.86874198      10.39663359      13.16073421
Sc       8.28173581       7.58556300      11.21885099
Sc      14.22496571      12.79513097      11.73662366
Sc      11.45100233      12.55408629       9.89593060
Sc      16.62554953      11.80800535      13.03907034
Sc      10.49004669       6.84145771      12.78647736
Sc      16.60781990      13.86862745      10.48220064
Sc      13.76855854      14.17416207       8.87317439
Sc      13.31653403       7.49970267      12.94566592
Sc       8.69890663      10.57009756      10.30365144
Sc      11.46361744       9.31601599      10.70841678
Sc      15.41677680       9.28471580      11.99636695
Sc       6.79090539      11.31786241       8.37696763
Sc      13.92302622      10.80393011       9.56155691
Sc      11.09207003      14.15075932       7.12905608
Sc       8.45921048       8.52262895       8.32540802
Sc       9.91306476      11.26724788       7.61367714
Sc      16.85544515      10.78717631       9.96973773
Sc      10.85267635       6.66643420       9.75589376
Sc      13.84052750       7.68491398       9.86521856
Sc      15.90408318      12.31867673       7.70524329
Sc      11.89434958       8.86215424       7.80216735
Sc      15.21423919       9.34820505       7.60025000
Sc      12.98569262      11.67799432       6.91171218
48
Properties=species:S:1:pos:R:3 config_type=qcd gap_pre_relax_energy=-252.6412041222707 gap_pred_energy=-253.30972614818288 gap_fmax_final=0.0009763176222303215 gap_converged=1 pbc="F F F"
Sc      16.20098418      10.32528796      11.06341333
Sc      16.69292788      13.24093649       9.81619794
Sc      16.02482827      12.93700420      13.02728916
Sc      15.64097085       9.87253336       7.98173883
Sc      15.27312414      15.37091219      11.52040895
Sc      14.79747385      12.62696238       7.54019247
Sc      15.39829765      10.25485866      14.11953595
Sc      14.82689770       7.66282842       9.83050024
Sc      14.50387421      12.44828045      16.04989923
Sc      13.66961390      14.95222279       8.95496169
Sc      13.91894838      14.98364272      14.36842348
Sc      13.35102856       8.36472340      14.88439641
Sc      13.43302861       9.53285231      11.87986461
Sc      13.05962174       7.94212814       7.25251206
Sc      11.98468310      10.66323142      15.91244160
Sc      13.49496725      10.55832946       5.87381211
Sc      15.29542435       7.50131854      12.79758917
Sc      12.86543414      10.39851371       8.83695011
Sc      14.05931060      12.62249948      10.73740641
Sc      12.18436914      15.20244679      11.70785859
Sc      13.00745003      12.27835652      13.56055625
Sc      11.81356544      13.00152214       7.28743191
Sc      11.43693359      13.60767901      15.82144116
Sc      11.83519462       7.61730905       9.97158649
Sc       9.25505311       7.48135703       8.47803163
Sc      11.14748853      12.71872381      10.17130430
Sc      10.56169087      15.42861751       9.01433156
Sc      10.74367156      10.05635727      12.90942590
Sc       9.16000253      11.37759508      15.21863860
Sc      10.13434201      13.34297693      12.97616581
Sc      10.94648430      16.10217381      14.34779397
Sc      10.57276037       9.87697881       6.89346177
Sc       9.69404877      10.06038237       9.84664211
Sc      10.28235865       8.08578426      14.98007286
Sc       8.94764588      12.32056730       7.84613807
Sc       7.96453005      11.50133685      11.98444563
Sc      12.25763620       6.76481783      12.79318409
Sc       9.41203040       7.52456040      11.79188672
Sc       9.06364924      16.00181397      12.09898353
Sc       8.30046487      14.52916863      14.84568845
Sc       6.32415956      12.00656042      14.63712024
Sc       8.32833288      13.98650892      10.15314956
Sc       7.58008654       9.17144192      13.66269225
Sc       7.49632952       9.70080032       7.56847515
Sc       6.35782662      13.93441018      12.33307819
Sc       6.94804069       8.89587160      10.46611736
Sc       6.22789636      11.86619354       9.56152781
Sc       5.12658139      10.90068482      12.22729942
48
Properties=species:S:1:pos:R:3 config_type=qcd gap_pre_relax_energy=-252.7470063315059 gap_pred_energy=-253.24292690939959 gap_fmax_final=0.0008865559928833863 gap_converged=1 pbc="F F F"
Sc      11.14357575       5.68617893      12.54280141
Sc      15.41923602       7.71729614       9.97645125
Sc      12.56076275       6.66075819       9.84372637
Sc      14.00355356       6.83797765      12.74080443
Sc      14.08796053       8.74627429       7.37558051
Sc      11.83906361       7.66233786      14.95127869
Sc       9.03611457       7.80725314      13.52358717
Sc       9.44154611       7.46936021      10.28543317
Sc      11.64108623       8.47851602      12.14458414
Sc      14.96412932       9.77158393      12.25078433
Sc      15.88895601      10.68315731       9.25425517
Sc      11.03762903       8.44668715       7.84803480
Sc       9.98733888       9.98336679      15.89437251
Sc      13.12947954       9.64154177       9.81502607
Sc      14.50705136       9.01315986      15.12550852
Sc      15.18870406      13.89411185       9.08968347
Sc      13.48982604      11.85068390       7.91058384
Sc      12.46961729      10.79378919      13.74767828
Sc      12.86018033      11.08907923      16.62596645
Sc       8.25888268       9.79615697       8.10806043
Sc       6.97269613       9.92765127      14.52319564
Sc       7.42522976       9.61139490      11.30969952
Sc       9.42705248      10.76335925      13.20999595
Sc      10.74354389      11.34582866       7.09302501
Sc      13.05537744      12.33451677      11.06909002
Sc      15.01894412      11.99850191      14.66153204
Sc      10.05050685      13.38675621      12.10953718
Sc      10.89346667      13.41065957       9.36228155
Sc       8.08501639      12.45143172      15.50439038
Sc      10.21993895      10.47256945      10.16644319
Sc      12.12129564      14.42217124       7.06624330
Sc       7.06979693      12.61983096      12.72561192
Sc      15.89559651      12.73931178      11.76611047
Sc       7.87750150      12.24937021       9.82722420
Sc      16.46570988      14.52175796      14.39391886
Sc       8.87159484      13.81977311       7.37965750
Sc      13.24979244      14.43157213      13.21505358
Sc      10.97499116      13.12940517      15.06933902
Sc      12.93913762      15.47338888      10.08384625
Sc      10.61999841      16.27978380      11.91628929
Sc      15.54002323      15.76585882      11.74793555
Sc       8.61872758      15.10379718      13.94014391
Sc      10.27735776      16.24806556       8.67829241
Sc      13.69284855      14.26154523      16.21328143
Sc       8.13389515      15.10781262      10.56137768
Sc      14.63055413      16.73625726      14.70858131
Sc      11.57783332      16.27083431      14.86138629
Sc      13.18909667      17.67974138      12.37453321
49
Properties=species:S:1:pos:R:3 config_type=qcd gap_pre_relax_energy=-258.2067822256333 gap_pred_energy=-259.03276494320795 gap_fmax_final=0.0008751895260715745 gap_converged=1 pbc="F F F"
Sc      14.74054959      15.83426834       9.39137885
Sc      12.09912132      16.53094566      10.85550643
Sc      14.24689027      16.34525318      12.59586419
Sc      16.24104551      13.07951994       8.76850201
Sc      13.70922406      13.33327696       7.18969694
Sc      11.54155244      15.21116781       8.30899717
Sc      17.73642166      10.98538293      10.61382927
Sc      16.29563361      13.94440358      11.51996704
Sc      13.36530937      13.64343541      10.47735173
Sc      12.52171887      14.70974900      15.84636555
Sc      15.25568141      10.57412099       7.39800794
Sc      10.95665068      16.57416081      13.76409744
Sc       9.29212002      15.76205543      10.78242477
Sc      14.14732859      13.70935030      13.59933794
Sc      10.65877841      12.43459459       6.97701082
Sc       8.45710212      14.42338083       7.98285168
Sc      11.09968485      14.02684611      12.68325954
Sc      12.60389470      10.33203882       5.88673833
Sc      14.99272091      10.99790836      10.64052341
Sc      12.64000962      10.97484050       8.72989970
Sc      12.84034009      11.30452968      12.70184675
Sc      10.26446477      13.03069026       9.88033136
Sc      16.01178802      11.35443599      13.45090073
Sc      16.10023061       8.54075353       9.36975431
Sc       7.32398996      13.30253191      10.64058214
Sc      13.19514482       8.17042055       8.02212724
Sc      16.35173994       8.71526804      12.23755107
Sc      10.95171169      12.19471390      15.02864213
Sc       8.22431753      11.43906485       8.47415223
Sc      13.77774291      11.75767824      15.88721778
Sc      10.64975908       9.99567715      10.81301008
Sc       8.07646274      14.74671276      13.39442465
Sc       9.64792148      14.64366791      15.97349435
Sc      10.28290677       9.27868276       7.84509915
Sc      11.16763605      12.48436373      17.75577650
Sc      13.82743036       9.00907449      14.24033368
Sc      13.42502852       8.47403581      11.12139678
Sc       8.84975258      11.82985769      12.70936090
Sc       5.95547713      11.88637439      12.93985889
Sc      10.66080484       9.53923789      13.89726151
Sc       7.59512843       9.81633456      10.95189402
Sc      11.96465577       9.45644247      16.68028425
Sc      10.78939040       7.11903822      10.06020933
Sc       7.69632062      12.44180744      15.42206376
Sc       9.22168585      10.26129376      16.73118367
Sc      11.77106475       6.89697671      13.14070830
Sc       7.53379822       9.55185668      14.23080748
Sc       9.00824320       7.54050542      12.49419262
Sc       9.86219396       7.41984288      15.52249274
49
Properties=species:S:1:pos:R:3 config_type=qcd gap_pre_relax_energy=-258.6742265917861 gap_pred_energy=-259.1105060372127 gap_fmax_final=0.0009955699424267312 gap_converged=1 pbc="F F F"
Sc       9.78779743       6.96907652      13.30874886
Sc       9.44158628       6.00688227      10.19888459
Sc      10.24134293       8.93447655       9.67391730
Sc       9.45359901      14.76185520      14.98320892
Sc      10.21590986      14.24355474      11.89619679
Sc      14.68187602       7.44288578       9.03860013
Sc      16.60665512      11.82059787      12.37033887
Sc      10.02584133      10.47429599       7.18478214
Sc       7.22301542      14.18135451      12.73436778
Sc      10.26371191      12.38746047      17.00920530
Sc      13.01923596      10.99027859      15.94852983
Sc      13.18272781      14.27419722      12.69767894
Sc      15.10048895       7.14885678      12.11040911
Sc      12.13822616       7.03864096      11.13412447
Sc      15.20123290      13.00462098      14.69136582
Sc       6.58176887      13.23731626       9.98724448
Sc      11.52402368      11.60938525      10.19489343
Sc       7.90441618      11.99580780      14.80932068
Sc      11.70300272      16.60010948      13.66400826
Sc      14.76467968      16.15713636      14.19074224
Sc       9.43507194      13.14950787       8.75717299
Sc      13.79131075       9.50406407      10.80337016
Sc       8.66519585      16.97973694      12.89342150
Sc      10.58676968       9.59746520      12.56407975
Sc      10.74836846      12.24924417      14.19889380
Sc      16.05017574      14.65861954      11.71213262
Sc       8.65675506      11.62835670      11.58289198
Sc       7.79584629       9.23401069      13.89202020
Sc      12.72215827       9.45048056       7.89088927
Sc      13.87044698      16.70419340      11.15867226
Sc      12.78559092       8.27123359      14.05604409
Sc       7.49236378      10.51983264       9.03067659
Sc      15.58068061       9.57622270      13.94020916
Sc      11.41228171       6.74347306       8.04750876
Sc       8.45961092       7.72950529       7.88936116
Sc       5.99413798      11.00919968      12.07534185
Sc      12.52591388      14.19912762      15.65979414
Sc      17.24736706      12.57539122       9.63425801
Sc      14.38123742      12.48746939      10.40687395
Sc      10.81435195      17.17326961      10.88314871
Sc       7.69791052       8.32247981      11.15082451
Sc      13.33397967      11.26271984      13.08529521
Sc      16.70398519       9.38434547      10.67533904
Sc      15.05598858      14.62695082       8.67306165
Sc      15.38426798      10.63703491       8.16494417
Sc       8.26703793      15.75892113      10.14919273
Sc      10.24064233       9.56818419      15.55803175
Sc      12.09644539      14.78797404       9.55642177
Sc      12.68262996      12.47185726       7.62322131
50
Properties=species:S:1:pos:R:3 config_type=qcd gap_pre_relax_energy=-264.3100924134323 gap_pred_energy=-264.73065763153244 gap_fmax_final=0.0009681859586737226 gap_converged=1 pbc="F F F"
Sc      16.03884590       7.17993675      10.57458131
Sc      13.55267496       6.18510426      11.94673730
Sc      15.16650764       8.02258892      13.54120236
Sc      16.84216364      10.12290906      11.84432653
Sc      13.19263042       6.76588233       9.20822260
Sc      15.56473784      10.99431824      14.55172332
Sc      16.07767775       9.82196624       8.94051502
Sc      11.87121810       7.00103843      14.14536958
Sc      13.97010887       9.11919571      10.91220529
Sc      10.62512145       5.93732095      11.22304260
Sc      12.85463519       9.91442375      13.86903467
Sc      17.13017539      13.07217267      13.00950784
Sc      16.78491242      12.81747507      10.01764845
Sc      14.45975305      11.98583587      11.79070248
Sc      13.21788076       9.48554542       7.76068985
Sc       8.90280521       7.77566911      13.66067244
Sc      10.54699291       8.21451245       8.77540663
Sc      10.61484620       9.37952723      15.82553559
Sc      11.17037769       8.64841557      11.71233913
Sc      14.42403021      13.78240322      14.37304067
Sc      14.25070759      12.15551724       8.69618621
Sc      12.83148852      11.80783339      16.10441969
Sc      11.66183500      11.08893772       9.92163177
Sc      15.03820574      14.99396302      11.51803590
Sc       8.14239241       7.95526824      10.65553000
Sc       9.48661141      10.68785656      13.36845837
Sc      14.30861352      15.17511117       8.50500162
Sc      12.01012402      14.70266124      16.07006148
Sc      11.73482415      12.72355829      13.22035293
Sc       9.85298386      12.39744587      15.84100465
Sc      10.50056120      10.76914699       7.05746411
Sc       7.68386033      10.04968669      15.61428776
Sc       7.86801658       9.41878670       7.78092279
Sc      12.42589022      15.75630808      13.12216042
Sc      12.20688182      13.36765967       7.02927059
Sc       8.61010166      10.83410284      10.24995440
Sc       6.71509571      10.00371540      12.62633034
Sc      12.22368859      14.19648512      10.31763492
Sc       5.73011733       9.98649486       9.69541268
Sc      12.98964758      17.16709016      10.38886010
Sc       9.62393459      15.02033876      14.17315183
Sc       7.34473011      12.79378492      13.99377887
Sc       9.15140731      13.57961979      11.64584236
Sc       9.72468814      13.23976121       8.54939281
Sc       6.92046532      12.26929802       8.07807454
Sc      11.05997941      15.99474285       8.31468210
Sc       6.29395900      12.82601247      11.02911348
Sc      10.03526682      16.37381029      11.23759635
Sc       7.12582657      15.59173674      12.38021713
Sc       7.75316928      15.16019383       9.44583548
50
Properties=species:S:1:pos:R:3 config_type=qcd gap_pre_relax_energy=-264.04598112935344 gap_pred_energy=-264.57994383746006 gap_fmax_final=0.0008842876515401309 gap_converged=1 pbc="F F F"
Sc       9.95955062      14.90640941       8.39046189
Sc       8.99184160      16.38560854      11.02541519
Sc       8.86187866      11.63481282       7.74286119
Sc      11.98457722      17.31073618       9.89211862
Sc       8.19693692      13.19416020      10.35593038
Sc      11.10659746      12.89845883       5.91855607
Sc      12.77036085      15.13194851       7.49934684
Sc       8.77891603       8.19118393       7.93138199
Sc      10.10231605       9.70031617       5.76259077
Sc      11.79197538      12.49991097       8.65676037
Sc       8.50916308       9.92327561      10.49447720
Sc      11.36538746      16.69190345      12.94522830
Sc       9.97996775      14.15368028      12.46024696
Sc      12.20903204      14.70160647      10.48000797
Sc       8.11718034      11.67927076      13.09380300
Sc      14.53259301      12.54420589       7.47515413
Sc      11.04508662       9.79014744       8.69849101
Sc      11.92976885       7.49757693       7.48215634
Sc      14.15040313      16.18507218      12.27061428
Sc      14.18609461       9.54413447       8.64176934
Sc      15.12752385      14.79954708       9.45417431
Sc      10.74332186      11.61697870      11.34535256
Sc       7.25971302      14.64668175      13.15732773
Sc      10.53018688       7.42240209      10.45699496
Sc      12.79614735      10.39910350       6.21542095
Sc       8.62852566       7.93273654      13.01080492
Sc      12.98164908      13.51186023      13.03276633
Sc      12.69974819       9.36872700      11.46064765
Sc       9.48581042      15.54898880      15.09824909
Sc      14.15019533      11.98086179      10.68504619
Sc       7.83739538       9.78418450      15.39227141
Sc       7.99738825      12.94734729      15.90325744
Sc      13.53502427      10.87769511      14.07718507
Sc      16.76795150      11.90329930       9.72328717
Sc      10.77628177      12.74959813      14.97849125
Sc      13.62207820       6.92397091      10.45998185
Sc      10.57892097       9.84198704      13.92580810
Sc      16.07529016      13.89081165      12.07348117
Sc      15.81790377       9.08615267      10.96907905
Sc       9.80495837       7.66718731      15.82896342
Sc      11.73598924       7.09856226      13.36185153
Sc      12.62282662      15.18059585      15.49757837
Sc      16.30985433      11.10668262      13.02166984
Sc      15.25292442      13.34585833      14.99143754
Sc      10.47820998      13.90941728      17.58202448
Sc      10.19547542      10.71495069      17.00580226
Sc      14.67486756       8.20254808      13.60431318
Sc      15.56710116      10.29345823      15.98971093
Sc      13.05988733      12.13915155      16.79227052
Sc      12.67418029       8.90119303      16.04433728
51
Properties=species:S:1:pos:R:3 config_type=qcd gap_pre_relax_energy=-269.0511083619661 gap_pred_energy=-270.0898497720769 gap_fmax_final=0.0009553528451025112 gap_converged=1 pbc="F F F"
Sc      16.58733837      10.49007797      10.49379943
Sc      17.60569322      13.57462102      10.81427053
Sc      16.81099649      11.75632403      13.42439973
Sc      15.84591214      14.69356426      14.26732461
Sc      15.78834912      15.30417178       9.04388564
Sc      15.04658157      12.34070815      15.79071556
Sc      15.48585732      12.48781238       8.48532875
Sc      15.91404555      16.17057498      11.68322016
Sc      14.59990355       9.24220821      15.73527237
Sc      15.79410858       8.96591264      12.93805408
Sc      14.97343132      13.02613457      11.48565851
Sc      14.62109277       9.70672172       8.09900159
Sc      13.09588529      15.32953539      10.75970562
Sc      13.24489521      14.78552395       7.60023447
Sc      13.66725242      16.78210834      13.63256527
Sc      13.03441441      14.78278449      16.15494444
Sc      12.99987417      13.86534109      13.60165096
Sc      14.01744507      17.67180937       9.54525125
Sc      12.38642230      11.28397891      16.49088476
Sc      13.02801778       7.83044071      13.19697189
Sc      12.58119221      12.64860030       9.56431978
Sc      13.61655029      10.92697951      13.63516254
Sc      13.57327050      10.15837238      10.81463722
Sc      14.52934716       7.50299873      10.40293518
Sc      12.19922299       8.31976323       8.71219932
Sc      11.61455402      11.01211917       7.36130953
Sc      10.96345585      12.37640280      12.23936619
Sc      10.58745429      10.19860904      14.22722013
Sc      10.77222648      15.81899018      13.94151815
Sc      10.20074074      13.78631587       7.97948392
Sc      10.78643310       9.06507669      11.41541504
Sc      11.25106636      16.69486245       8.75582067
Sc      10.22724244       6.86540826      13.56750676
Sc       9.71166000      11.32271061       9.73370151
Sc      11.59473016      17.67780739      11.52457248
Sc      10.08797211      14.87165093      10.90084195
Sc      11.47745489       8.22146832      16.07298994
Sc      11.27543621       6.37145829      10.74625901
Sc      10.27681184      13.10931303      15.20577878
Sc       8.33498953      11.34007291       7.28823392
Sc       9.45354547      10.43102030      16.93711455
Sc       9.25005134       8.55968852       8.69869074
Sc       8.22353107      10.72848901      12.34866446
Sc       8.14438665       8.54823780      14.84411140
Sc       7.52266445      13.24219715       9.85815537
Sc       8.11328617       7.69240010      11.56727780
Sc       8.20467773      13.79548056      13.01627789
Sc       6.76002793      10.16415734       9.87527000
Sc       7.28960819      11.53114011      14.94112613
Sc       5.74626995       9.34593653      13.00515864
Sc       5.67947911      12.17877441      12.17259725
51
Properties=species:S:1:pos:R:3 config_type=qcd gap_pre_relax_energy=-269.24413642430363 gap_pred_energy=-269.7471546264514 gap_fmax_final=0.000978064501291112 gap_converged=1 pbc="F F F"
Sc      17.05270425      10.28248479       9.28164159
Sc      16.78532455      12.97347902      10.86856947
Sc      15.58851076      15.74900165       9.35522048
Sc      16.45150482       9.22945690      12.24789889
Sc      14.53750619      10.96046816      10.49130887
Sc      14.72406499       8.11260475       9.73754325
Sc      16.05200919      12.85572610       8.01036271
Sc      15.09126143      14.83463639      12.60714697
Sc      14.46411518      10.31248248       7.34688107
Sc      13.91290241      13.72486886       9.76460140
Sc      15.12252728      11.72968022      13.51536989
Sc      15.00163337       6.51214449      12.50775467
Sc      14.51582131       8.93927815      15.11399608
Sc      12.88975372      16.22198339      11.13100982
Sc      11.78442152       8.75413822       8.45088573
Sc      12.43441652      15.79821325       8.26243896
Sc      12.01807433      11.06353051      14.33636163
Sc      13.43179073       8.85653338      12.51154061
Sc      12.20647900      11.70664464       8.51143414
Sc      13.65054078      13.70884193      15.22102572
Sc      13.42596011      13.38965630       6.55728976
Sc      12.16020768       6.71517224      11.00726744
Sc      12.67814030      13.16569726      12.33743027
Sc      10.99281241      10.93676996       5.93655815
Sc      12.50166492       6.50135917      14.20304623
Sc      11.45736645      10.42405304      11.12339953
Sc      11.90619379      15.86033864      13.98206828
Sc       9.43368097      11.14101648       8.47796110
Sc      10.29243165      13.74223572       7.05984287
Sc      10.78418783      13.57567171      16.06170862
Sc      10.40292112       8.23461620      13.01094939
Sc      11.65317939       8.64182178      16.08913372
Sc       9.72875948      16.28848334      11.57815867
Sc       8.71917119       8.89486287       7.03379036
Sc       9.22809057       8.53191726      10.11283054
Sc      10.76899972      13.96662941      10.06742727
Sc      12.98738216      11.24027361      16.99799276
Sc       9.93891071      13.75065604      13.24065933
Sc       9.02530802      10.74716577      13.96246915
Sc       7.74980185      11.81708063       6.43299348
Sc       8.78408473      11.73194598      11.27802579
Sc       8.85065571      16.02015771      14.58333690
Sc       7.28932447       8.89893598      12.55365067
Sc       7.73686547      13.63648758       9.26291009
Sc       8.74843318       8.03969366      15.41454458
Sc       6.75293293      10.48411877       9.30963045
Sc       7.30167610      14.56322345      12.32790529
Sc       9.65883030      10.80969977      16.75602869
Sc       7.68565832      13.15631911      15.15440862
Sc       6.19373817      11.73945925      12.61676976
Sc       6.60183295      10.18284902      15.35138529
52
Properties=species:S:1:pos:R:3 config_type=qcd gap_pre_relax_energy=-275.4189784474667 gap_pred_energy=-276.2838566396163 gap_fmax_final=0.0009551861102933807 gap_converged=1 pbc="F F F"
Sc      13.07334961       9.58297682      17.00467781
Sc      13.45799134       7.60503087      14.39552279
Sc      10.44118194       8.47946159      15.62991598
Sc      15.33764273       9.97795908      14.96699000
Sc      15.60453604       8.22166783      12.16492720
Sc      10.61042312      11.53268171      16.55983169
Sc      13.71094614      12.59679809      15.66547217
Sc      10.87997549       6.75804363      13.26131321
Sc      17.80548640      10.31280845      13.16189362
Sc      12.26690565      10.37978719      14.38544954
Sc      12.92654087       9.22030358      11.74239258
Sc      16.54802507      13.01371468      14.29904903
Sc       8.06141209      10.33307750      14.98321841
Sc       7.92046421       7.47163813      13.35346025
Sc      11.17570367      14.41165398      15.47312106
Sc      14.24036514       8.54453387       9.18018509
Sc       9.44710393       6.20836003      10.90457942
Sc      16.80475795      10.22697494      10.01827501
Sc      12.90324386       6.38080805      11.12897122
Sc      12.53688470      12.99738563      12.83800740
Sc       9.69020991      12.50114293      13.75722100
Sc      15.10967372      11.39918310      12.40944495
Sc      17.82449832      12.69371841      11.50285681
Sc       8.15739992      13.44122733      16.03130416
Sc       9.87608195       9.42997232      12.50556961
Sc      14.15737375      15.29572880      14.18480978
Sc       7.69776198       8.78026323      10.37523334
Sc      14.19512247      11.62570005       9.57035191
Sc      15.45472134      10.74199013       7.13192409
Sc      15.32933625      14.41086295      11.51357212
Sc      11.20559589      11.38420598      10.25203032
Sc      11.57027654      15.80244963      12.90506321
Sc      16.51873824      13.17657416       8.71335228
Sc       9.81638928      14.20003646      10.81665502
Sc      12.26830366      10.51745195       7.51181054
Sc      13.42143407      17.02021953      10.98762138
Sc       6.22756267       9.91370363      12.66099039
Sc      10.97426503       8.40876054       9.59163639
Sc       8.61639071      15.30335059      13.44627232
Sc      14.88212773      15.80120240       8.71233949
Sc       8.28122881      11.66403767      11.15682075
Sc      12.70668281      14.31568809      10.08923190
Sc       6.59854811      12.83712107      13.36058810
Sc      13.71908997      13.43471666       7.20709887
Sc       9.08500586      10.47747269       8.19788413
Sc      11.84168096      16.33456383       8.28981482
Sc      10.10979904      17.12056181      10.77686562
Sc      10.62983191      13.30859973       7.85556233
Sc       5.67933572      11.58481123      10.27116981
Sc       8.74833408      15.76710622       8.44887346
Sc       6.86670981      14.62759472      10.79937540
Sc       7.60498090      13.04174783       8.46683351
52
Properties=species:S:1:pos:R:3 config_type=qcd gap_pre_relax_energy=-275.44678902038737 gap_pred_energy=-276.04397625129667 gap_fmax_final=0.0009234599969895373 gap_converged=1 pbc="F F F"
Sc      17.35361686      13.65312370      11.09887677
Sc      17.19010681      10.69750178      11.71137477
Sc      16.77223921      12.86643508      14.09560747
Sc      16.76728510      12.29483572       8.32662077
Sc      16.88173898       9.91439538      14.72925504
Sc      14.73494543      14.47006252      12.43768718
Sc      15.30538241      14.90743802       9.39763571
Sc      14.28409854      14.79591902      15.45594568
Sc      15.62482276       9.29219425       9.33126926
Sc      15.46844934       8.23380363      12.47285699
Sc      14.87415215      12.17786117      10.37013504
Sc      14.68945145      11.72748592      16.15009539
Sc      14.55114665      10.66926974       6.85110274
Sc      12.62397711      13.43541013      17.77673872
Sc      14.04448616       8.76636728      15.23834816
Sc      13.85611642      13.50268911       7.19115684
Sc      12.11551788      13.04980437      11.71879721
Sc      11.97227438      15.76437433      13.29975174
Sc      14.37389198      11.27428065      13.20058415
Sc      13.93466249       6.66456645      10.12702777
Sc      11.31457884      15.57667106      16.29521614
Sc      12.10254725      14.98035479       9.40146110
Sc      13.22161325       9.29825744      11.00967990
Sc      12.47938398       7.14634246      12.96556116
Sc      11.81946943      10.56625522      16.85332703
Sc      12.66126234       8.62253971       7.98115684
Sc      11.65526188       9.90494657      14.01157666
Sc      12.08866877      13.06287856      14.83622833
Sc      12.50467350      11.48109537       8.88189332
Sc      11.05334374       7.67259947      15.75931697
Sc       9.89391472      12.86990819       9.00387434
Sc       9.59369549      12.92658046      16.55916052
Sc       9.66508781      14.74804571      11.44740425
Sc      10.90618578      14.39067560       6.60656513
Sc       9.44574157       8.15959383      13.02614341
Sc       8.98817082      15.00998921      14.31912519
Sc      11.53037423      11.46530770       6.20414818
Sc      10.81640912       7.55606191      10.24220899
Sc       9.57004504      12.16650367      13.51214426
Sc       8.95105939      10.01236706      15.57359818
Sc      10.45226844      10.41827596      11.14297893
Sc       7.05047235      10.08433092      13.06964409
Sc       7.93455751      12.17136286      11.09559896
Sc       6.80691227      12.78827777      14.18840554
Sc       9.67840135       9.90882927       8.15126131
Sc       8.88985525      15.51641429       8.55326452
Sc       6.72260467      14.84525874      11.87290045
Sc       8.29900612      12.74091773       6.68170064
Sc       7.83949862       8.84227241      10.46850514
Sc       5.22542230      12.01221463      11.34840323
Sc       6.72849869      10.92695771       8.71076049
Sc       6.49820990      13.77565207       9.05147599
53
Properties=species:S:1:pos:R:3 config_type=qcd gap_pre_relax_energy=-281.3029991147485 gap_pred_energy=-282.02620404231715 gap_fmax_final=0.0009865493540073035 gap_converged=1 pbc="F F F"
Sc      15.14345759       8.39723165       9.77481780
Sc      17.05097944       9.79950019      11.89605739
Sc      16.10417209      11.44579528       9.30375102
Sc      16.34525315      12.76565589      12.23360319
Sc      13.38465987       6.93770834       7.43476600
Sc      12.93181646       6.23239923      10.50574471
Sc      15.31634726      10.65936072      14.43295770
Sc      14.78339834       7.80267284      12.83708742
Sc      15.11376409      14.41975309       9.52971250
Sc      14.26278742      10.77615001      11.59291603
Sc      14.21417127      10.00952590       7.01740044
Sc      14.94916941      13.09242946       6.75464503
Sc      12.81789321       9.00470157      15.04608350
Sc      12.33157673       9.01688728       9.08758422
Sc      10.43861564       6.74530494       8.61222146
Sc      14.65058216      13.68137588      14.96177023
Sc      11.10349097       9.10586441       6.38775203
Sc      12.84559913      16.59255047      10.57057422
Sc       9.90843039       6.26628897      11.48260046
Sc      11.87429356      12.14833818       6.17019465
Sc      12.94024920      11.48004271      16.79525380
Sc      13.61985864      13.96031495      12.07895274
Sc      12.09797273       8.60924884      11.98410606
Sc      11.20607048       6.74505987      14.12576798
Sc      12.64221227      15.04749527       7.77678406
Sc      13.19547995      12.12752801       8.88184599
Sc      12.50803045      11.86632053      14.01759511
Sc       9.83057421      16.34924601       9.16172953
Sc      10.14662961      11.10609087       8.56295345
Sc      11.17965097      11.43979002      11.33354488
Sc      12.54011599      16.17292447      13.91863677
Sc       9.94913493       8.77203273      16.32808086
Sc       8.37542549       8.64266040       7.68823300
Sc      11.90369868      14.25837910      16.04432876
Sc       9.23635533       9.09605530      10.76227329
Sc       8.51798329      11.36133942       6.35382345
Sc      11.26374011      14.16867660      10.24783027
Sc      10.27029522      16.73627834      12.09777646
Sc       9.83176980      13.93300650       7.38594750
Sc       7.18728663       7.28255539      10.24265318
Sc      10.49430395      13.98369872      13.22112119
Sc       8.13842107       7.51963488      13.57413677
Sc      10.06588932       9.74935977      13.75217373
Sc       8.43048750      11.86091644      12.40427042
Sc       8.32714454      13.46828569       9.88510736
Sc       9.88067085      12.02130898      15.76668301
Sc       9.33959004      15.80215073      14.96940524
Sc       7.03662623      10.70323952       9.34999308
Sc       6.37660888       9.63373303      12.17074281
Sc       7.71685715      15.15807209      12.32971739
Sc       7.37775309      10.26332747      14.97940911
Sc       7.22627720      13.34336117      14.60735987
Sc       5.82457744      12.68657139      11.81772236
53
Properties=species:S:1:pos:R:3 config_type=qcd gap_pre_relax_energy=-281.686636811918 gap_pred_energy=-282.41916831272545 gap_fmax_final=0.0009703568640199445 gap_converged=1 pbc="F F F"
Sc      10.24297098       7.90240487       8.35572265
Sc      11.05202489       6.54041947      11.15831275
Sc      13.03903564       6.57826917       8.63894993
Sc       8.26923911       7.94953135      10.98744844
Sc      10.02782809      10.79812935       6.81980533
Sc      12.80451755       9.32936960       7.12011734
Sc      12.54270625      12.11513419       5.63377546
Sc      12.32166375       9.04068410      10.11870763
Sc       9.09038445       6.61341382      13.63058461
Sc      14.22463007       7.09379887      11.56626606
Sc       6.65450387      10.81623488      10.94113100
Sc       9.45092080      10.47963641       9.76851941
Sc      10.38036804      13.89913098       7.22815183
Sc       7.55793528       9.38422893      13.67325100
Sc      15.16388535       8.78970366       9.11851423
Sc      14.99021889      11.65706389       7.52802393
Sc      12.22830035      11.87650539       8.56367574
Sc       7.76349669      12.60250629       8.42256084
Sc      13.53250935      14.47939924       7.54134334
Sc       6.06941449      12.19665122      13.63734005
Sc       8.46658905      11.72265010      15.70127131
Sc      10.44820254       9.06931837      12.75190765
Sc      11.94718058      11.83358610      11.70567895
Sc      13.68456094       9.62007779      13.03148513
Sc       7.06740157      13.94022375      11.20976480
Sc       8.82445616      11.87679366      12.63197609
Sc       8.16531066      15.61658932       8.73028585
Sc      10.03643544       8.91271678      15.71232364
Sc       9.86633528      13.72600338      10.22095626
Sc      14.76364339      11.45983978      10.58059623
Sc      16.45251462       9.37180321      12.08769814
Sc      12.25900377       7.12208363      14.11101711
Sc      15.36941536       7.70328498      14.47784338
Sc       8.32428514      14.48983715      14.12209933
Sc      11.27170238      11.53867703      14.75567722
Sc      15.91655868      14.05041275       9.56960949
Sc      13.05986187      14.34388948      10.47072106
Sc      14.04637259      12.78541175      13.59204345
Sc       9.32010169      16.29121742      11.69936802
Sc      14.45834090      16.74619699       9.60480768
Sc      11.25940572      16.29205912       9.14507840
Sc      10.71644725      14.08976424      16.19123725
Sc      16.82782099      12.60756054      12.45892026
Sc      11.23175923      14.41795845      13.17619718
Sc      10.97248921      11.22241996      17.64710901
Sc      13.15974469       9.51020590      16.03930183
Sc      15.85078404      10.80770349      14.86979644
Sc      12.45797558      16.89929696      12.09936387
Sc      15.21625158      15.30038185      12.36919959
Sc      10.44573080      16.83062018      14.61237708
Sc      13.57537214      12.62865998      16.51598741
Sc      16.20165852      13.99454174      15.12244979
Sc      13.36031415      15.46657888      14.96422989
54
Properties=species:S:1:pos:R:3 config_type=qcd gap_pre_relax_energy=-286.5656016585688 gap_pred_energy=-287.0517275613341 gap_fmax_final=0.0009647427400067091 gap_converged=1 pbc="F F F"
Sc      13.59102430       9.15504776      15.91732250
Sc      10.00488695       9.30323695      16.23751099
Sc      11.44672174       7.72467516      14.08631704
Sc      11.47540992      11.81008698      15.18003198
Sc      14.35304989       7.36195474      13.35726823
Sc      12.36503325       6.17711906      11.26609033
Sc      14.42463088      12.25932574      15.19216326
Sc       8.83658896      12.29758098      16.41963351
Sc      16.00533910       9.91552385      13.84198605
Sc      12.20471967      14.53350806      16.40093167
Sc      10.28092777       8.60504079      11.47006122
Sc      15.49033277       7.08877745      10.52795619
Sc      13.15194387      10.07228192      13.35719125
Sc      16.85106541      13.01299705      13.45457387
Sc       7.01647954       9.94895240      15.79953302
Sc      16.05076154      10.32296713      10.70702960
Sc       9.75744924      14.62356300      14.61967710
Sc       9.01647991      10.61634654      13.76428472
Sc      11.28933101      11.62471329      11.85175399
Sc      12.48245937      14.26547103      13.38996559
Sc      14.80622959      15.26029144      14.95178193
Sc      12.89658933       7.07422256       8.27178581
Sc       9.92079270       6.67717924       9.06650365
Sc       8.24726952       7.80771869      13.85944643
Sc      16.85325446      13.33065180      10.36117333
Sc      15.16073139       9.02484942       8.19689930
Sc      12.15451749      16.87728650      14.34880502
Sc       6.75840279      12.65150341      14.19830361
Sc       7.36021594       7.75153532      10.73640863
Sc      13.33825730       8.82845555      10.70068674
Sc      15.47090579      15.39715090      12.11144248
Sc       6.16726468       9.95319776      12.71959055
Sc      10.00786295      16.35350618      11.86869811
Sc      11.48715241      14.23280540      10.54234367
Sc      10.97541533       9.39616357       8.63686677
Sc      12.90744992      16.74392658      11.32759034
Sc      10.57662394       7.93184981       6.24076938
Sc      13.19774296      11.46986031       9.38932555
Sc       8.83275428      13.31012234      12.10105397
Sc       8.12327882      10.64201772      10.61350442
Sc      15.48139523      12.04162672       7.81068815
Sc      14.44509330      12.59375916      11.98920971
Sc       8.09975437       9.06583209       7.96165539
Sc       5.49080231       9.96247642       9.58193784
Sc      11.18984782      16.16341383       8.60758615
Sc      12.95890201      10.20443976       6.53471316
Sc       6.07574321      12.72821402      10.95598593
Sc      14.19649759      14.52199043       9.37251966
Sc      10.01830349      12.28992948       8.93498463
Sc       8.39574211      14.78067287       9.53008163
Sc       9.92460286      11.10588141       6.27801832
Sc      12.31543574      13.31672529       7.19585751
Sc       7.26055540      12.14830492       7.99663237
Sc       9.41017021      14.24346158       6.76606013
54
Properties=species:S:1:pos:R:3 config_type=qcd gap_pre_relax_energy=-285.8066990499137 gap_pred_energy=-287.58165776854304 gap_fmax_final=0.0009716848068093783 gap_converged=1 pbc="F F F"
Sc       7.64884231       8.80587167      13.91806824
Sc       8.49943140       9.55137972      11.05249571
Sc       9.45206290       6.21712870      14.15334708
Sc       7.73241265      11.81628043      12.91670389
Sc       6.70392887      11.98594203       9.96469055
Sc       9.48406354       8.64649741      16.21759712
Sc       7.66170888       9.14142949       8.28169995
Sc       7.78714080      11.17065496      16.06230352
Sc       7.34995402      12.00576126       6.81389421
Sc      10.53372200       8.60239117      13.31872668
Sc       6.80317902      14.71665293      11.84587071
Sc       9.89167640       6.87381239      10.94369707
Sc      11.00797132      11.23329373      11.41235676
Sc      12.29476020       6.02484530      12.72815727
Sc      10.95933804       8.97361003       8.74452885
Sc      10.22161647      11.29380455      14.49119753
Sc       7.69120335      14.53384344       8.70525593
Sc       9.47016125       9.85477727       6.11002954
Sc      12.21820849       7.42911164      15.55874994
Sc      12.78223013       6.34479160       9.66829940
Sc       9.36422329      11.61788184       8.70567302
Sc       8.37428884      14.03655962      14.89265695
Sc      10.27405396      12.62276289       5.87447862
Sc      11.98202894      10.21588390      16.86340761
Sc       9.19877957      16.23979385      13.08094852
Sc      12.69927324       8.69251884      11.30353536
Sc       9.27345314      13.66007082      11.07585818
Sc      10.67280706      14.61022404       7.98459720
Sc      14.64608686       7.72539753      13.83634403
Sc      12.16636278      14.34243149      10.57828207
Sc       9.84897106      16.52050363      10.13827513
Sc      13.07901209      10.19441950      14.00270946
Sc      10.24905635      12.81351608      16.94418259
Sc      10.98632581      15.69389826      15.71879430
Sc      11.12129367      14.01299502      13.52898143
Sc      15.09793381      10.16804630      15.92817885
Sc      15.42028589       7.73961648      10.88128449
Sc      13.72346255      12.77744836      12.59314068
Sc      13.17184505      13.75214594       6.37152139
Sc      12.56253866      10.55013450       5.97402062
Sc      14.43848753      10.98078753      10.35023892
Sc      13.16186706      12.81912873      15.78257968
Sc      16.01995019      10.25696355      12.82273641
Sc      12.33894935      11.92818850       8.48886941
Sc      12.11520019      16.83235221      12.31196851
Sc      14.16694230       8.82515569       8.30234605
Sc      12.96505185      16.54221153       9.05952675
Sc      13.84402276      15.34819441      14.34870189
Sc      14.89390153      15.51305845      11.53052901
Sc      15.96044082      12.96540229      14.33795725
Sc      16.61416795      12.82838183      11.17798251
Sc      14.76517067      13.93244425       8.98484455
Sc      16.97103608      10.12293939       9.58681057
Sc      15.25430021      11.51184617       7.34555119
55
Properties=species:S:1:pos:R:3 config_type=qcd gap_pre_relax_energy=-294.11835470196445 gap_pred_energy=-294.25974271550007 gap_fmax_final=0.00020354416393202323 gap_converged=1 pbc="F F F"
Sc      11.27916676      11.27916676      11.27916676
Sc      11.27911499      13.07233604      13.87891320
Sc      11.27911499      13.07233607       8.67931687
Sc      11.27911499       9.48589645      13.87890984
Sc      11.27911499       9.48589642       8.67932023
Sc      13.07233604      13.87891320      11.27911499
Sc       9.48589645      13.87890984      11.27911499
Sc      13.07233607       8.67931687      11.27911499
Sc       9.48589642       8.67932023      11.27911499
Sc      13.87891320      11.27911499      13.07233604
Sc      13.87890984      11.27911499       9.48589645
Sc       8.67931687      11.27911499      13.07233607
Sc       8.67932023      11.27911499       9.48589642
Sc       6.12092714      11.27911616       8.06638193
Sc      11.27911616      14.49185577      16.43731978
Sc      11.27911616      14.49185093       6.12091971
Sc      11.27911616       8.06637709      16.43731235
Sc      11.27911616       8.06638193       6.12092714
Sc      14.49185577      16.43731978      11.27911616
Sc       8.06637709      16.43731235      11.27911616
Sc      14.49185093       6.12091971      11.27911616
Sc       8.06638193       6.12092714      11.27911616
Sc      16.43731978      11.27911616      14.49185577
Sc      16.43731235      11.27911616       8.06637709
Sc       6.12091971      11.27911616      14.49185093
Sc      11.27911528      16.35314732      11.27911800
Sc      11.27911528       6.20508866      11.27911800
Sc       6.20508866      11.27911800      11.27911528
Sc      16.35314732      11.27911800      11.27911528
Sc      11.27911800      11.27911528       6.20508866
Sc      11.27911800      11.27911528      16.35314732
Sc      12.93536461       7.02062494      13.87856104
Sc       9.62286994       7.02062492      13.87855997
Sc      12.93536187       7.02062899       8.67967357
Sc       9.62287268       7.02062896       8.67967464
Sc      15.53760844       8.67967219       9.62287218
Sc      15.53760842       8.67967112      12.93536238
Sc       7.02062896       8.67967464       9.62287268
Sc       7.02062899       8.67967357      12.93536187
Sc      12.93536238      15.53760842       8.67967112
Sc      12.93536512      15.53761246      13.87856349
Sc       9.62287218      15.53760844       8.67967219
Sc       9.62286944      15.53761248      13.87856242
Sc       8.67967357      12.93536187       7.02062899
Sc      13.87856104      12.93536461       7.02062494
Sc       8.67967464       9.62287268       7.02062896
Sc      13.87855997       9.62286994       7.02062492
Sc       7.02062494      13.87856104      12.93536461
Sc       7.02062492      13.87855997       9.62286994
Sc       8.67967219       9.62287218      15.53760844
Sc      13.87856242       9.62286944      15.53761248
Sc      13.87856349      12.93536512      15.53761246
Sc       8.67967112      12.93536238      15.53760842
Sc      15.53761248      13.87856242       9.62286944
Sc      15.53761246      13.87856349      12.93536512
55
Properties=species:S:1:pos:R:3 config_type=qcd gap_pre_relax_energy=-291.80459108863784 gap_pred_energy=-292.8046491273235 gap_fmax_final=0.0009152782764618993 gap_converged=1 pbc="F F F"
Sc      16.88348460       9.55074978      13.29806613
Sc      16.88817829      10.97982739      10.41942251
Sc      17.25682141      12.76383103      12.80501216
Sc      15.19063950      14.46027368      11.62133809
Sc      15.73592749      11.97724759      15.24926788
Sc      16.28988289      13.55936092       8.87824739
Sc      15.08585856       8.53130180      10.78127256
Sc      15.16156355      10.55977225       7.89995407
Sc      14.47006709       9.36503590      15.24548879
Sc      15.16497576      14.90396289      14.65434950
Sc      13.89986779       7.56163224       7.85350878
Sc      14.72665468      11.14475251      12.49312839
Sc      13.31165149      13.03572912      16.55970490
Sc      13.88101671      12.41181540       9.88793792
Sc      12.69196980       9.61271347       9.37643096
Sc      13.62327476      15.46454672       9.24922838
Sc      12.58064601       6.61235575      10.65779428
Sc      13.52093313      13.19537117       6.99857948
Sc      12.42432285      10.21771070      17.49296677
Sc      12.62150348       8.88216774      12.81196338
Sc      12.93666665      16.26583681      12.53191433
Sc      13.07362869      13.33575230      13.50439275
Sc      14.52454642       6.90997540      13.44891698
Sc      12.33996593      10.16107004       6.41480429
Sc      12.03574558       7.81248454      15.53384295
Sc      11.75089363      10.93384934      14.80512575
Sc      11.71153535      15.34027018      15.32684173
Sc      11.49097102      11.42141567      11.57194391
Sc      10.70723774       7.78960025       7.99092670
Sc      10.26377004      12.65792871      16.74893711
Sc      11.27904119      14.38954146      10.80627817
Sc      11.11136748      12.11971368       8.38066207
Sc      10.37367490       8.56476624      10.97647811
Sc       9.55432524       9.56073324      16.19524426
Sc       9.80647412       7.25971741      13.40429207
Sc      11.10306306      17.24527510      10.12749206
Sc       9.90652077      13.41369311      13.76721124
Sc      10.84252276      15.04324642       7.84112749
Sc       9.01166167      10.16171050       9.17183195
Sc      10.57002521      12.76241681       5.62199500
Sc       9.04230347      10.26718536      13.28362329
Sc       9.81152260      16.25240166      12.86486142
Sc       9.10132533      10.17646657       6.37697237
Sc       8.51757108      15.09696504      15.66964161
Sc       8.55583937      12.48191413      10.97174939
Sc       9.23477670       6.08151449      10.32114373
Sc       7.59878795      12.13852181      15.18851196
Sc       7.40997843       8.49708476      11.27436196
Sc       8.51177902      15.39746240      10.11420647
Sc       8.26527957      12.99150114       7.90401424
Sc       6.22318612      10.66471169       9.12706731
Sc       7.17600084      14.30982332      12.89288881
Sc       6.19200107      11.36133876      12.27326622
Sc       5.94066190      13.52744941      10.06054423
Sc       7.62658691       7.82698182       8.28370336
