3
Properties=species:S:1:pos:R:3 config_type=qcd gap_pre_relax_energy=-8.93780364132536 gap_pred_energy=-8.966683150942941 gap_fmax_final=0.0001690972305093485 gap_converged=1 pbc="F F F"
Se       8.81254028       8.16285150       7.67040471
Se       7.85387704      10.17106823       8.06354638
Se       8.24514516       6.57764274       9.17761137
4
Properties=species:S:1:pos:R:3 config_type=qcd gap_pre_relax_energy=-12.790314988639581 gap_pred_energy=-12.87153267302165 gap_fmax_final=0.0006404384392782265 gap_converged=1 pbc="F F F"
Se      10.08559205      11.02300279      10.10280314
Se       8.58002660       9.62994593      10.98111133
Se      10.40455886       9.35471004       8.00347515
Se       8.89904242       7.96156118       8.88183031
5
Properties=species:S:1:pos:R:3 config_type=qcd gap_pre_relax_energy=-16.676657674971835 gap_pred_energy=-17.010994054678605 gap_fmax_final=0.0006233180779565072 gap_converged=1 pbc="F F F"
Se       8.69646500       6.98534339       9.34185139
Se       6.43180487       7.77888821       9.30009389
Se       9.59520452       7.19055844       7.12580235
Se       5.93100605       8.47469895       7.05826751
Se       7.88593202       8.11092348       5.71439732
6
Properties=species:S:1:pos:R:3 config_type=qcd gap_pre_relax_energy=-20.439963434896242 gap_pred_energy=-20.57642908589918 gap_fmax_final=0.0008644322441043197 gap_converged=1 pbc="F F F"
Se       8.84064364       6.85440573       8.98428041
Se       7.53247899      10.44641967       8.14434815
Se      11.26135234       9.92106842       9.21092450
Se       9.40062675      11.38678873       9.25655564
Se       6.97989345       8.31962740       9.02983215
Se      10.70841976       7.79510498      10.09747408
6
Properties=species:S:1:pos:R:3 config_type=qcd gap_pre_relax_energy=-19.617189586533982 gap_pred_energy=-19.9291675361398 gap_fmax_final=0.0003519047133873066 gap_converged=1 pbc="F F F"
Se       7.32039669       8.15710676       7.31000710
Se       8.47563072      10.14141694       7.34499960
Se       9.73689357      10.33545135       9.59966548
Se      11.84043037       9.82098735       9.11556543
Se       7.54287576       7.01872430       9.48590920
Se       8.83917255       8.28171296      10.89925284
7
Properties=species:S:1:pos:R:3 config_type=qcd gap_pre_relax_energy=-23.97146976176643 gap_pred_energy=-24.098842187259237 gap_fmax_final=0.00037715412763104244 gap_converged=1 pbc="F F F"
Se       8.00559408      10.59969367       7.56250616
Se       6.83026427       9.99182504       9.52165604
Se      10.09816768       9.51133394       7.70479376
Se       9.92055242       7.55577443       6.39457193
Se       7.97813816       6.40304531       9.63913209
Se       6.06996175       7.76157647       9.32822956
Se       8.72977365       5.80920311       7.48156244
8
Properties=species:S:1:pos:R:3 config_type=qcd gap_pre_relax_energy=-27.65233968013831 gap_pred_energy=-27.670582882251097 gap_fmax_final=0.000556136950115789 gap_converged=1 pbc="F F F"
Se      11.06129698       7.31538030       9.08001974
Se      11.25559453       9.63887838       9.46033373
Se       9.99041551       7.07939899       6.98759070
Se       9.51747255      10.20728264      10.95601348
Se       7.72835863       6.58755735       7.45910177
Se       6.54207978       8.60969464       7.16797234
Se       7.80711480      11.16916063       9.64068892
Se       6.18446861       9.47944848       9.33508072
9
Properties=species:S:1:pos:R:3 config_type=qcd gap_pre_relax_energy=-30.923646765088307 gap_pred_energy=-30.973352939226544 gap_fmax_final=0.0009936314166728933 gap_converged=1 pbc="F F F"
Se       9.01218300       9.01218300      12.00536636
Se       7.75167179      10.46340176      10.63316985
Se      10.27269421       7.56096425      10.63316985
Se       9.25223077      12.05709490       9.76482265
Se       8.77213524       5.96727110       9.76482266
Se      10.24162050      11.30627672       7.73893036
Se       7.78274550       6.71808928       7.73893035
Se       8.66913710      10.14245813       6.41521746
Se       9.35522889       7.88190787       6.41521746
9
Properties=species:S:1:pos:R:3 config_type=qcd gap_pre_relax_energy=-30.926476275823035 gap_pred_energy=-31.004324515443415 gap_fmax_final=0.0005665522960475878 gap_converged=1 pbc="F F F"
Se       8.89973290      12.08950409      10.62486366
Se      10.61693456       6.99416140       9.58728184
Se      12.09291690       8.51200864       8.50980921
Se       8.96576921       6.55515217       7.96067332
Se       6.89457873       7.60481861       8.44885293
Se      12.15947263      10.44152914       9.85176511
Se       6.95195959       8.84739730      10.45335092
Se      10.58997001      11.97952349       8.97051399
Se       6.96130302      11.10854268       9.72552654
10
Properties=species:S:1:pos:R:3 config_type=qcd gap_pre_relax_energy=-34.377775672864175 gap_pred_energy=-34.4326214023078 gap_fmax_final=0.0008693734325169335 gap_converged=1 pbc="F F F"
Se       8.64228209      10.50671409       7.12385595
Se      12.17154075      11.53314524       8.03088191
Se       9.97841159      12.36538615       7.72179369
Se       7.01778709      10.28357668       8.82941027
Se       7.38416818       8.16605755       9.81922760
Se      12.72558791      11.94703759      10.29373206
Se       7.94080715       8.57821576      12.08159115
Se      13.09508533       9.83014663      11.28389411
Se      10.13457133       7.74610564      12.38747091
Se      11.47020782       9.60406391      12.98859159
10
Properties=species:S:1:pos:R:3 config_type=qcd gap_pre_relax_energy=-34.36856607287933 gap_pred_energy=-34.42199361976833 gap_fmax_final=0.0009022678110875274 gap_converged=1 pbc="F F F"
Se      10.95784272       8.57830180       6.84942359
Se       8.95491915       7.94135198       7.93522730
Se      12.61336539       8.64676390       8.52725281
Se       7.53698448       9.82984152       7.90279607
Se       8.42976227      11.50739225       9.29853440
Se      12.50050776      10.62779459       9.83180388
Se       7.31752009      11.30025043      11.36731991
Se      12.35410739      10.12598725      12.14944690
Se      10.63871869      11.33268692      13.22873595
Se       8.66516456      10.07852187      12.87835171
11
Properties=species:S:1:pos:R:3 config_type=qcd gap_pre_relax_energy=-37.85709614480683 gap_pred_energy=-37.91281238527765 gap_fmax_final=0.0001474135169552865 gap_converged=1 pbc="F F F"
Se       9.26499694       9.26499707      12.51467675
Se       7.97243987      10.63154799      11.08987003
Se      10.55755414       7.89844585      11.08986994
Se       9.16936297      12.60677303      10.59085044
Se       9.36063116       5.92322104      10.59085051
Se      11.10997938      12.08933270       9.35063480
Se       7.42001455       6.44066133       9.35063468
Se      10.45878703      11.98298618       7.08735348
Se       8.07120695       6.54700778       7.08735356
Se      10.37985665       9.67010036       6.58143639
Se       8.15013736       8.85989367       6.58143639
11
Properties=species:S:1:pos:R:3 config_type=qcd gap_pre_relax_energy=-37.25729994542016 gap_pred_energy=-37.45595716574971 gap_fmax_final=0.0006713733095779464 gap_converged=1 pbc="F F F"
Se      12.17279636       9.37984633       9.26776717
Se      11.04920628      11.36921496      10.38206177
Se      10.48361091       7.83647550       6.26593550
Se      11.51364811       9.84388877       7.11964120
Se       9.04082404      11.41276633       9.47450382
Se       8.18708881       8.28061638       6.07598513
Se      10.18677025      10.26003729      12.77070656
Se       7.53450983       8.01278700      11.23190870
Se       8.03174873      10.22814871      12.08725134
Se       6.20859781       8.13116490       9.28424774
Se       7.12841323       6.78226823       7.57720546
12
Properties=species:S:1:pos:R:3 config_type=qcd gap_pre_relax_energy=-41.43355614418442 gap_pred_energy=-41.434974923558 gap_fmax_final=0.00042607224793760496 gap_converged=1 pbc="F F F"
Se      11.72568732      13.12530081       9.81422408
Se      13.63733384       9.81415600       9.81415600
Se      11.72568732       6.50301119       9.81408792
Se       7.90262468       6.50301119       9.81408792
Se       5.99097816       9.81415600       9.81415600
Se       7.90262468      13.12530081       9.81422408
Se       7.40425229      11.20561800      11.09215352
Se      12.22405971      11.20561800      11.09215352
Se       9.81415600       7.03108158      11.09238289
Se      12.22405971       8.42269400       8.53615848
Se       9.81415600      12.59723042       8.53592911
Se       7.40425229       8.42269400       8.53615848
12
Properties=species:S:1:pos:R:3 config_type=qcd gap_pre_relax_energy=-40.7372842661357 gap_pred_energy=-41.10234206770485 gap_fmax_final=0.0006910071195001149 gap_converged=1 pbc="F F F"
Se       7.42323968      10.23036216       8.81424476
Se      10.45859105      10.01720125       6.33183587
Se       8.09492092      10.62495030       6.61314319
Se       8.70609597       6.84560649       9.54376723
Se      11.07940828       8.56950676       7.94443764
Se       6.70255777       7.99209144       9.04111922
Se       9.20968667       6.64679859      11.87430988
Se      12.06863020      10.96245140       9.48977174
Se      11.51952309      12.18755106       7.67769586
Se      10.25662051      10.11323724      12.95797467
Se       8.42734000       8.60670851      12.89651790
Se      10.19400672      11.34415565      10.95580294
13
Properties=species:S:1:pos:R:3 config_type=qcd gap_pre_relax_energy=-44.77461524761978 gap_pred_energy=-44.85741826978395 gap_fmax_final=0.0009842401487803484 gap_converged=1 pbc="F F F"
Se       7.41613738       9.47620692       9.05065386
Se       8.49230850       8.33313001      10.81166363
Se       7.63974192      13.23553294       9.45020240
Se       9.79734446       6.62285693       9.83470321
Se       8.79156100      11.35491060       8.62076583
Se       8.34118702      13.65086315      11.66130637
Se      10.23391758      15.06584511      11.48160942
Se      11.84369327       7.62010994       9.21414476
Se      13.10488183       8.99011752      12.52859923
Se      13.37700134       7.24480444      10.96457040
Se      12.03930650      13.80196674      12.32464100
Se      12.96630369      12.29959408      10.73849929
Se      14.44435752      10.79180365      11.80638260
13
Properties=species:S:1:pos:R:3 config_type=qcd gap_pre_relax_energy=-44.753692221818056 gap_pred_energy=-44.89796565040038 gap_fmax_final=0.0004912532168916318 gap_converged=1 pbc="F F F"
Se      12.24930119       9.05612326       6.27393685
Se      12.91520319       7.99777393       9.80212522
Se      11.03927122      11.04216156       5.79393935
Se      11.98107836       9.36607908      11.47527415
Se      11.30316351       7.85444707       8.07645212
Se       9.18907179      11.32469620       7.23800606
Se      10.10364538      12.44903868      10.73026480
Se      10.93816869       8.05985105      13.14534240
Se       9.73071205      13.22517129       8.53876186
Se       8.14527507      12.64611448      12.03750300
Se       8.75318283       7.58028711      12.39837037
Se       7.33937588       9.20173597      13.37749833
Se       6.83924524      10.72321469      11.63921987
14
Properties=species:S:1:pos:R:3 config_type=qcd gap_pre_relax_energy=-48.105324035845854 gap_pred_energy=-48.32394744866673 gap_fmax_final=0.0007628395155522451 gap_converged=1 pbc="F F F"
Se      11.31423617       9.98749154       6.79029484
Se       9.02593891       9.79901338       6.21645027
Se       9.61789646      13.68615563       9.74068814
Se       8.78712220       6.05573037       7.10502358
Se       7.90490532       8.19866587       7.53988994
Se      11.74514919      12.85504954       9.14732998
Se      11.50151184      10.50145384       9.09370932
Se      10.88316283       7.05265163      10.31735421
Se       9.94530174      11.62889993      12.99610360
Se       9.33537461      13.72148414      12.09687859
Se      10.62966298       5.54873126       8.50959488
Se       7.85979811       9.07095718      11.13009257
Se       8.95049264       7.02498679      11.67381826
Se       7.97012154      10.33940345      13.11344638
15
Properties=species:S:1:pos:R:3 config_type=qcd gap_pre_relax_energy=-51.77867989925571 gap_pred_energy=-51.884647871669216 gap_fmax_final=0.0009642898282460381 gap_converged=1 pbc="F F F"
Se      11.06938050       7.84232600       7.48392821
Se      12.39471254       9.79913138       7.30207129
Se      11.39434968      14.06832290      11.28107694
Se       9.18256762       8.42236636       8.76860897
Se      14.27680882       9.40315446       8.66724373
Se      13.52251313      14.18586358      10.27658279
Se      10.22651290      10.58663749      11.64630903
Se      13.80483536      10.32368891      10.78688883
Se       9.78561823       8.33126970      11.05549161
Se      11.42433579      15.34636575      13.26297507
Se      14.91032346      12.39614226      10.97227279
Se      11.65419172      13.83875150      15.06215689
Se       8.28436185      11.21934648      12.85410452
Se       8.95552931      11.17931943      15.12337322
Se       9.44297540      13.38633009      15.78593243
16
Properties=species:S:1:pos:R:3 config_type=qcd gap_pre_relax_energy=-54.518552267333575 gap_pred_energy=-54.819630430659004 gap_fmax_final=0.0005074961609961972 gap_converged=1 pbc="F F F"
Se       7.76049092      10.60357761       7.34543848
Se      10.07595029      10.78891374       7.82367004
Se      10.54349418      13.05478032       7.44501956
Se      10.22023986       7.22459670       8.04564459
Se       6.39501070      11.38396480       9.14077552
Se      13.36164285       7.82638978       9.95849911
Se       8.80211477       6.52162404       9.80454173
Se      12.46780675       6.49457191       8.22926011
Se      10.96973760      12.27496020      11.13118939
Se      10.88531857      13.99630073       9.70081243
Se       9.50880736       7.82459908      11.65630827
Se       7.20565941      10.69662649      11.19002631
Se       8.01953760      14.39856964      10.56804644
Se      11.02327067       6.41713355      12.80673777
Se      13.23058039       6.53577819      11.93375568
Se       8.35719183      12.78446695      12.04712829
16
Properties=species:S:1:pos:R:3 config_type=qcd gap_pre_relax_energy=-54.33024290221499 gap_pred_energy=-55.1762846724165 gap_fmax_final=0.0008999713914287788 gap_converged=1 pbc="F F F"
Se      13.41434246      12.76488666      11.17881894
Se      14.45147187      10.02014708       8.83785508
Se      13.71051288      12.23154191       8.88958186
Se      11.29005115      11.98558470      11.86761407
Se      11.40150482       8.50060943      10.72281465
Se       9.66996809      13.36253360      10.85589615
Se      12.57806158       8.46773694       8.59111487
Se       8.84931220      12.11945128       9.02329692
Se       8.38567352       8.07491808      12.99146605
Se       9.55523926       7.06195723      10.80137839
Se      10.80452692       9.48423014       7.32281923
Se       9.02167093       7.96966892       6.95541198
Se       6.35399136       8.60237959      12.14320830
Se       6.36819338      10.99302622      11.81500676
Se       8.02813688       7.75348839       9.09111410
Se       6.70800827      11.19850539       9.50326821
16
Properties=species:S:1:pos:R:3 config_type=qcd gap_pre_relax_energy=-53.993904831752275 gap_pred_energy=-55.210578152071776 gap_fmax_final=0.0006562531993733466 gap_converged=1 pbc="F F F"
Se      10.09391998      10.10115719      11.04889225
Se       6.55688016       7.07289505      11.48712204
Se       8.87546758       6.80588566      12.04245452
Se      10.88665800       8.70962299       9.49453980
Se       6.39822757       9.30675809      10.76391602
Se      13.37427911       8.45558499      11.27213237
Se       9.93639398       6.37135380      10.06402623
Se       6.16220113       9.36249137       8.39547190
Se      14.39002430      11.82623330       9.42503734
Se       5.88304812      11.56292516       7.59236994
Se      12.34504164       9.97614371      12.62973779
Se       8.04320509      12.49440160       7.41985630
Se      12.21017482      11.92218866       8.44077219
Se      14.90583029       9.57388569       9.77834678
Se      10.83498903      12.65692553      10.21619676
Se       8.69642612      13.39431411       9.52189469
17
Properties=species:S:1:pos:R:3 config_type=qcd gap_pre_relax_energy=-58.14542557683731 gap_pred_energy=-58.52125308524015 gap_fmax_final=0.0005136746833987262 gap_converged=1 pbc="F F F"
Se      12.85089033      13.71334639       6.20420014
Se      10.59019025      10.34241546       5.12865195
Se       9.14433735      11.16171554       6.82568262
Se      14.04848062      11.68884468       6.43772241
Se      11.34960991      14.02968671       8.00599352
Se      12.70747468       9.77964095       6.01026539
Se      10.33146383      11.99255202       8.69531769
Se      11.89500454       8.53852707      11.20109380
Se      12.71441095      10.14254369      12.72758116
Se       7.97973492      12.09574400      12.59175492
Se      11.73846598      12.20838543      12.12907438
Se       7.35456323       9.86525985      13.05774345
Se      10.33792919       6.75480304      14.34369432
Se      10.00863380      12.60154799      13.68820770
Se      10.00258001       7.45917848      12.11589086
Se       9.70626770       8.55594058      15.74761554
Se       7.50303136       9.33293676      15.35257879
18
Properties=species:S:1:pos:R:3 config_type=qcd gap_pre_relax_energy=-61.80789451689094 gap_pred_energy=-62.2093320799375 gap_fmax_final=0.0007048865389370084 gap_converged=1 pbc="F F F"
Se      14.75534946      11.33370768       9.12373964
Se      11.77466000      12.58056731      12.68257280
Se      12.58976735      14.78739867      12.46259795
Se      14.01966744      13.16769746       7.83645796
Se      13.68003599       9.42749948       8.22543556
Se       8.22474499      12.04904895      11.58513810
Se       8.70353957       5.43783091      11.64796497
Se      11.88904294       8.96565680       9.69139936
Se      11.94213870      13.84871711       8.72663735
Se       9.53621018      12.83596274      13.39128531
Se      12.42291470      15.59630732      10.23560149
Se      10.06987772      10.25074147       8.85951219
Se       7.74191376       5.69420851       9.49351008
Se       9.89287017       7.35829393      12.32232276
Se       7.20335033       9.98727025      12.15753979
Se       8.50093942       8.71207695      13.65976221
Se       8.72126290       8.79923193       7.59205895
Se       7.08366757       7.91973573       9.05841672
19
Properties=species:S:1:pos:R:3 config_type=qcd gap_pre_relax_energy=-65.50221526397863 gap_pred_energy=-65.60020766745251 gap_fmax_final=0.0008138736940102685 gap_converged=1 pbc="F F F"
Se      12.10402842      10.88921255       6.75056468
Se       8.30381288       8.71830844       7.86077174
Se      13.04693300       8.89674999       5.90402717
Se      10.96297352       6.07007767       7.22678200
Se      13.84750797      12.38047510       7.28432152
Se       9.24811354      10.54005864       9.06295663
Se       7.60102852      11.15504614      10.63957691
Se       9.35082636       6.81047168       8.77958341
Se      12.20887476      13.64835177      11.83287991
Se      12.96571257      11.57338964      11.01049544
Se      14.69040610      12.04932102       9.47483152
Se       7.44940205       9.57821780      12.39418823
Se      12.93748813       7.30657894       7.64488874
Se      13.36020134      14.08977203      13.84539731
Se       8.55519060      13.74130887      15.12584563
Se       9.04916675      10.19005253      14.00560657
Se       7.91998119      11.52256384      15.60513044
Se      12.26323850      12.92232775      15.57264058
Se      10.50676859      14.28937039      16.35116638
19
Properties=species:S:1:pos:R:3 config_type=qcd gap_pre_relax_energy=-64.839128177927 gap_pred_energy=-65.01741648403865 gap_fmax_final=0.0008464958566391582 gap_converged=1 pbc="F F F"
Se      16.02435193       9.99508468      10.55360821
Se      15.68120322      10.37832814      12.85950257
Se      14.06543566      10.60853098       9.39036959
Se      13.73062877      13.69995498      11.87759373
Se      15.13050739       8.30287177      13.82691676
Se      11.62653807      13.10687138      12.63610244
Se      11.83385894       6.73709305      12.85672542
Se      10.70365929       7.82691165      11.09334457
Se      12.79467354       8.39020518      14.23931640
Se       8.43261141       7.87531359      11.75936860
Se       8.15664204      13.43724230      12.71092497
Se      13.64016527      12.92953285       9.62668190
Se       9.85994757      14.85684398      12.28824967
Se       7.70989768      10.87119881       8.19126635
Se       7.95433280      10.20797830      11.90581408
Se      10.28628591      13.51916528       8.54764911
Se       9.92666679      15.39717097       9.85169203
Se       6.43854626      10.80733323      10.19098692
Se       8.07120334      13.11952473       7.66104257
20
Properties=species:S:1:pos:R:3 config_type=qcd gap_pre_relax_energy=-69.01183785586443 gap_pred_energy=-69.31313531434773 gap_fmax_final=0.0008424742279021521 gap_converged=1 pbc="F F F"
Se      13.96401042      10.78836658       7.83449520
Se      11.49821916      13.35716418       6.53678270
Se      11.67264561      11.18633438       7.44755529
Se      14.33095787      11.23737919      10.14265645
Se      15.43472799      13.33247179      10.12058784
Se      12.94315366      15.92303309       8.89260658
Se      10.96057018      14.75004905       8.37593259
Se      13.82925887      14.91372252      10.83563696
Se      10.69996404      12.04672253      10.96168083
Se      10.15913130       9.91075417      11.84736642
Se      10.92422543      13.38148282      12.91396544
Se       8.51573487      11.82295325      15.36346186
Se      13.10293939       8.72897058      13.90515108
Se       8.94555806      13.79539683      14.15318859
Se      14.70310030      10.46368331      13.80474432
Se      12.14793252       8.64721226      11.74619750
Se      13.65019029      12.33851090      14.79625802
Se       9.51108554      12.10213506      17.49233143
Se      11.46906780      10.77695323      17.43978102
Se      13.28482287      12.24400043      17.13691604
20
Properties=species:S:1:pos:R:3 config_type=qcd gap_pre_relax_energy=-69.01687006186557 gap_pred_energy=-69.18166521741443 gap_fmax_final=0.0008444618887524675 gap_converged=1 pbc="F F F"
Se      13.27018241       6.42525994       8.32590369
Se      11.02463915       6.75515582       8.98671336
Se       7.85970487      14.29222755      11.16541959
Se       7.38132057      12.41141945       9.80932482
Se      10.28366163       8.66911684       7.82128233
Se      13.81412424      10.69619699      11.09767921
Se       9.10305880      15.80563032       9.85959768
Se      14.58669898       7.11565934      10.15954736
Se      15.21675333       9.35198363       9.73853841
Se      15.10992457      11.15574953      13.02435229
Se      11.40653711      15.46150802      10.22997521
Se       8.77769995      10.72681748      10.70673858
Se      10.60236565      10.53695881       9.22267567
Se      11.96242667      16.81363556      12.09580920
Se      14.16126208       9.79899554      14.71224259
Se       9.88488772      12.59976167      13.77395995
Se      12.78950965      11.22202358      16.00264973
Se      12.44842055      15.31621721      13.84987475
Se      10.58116050      10.87140061      15.25033357
Se      10.41369952      14.65232008      14.84541993
21
Properties=species:S:1:pos:R:3 config_type=qcd gap_pre_relax_energy=-71.82263729707157 gap_pred_energy=-72.59990808703245 gap_fmax_final=0.0008027434019606337 gap_converged=1 pbc="F F F"
Se      10.80034546      12.79241957      16.82281237
Se       9.67438813      10.83482503      17.55762475
Se       9.42478101      14.17142584       7.84675866
Se      11.30338044      11.87160471      10.93668771
Se       9.56934389       9.27234732      15.80405578
Se       8.43519202      11.34046170      12.83652299
Se      10.86122672      14.93777550       9.55615522
Se      12.96592514      12.23335740      16.08744219
Se       7.71908564       9.77320513      14.41255544
Se       9.96046956      11.83384141       7.93453903
Se      12.72533789      11.83478158      13.74546060
Se      13.01159003      15.57703572       8.78071809
Se       8.25433627      10.77717987       8.97551131
Se      13.79483157      14.09596395       7.12899435
Se      12.55504455       9.46661360      13.64270656
Se       9.85952376      10.21407991      11.14510257
Se      12.35651734       9.51221672       8.81677552
Se      14.98120729      12.37721314       8.27504491
Se      14.37903373       8.98323231      12.20559842
Se      14.13134461      10.34370931       7.45387319
Se      13.46720150       7.98681681      10.26516688
22
Properties=species:S:1:pos:R:3 config_type=qcd gap_pre_relax_energy=-75.09108330245323 gap_pred_energy=-75.58890589209005 gap_fmax_final=0.0008687477548134848 gap_converged=1 pbc="F F F"
Se      15.67224097      12.07433225      10.73881564
Se      16.39180463      11.66135063       8.54128650
Se      14.85673680      14.31391026      10.74040890
Se      13.57811056       8.95842221       8.54590903
Se      13.74429101      10.86667614      13.71222010
Se      14.63033746      10.65269722       7.29720495
Se      12.65100860       9.02178224      12.71278919
Se      12.60682399      14.17639271      10.10512591
Se      11.54912457       9.84073514       9.41828752
Se      12.19841232      12.66103438      13.80543753
Se      11.17246004      13.03025518      11.70215628
Se      11.35699556       7.70386220      14.20011416
Se       9.68527254      13.18963584       8.71287059
Se       9.54327016       6.67226416      13.09843892
Se       7.30666767      12.98800127      12.47658909
Se       8.81950498      11.35105211      13.29170071
Se       7.53371751       7.90118133      13.49103663
Se       7.90635415       9.79001198      14.84510792
Se      10.37294786      11.16640211       7.79316633
Se       7.80024714      10.27701906       7.89221794
Se       6.10455329      11.89526963      10.76146730
Se       7.01097778      12.29957153       8.60950843
22
Properties=species:S:1:pos:R:3 config_type=qcd gap_pre_relax_energy=-74.38407039748216 gap_pred_energy=-75.39978042748663 gap_fmax_final=0.0006229323030269132 gap_converged=1 pbc="F F F"
Se      13.14597909       9.95332270      10.24600357
Se      15.04030982       7.76408637       8.26562549
Se      15.32835105      10.09321106       8.79982376
Se      13.06029113       7.03245169       9.29696490
Se      12.23495102      13.88626887       7.94024203
Se      14.84437860      11.23367963       6.81378651
Se      12.14536326      15.81372133      11.25479491
Se      13.40220265      13.90367005       9.96973641
Se      11.29478923       7.13569986       7.72483636
Se      12.58395368      11.93178441       6.62729804
Se       8.72717402       8.80771242      11.39452553
Se      12.49553604      11.95395176      11.17500709
Se       7.94844675       7.88846898       9.32025002
Se       8.71965471      14.63644093      11.96905104
Se       7.45593441      10.83017047      15.33936579
Se       9.41817190       6.14548062       8.81706182
Se       8.44033133       7.48481873      13.24902157
Se      11.00184453      14.71791334      12.87723600
Se       5.33463918       9.53071773      12.60902031
Se       6.50380425      12.08545505      13.75457115
Se       8.22570726      12.37988156      11.96957016
Se       6.32912368       8.47202999      14.26714513
23
Properties=species:S:1:pos:R:3 config_type=qcd gap_pre_relax_energy=-78.53987855930527 gap_pred_energy=-79.07314976193831 gap_fmax_final=0.0001915065837128621 gap_converged=1 pbc="F F F"
Se      11.36911307      16.19736868      10.52990592
Se      10.19834593      14.24502752      11.15406657
Se      11.75322772      12.44191805      11.09982958
Se      12.52934999      16.18541906       6.93431562
Se      10.67828227      16.66580578       8.31534805
Se      10.64384059      10.29551917      11.03174492
Se       6.52430233       8.06154511      10.98994498
Se       7.05835445      10.07429458       9.94760550
Se      11.75942169      11.21549343       8.04124322
Se      10.82858593       9.96565235      13.38305194
Se      13.32067266      12.48624745       6.74833989
Se      12.01690025      14.18504896       5.77058903
Se       7.99251988       8.29502984       6.61521843
Se       9.60674916       9.56583450       5.42674774
Se       6.57913702       9.87811521       7.62900573
Se       8.37584888       7.76762416      14.34834361
Se       8.64250755       4.98690254      11.93754357
Se       8.77940911       7.17773084      11.60654203
Se      12.70966053       8.63607851      13.99370001
Se       8.75738120       5.61305805      14.87987986
Se      11.61903394       9.30464126       6.60644776
Se      12.11884850       6.50967959      13.14598145
Se      11.21153638       5.31899436      14.93763358
24
Properties=species:S:1:pos:R:3 config_type=qcd gap_pre_relax_energy=-81.32193370921675 gap_pred_energy=-81.70235292344239 gap_fmax_final=0.0009211017210813259 gap_converged=1 pbc="F F F"
Se      18.63675731      16.32547191       5.38315616
Se      16.08920958      15.05168659       7.95046023
Se      16.66625545      15.30091636       5.60342457
Se      15.81662719      18.50316115       9.42917247
Se      14.57128149      16.76958176       8.38916169
Se      12.91837559       8.40940721      16.57690412
Se      10.03592399      14.74011129      15.05506556
Se      11.99866286      16.05513178      15.08213214
Se      10.86029000       8.49266303      17.75223498
Se      13.07424342       6.42826387      15.27681554
Se       9.76000848      10.45003096      17.03644352
Se      11.74147328       7.38760562      10.36915085
Se      15.42445757      18.28692577      11.74281683
Se      14.13356459       6.76363520      13.18086671
Se      10.78718577      11.56467198      13.16998502
Se       9.55283339       6.93571510      11.62455811
Se      11.31405453      18.27998731      14.68421923
Se       8.12204389       9.75442059      15.48563579
Se      12.92776160       5.71811544      11.41598529
Se       9.93274869      13.75167128      12.91329234
Se      13.76567381      19.88031528      12.29132775
Se      10.35127974       5.39873128      13.01627551
Se       8.89219647      10.16220380      13.27767557
Se      11.72868930      18.69117348      12.39483802
25
Properties=species:S:1:pos:R:3 config_type=qcd gap_pre_relax_energy=-86.04708046553131 gap_pred_energy=-86.40626206140226 gap_fmax_final=0.000670345466518109 gap_converged=1 pbc="F F F"
Se      12.14526895      16.32614377      10.01540601
Se       9.22163679      10.41703564       9.75437136
Se      14.38569565       9.49028529      10.95591106
Se      16.42396258      13.99520833       9.95271155
Se       8.63785836       8.50587989      11.01974497
Se      13.24056771       7.50980608      10.41558049
Se      12.93487410      14.50123115      11.30425622
Se       7.61735307      12.05304025      10.33898609
Se      17.03162107      11.84952465      10.74141178
Se      11.09543055      17.99400156      11.32885400
Se      15.20631940      15.02898143      11.68380357
Se      11.81125021       6.72806913      12.14360896
Se      10.24211604       8.38064435      12.74691239
Se       8.61868275      13.60766980      11.80243646
Se      13.02468865      10.89582579      12.41395012
Se       9.72045011      16.98074838      12.96252422
Se      18.67334017      11.84952150      12.43990253
Se       8.26782327      12.68333950      13.96581251
Se      17.73148464      11.38599984      14.56833903
Se      10.91710747      17.01763353      14.99129371
Se      14.06272120      10.55242019      14.47224261
Se      12.38126266      15.16044843      14.96965748
Se      10.39220238      11.94088734      14.67486755
Se      15.59425426      12.35012926      14.79695063
Se      11.30366908      13.47716607      16.22210582
25
Properties=species:S:1:pos:R:3 config_type=qcd gap_pre_relax_energy=-86.03196822343628 gap_pred_energy=-86.4503687477384 gap_fmax_final=0.0008144052254613444 gap_converged=1 pbc="F F F"
Se       9.39379860      13.32904345       6.11818942
Se      11.46517204      14.47971325       6.25430884
Se      13.18639465       8.75725753       9.09707419
Se       8.58488160      12.69760623       8.24523199
Se      11.52060366      10.32892817       9.69895362
Se       7.31726884      14.52900460       9.02231429
Se      13.51880374      13.57467952       9.26672012
Se      11.96409796      15.15914525       8.46615441
Se      15.04750855       8.88269770      10.55399485
Se      12.41949131      12.20402556      10.83826387
Se       8.79179919      15.76066447      10.41194181
Se       9.86997001      13.49275780      13.25577467
Se       8.27884001      15.12205231      12.62284110
Se      14.95402798       6.91514782      11.85712319
Se      14.35858124      14.43777739      13.01734927
Se      11.12728675      14.45527363      15.01037841
Se      10.94685670       9.12459263      14.41281098
Se      15.96954572      13.34656653      14.35302841
Se      12.94277859      15.79911078      14.31759144
Se      15.12656872      11.16039043      14.70418818
Se      12.11698193       7.07674816      14.42794253
Se      14.39681981       7.57558669      14.05302321
Se      10.74419172       9.72947479      16.69307527
Se      12.15916999      11.59885252      17.00070148
Se      14.47790869      11.14225083      16.98037242
26
Properties=species:S:1:pos:R:3 config_type=qcd gap_pre_relax_energy=-88.33552975255822 gap_pred_energy=-89.8684434666016 gap_fmax_final=0.0008483485556696257 gap_converged=1 pbc="F F F"
Se      10.46730475       5.10382833      11.94899824
Se      12.35152336       8.10265345      11.44867936
Se      13.62538308       8.31373854       9.51214298
Se       9.28238093       6.96418077      12.79888837
Se       9.53945941       4.19146289       9.95734956
Se      13.42568011       8.78855355      13.49170474
Se       5.61698079       6.22286662      12.34273984
Se       8.94583596      11.80902621      13.28256467
Se      13.97915070      10.95732638      12.72514003
Se       8.76385778      15.37218039       7.33108613
Se       7.61409409       5.36144250       9.26279033
Se      10.18563209      17.04718919       6.50975793
Se      11.06201972      11.54315534      14.48673060
Se      13.63007667      17.58801403       7.98182951
Se       8.60781656      15.62942936       9.69243208
Se      12.38615660      16.13665147       6.61642846
Se       9.43540326      11.85591559      11.03816127
Se      10.20147907      14.16342343      10.55832519
Se      11.24476327       9.33490502      14.94952921
Se       7.38796840       5.99863633      13.88307345
Se      13.99425735      10.69235005       9.62918519
Se      13.44475285      16.88846227      10.23326452
Se       5.84209468       4.60408224      10.63046045
Se      15.30085890      15.52413989      10.66673839
Se      12.22253221      11.60543412      11.14088731
Se      14.47365269      13.23206731      10.91222745
27
Properties=species:S:1:pos:R:3 config_type=qcd gap_pre_relax_energy=-92.04584801476781 gap_pred_energy=-93.33092352417029 gap_fmax_final=0.0009002189483232588 gap_converged=1 pbc="F F F"
Se       7.76065097      14.04725779      14.52949855
Se       8.45629890      14.20907051      10.87854374
Se       9.50094462      11.58041085      14.63208843
Se      12.91244613      12.69099872       4.95308298
Se      15.13647147      10.52889128      12.27444911
Se       9.39558867      15.20072420      13.61377421
Se       8.26891368      10.10407730      13.20291626
Se      10.21811223      12.61516925      10.90949204
Se      13.48962398      11.73488802      11.10865983
Se      14.36225850      10.15708769      14.48577713
Se       6.50385630      13.44342957      12.01567961
Se      11.04112354      12.69731572      13.27495631
Se       6.37621452      11.10054654      12.21160440
Se      11.36226988      12.86135169       6.73081753
Se      15.36777848      10.62539688       6.91434860
Se      13.82027247       7.86488556      14.58360278
Se       9.28243042       9.39425322      10.10550009
Se      13.92641516      10.55989206       5.04882785
Se      11.46575327       7.54037867      14.47427693
Se      12.31511570      10.42902910       9.42789735
Se       7.56866203      10.12667093       8.38207146
Se       9.25043369      12.31807778       5.85861593
Se       8.77253032       6.04753712      12.05709934
Se      14.26416201       9.36307924       8.58196991
Se       9.32080694       6.88736888       9.97033700
Se      10.85130918       5.67193724      13.15783567
Se       8.85280179      10.04351910       6.45952187
28
Properties=species:S:1:pos:R:3 config_type=qcd gap_pre_relax_energy=-95.73358533276541 gap_pred_energy=-96.74589371366369 gap_fmax_final=0.0009671686884680247 gap_converged=1 pbc="F F F"
Se      18.29930833      11.83589968      11.83364012
Se      20.18868538      13.66003252      16.67254108
Se      20.58579532      15.29624184      18.29632419
Se      16.57541520      12.66917820      13.27847440
Se      17.81654527      13.31436932      16.57169497
Se      20.51563037      17.37548125      17.14299419
Se      15.52111296      16.21657928      17.22257765
Se      16.64790143      11.45083451       8.47697727
Se      18.53937379      18.41653786      17.87262835
Se      16.95875055      10.38018265      10.56475777
Se      16.89119096      14.48284257      14.77613105
Se      16.84165501      17.93937340      16.28543108
Se      13.81491289      17.47025580      18.31260452
Se      14.71818251      12.78898296       8.69902971
Se      12.08478345      10.13581969       9.66454599
Se      12.90064664      11.50543786       7.91779494
Se      11.43481580      16.08590597      15.47091824
Se      12.35794584      13.98141183      16.22662353
Se      14.23059586      13.39234090      14.89701553
Se      11.16715420      12.16709634      15.04974342
Se      11.56312715      11.39926740      11.60751699
Se      11.90261779      17.84450281      16.95744133
Se       8.56524467      15.60732302      12.07599526
Se       9.07244455      13.97332744      10.43759954
Se       8.85254395      12.06283152      15.46909125
Se       6.95234629      14.74700004      13.58728309
Se       9.24368426      11.81455667      11.38219113
Se       8.09550151      14.32429862      15.58834537
29
Properties=species:S:1:pos:R:3 config_type=qcd gap_pre_relax_energy=-99.62317985577889 gap_pred_energy=-100.21273628139855 gap_fmax_final=0.0009905306748571575 gap_converged=1 pbc="F F F"
Se       5.78348814       7.23179220       7.91133154
Se       6.55987274       9.37083018       7.26407287
Se      12.36466110       9.81630581       8.12552370
Se       6.03519375       6.99029596      10.23904323
Se       8.49573368      13.42163501       8.63424612
Se       5.29075401      11.20061872       8.08663089
Se       9.72527383       7.43919445      11.29958336
Se      11.50088517       9.38251414      16.25003097
Se      11.15900248      14.12614632      11.06189557
Se       9.52613124      12.23988102       6.86538556
Se      12.16612013       7.54956319      14.92477649
Se      11.52127053      16.37702494      10.45097189
Se      13.11405627      16.60624525       8.70207347
Se      11.58462190      11.26526723      14.81156450
Se      12.60883194      14.01670750      12.97392179
Se       6.72544117      12.21085642       9.65815835
Se      14.88600079      13.70836564      12.43350734
Se       9.40604835      11.88912511      14.06626736
Se      14.88460952      15.05758097       8.95086110
Se      14.37808148      13.26935015       7.51299290
Se      10.04887790      10.07082568       7.68807989
Se       8.79724426       9.59949056      11.14410156
Se      14.92097088      11.33347100      12.18828038
Se      16.10686994      10.27001813      13.94241739
Se       8.15224640      10.02122382      13.41271458
Se      13.28778914      11.79081759       9.03713117
Se      14.45291367       7.21767782      15.45310681
Se       8.07665531       5.85680933      10.57763720
Se      15.71883998       7.94885159      13.61217774
30
Properties=species:S:1:pos:R:3 config_type=qcd gap_pre_relax_energy=-103.42000524232611 gap_pred_energy=-103.83650225251762 gap_fmax_final=0.0008887014143930584 gap_converged=1 pbc="F F F"
Se      12.49628450      13.92284786       6.97765390
Se      10.45757978      14.06730568       8.15665608
Se       9.06357630      12.37587648       7.28117619
Se      14.03480611      12.70853578       8.30943140
Se      17.86613792      12.41487932      10.27023489
Se      16.68789291      14.45782363       9.95951723
Se      18.21822791      16.15963219      10.54828824
Se      13.20635146      10.69042479       9.21778789
Se       9.61425888      10.36531557       8.38851124
Se       8.34660282      10.26439693      10.37315224
Se       9.76769977      11.00065038      12.10472819
Se      17.05792967      11.56950926      12.32129105
Se      13.41115533      10.57509515      11.58990683
Se      18.06192241      16.51151253      12.87533257
Se      15.63229281       9.76253445      11.79042729
Se       7.74215890      11.17014079      16.71861702
Se       9.51417784      13.33990730      12.31172585
Se       8.25127721       9.44770263      15.17661093
Se      16.65145539      18.38507313      13.17691032
Se       7.85050332      13.83927245      13.91015665
Se      14.58833911      17.51562142      13.92287436
Se      11.81445048       8.11247194      15.18557501
Se       9.74199179       7.99478954      16.30010537
Se       8.72588987      13.19376553      16.01028881
Se      12.41303681      13.23729951      15.84879897
Se      13.65035614      11.36360466      15.14257603
Se      13.19359193       9.50496873      16.51934174
Se      15.30658147      15.46006143      16.98375339
Se      14.63463090      17.61538352      16.28393318
Se      13.36569447      14.34045162      17.71149137
30
Properties=species:S:1:pos:R:3 config_type=qcd gap_pre_relax_energy=-103.19212716282317 gap_pred_energy=-103.82926250834663 gap_fmax_final=0.0009077199114868825 gap_converged=1 pbc="F F F"
Se       9.39438446      12.48603265       7.14066518
Se      16.07956432      10.66530873       9.28956289
Se      10.36093778      14.53741794       7.80733491
Se       9.10674674      11.24364663       9.12780688
Se      12.69818622      14.30636701       7.59813901
Se      13.79716781      11.28070086       9.45160367
Se       6.88605899      11.56717147       9.84956421
Se      16.77412767      15.34024724      10.11222330
Se      18.32400925      13.56423368      10.17525591
Se      17.18437169      11.71489091      11.09553118
Se      13.45068423      13.61454994       9.74016262
Se      16.86602941      16.35119166      12.25014063
Se      12.05727821       9.25475022      11.92600140
Se      14.02512920       8.10699573      12.58013279
Se       6.88349559      13.51726313      11.18414529
Se      10.21176382      15.26153520      13.40389223
Se      14.53455313      13.35110085      13.20285054
Se      15.00078330      15.69133287      13.53683651
Se       7.22547827      12.84088640      13.40653178
Se       9.56423271      13.03355819      13.83425628
Se      10.31373990       8.16049114      13.10230010
Se      14.62894085       8.77424287      14.76595439
Se      10.26285374      16.34813412      15.49684947
Se      15.12818928      12.42942521      15.25927403
Se       9.85938741       9.56903426      14.93597323
Se      13.05414507      12.58845769      16.43697649
Se      12.51681616      16.26346722      16.21491955
Se      13.15592872       7.79038358      16.32168679
Se      12.78420328      14.52543214      17.77553382
Se      11.52922296       9.48016060      16.63630511
31
Properties=species:S:1:pos:R:3 config_type=qcd gap_pre_relax_energy=-104.74874403694199 gap_pred_energy=-105.50023264287378 gap_fmax_final=0.0008128697812604704 gap_converged=1 pbc="F F F"
Se      13.93265334       7.19438562      10.48403332
Se       9.89458826       6.86074658      10.50515598
Se      12.61494101      15.87693707      13.69077917
Se       8.17405771      13.78527624      15.15827133
Se      10.48189494      13.01555455       8.00323454
Se       9.28014476       9.03317985      10.63504607
Se      10.44986466      16.79898275      13.83542546
Se       8.95164122      15.04402629      13.30930801
Se       7.67247267      11.58294331      14.45151883
Se       7.29730897      13.33688898       9.81400092
Se      12.41506791       9.75340344      12.60665057
Se      11.53424132      10.98303276      14.45410420
Se      15.92256337      12.73240338      16.06769342
Se      13.26064273      15.67948453      15.99997612
Se      12.53924460      11.38261784      10.90755501
Se      14.66865833      12.42865251      10.62659539
Se      13.26458960       7.20352185       8.21484400
Se      16.26849298       7.42017131      10.79715180
Se       9.62412970      13.30101162      10.23403699
Se      11.38231296      15.08663397       7.39590309
Se      16.26591620      10.58282526      16.56580104
Se      13.33502985      15.40606992       8.78352305
Se       6.43097691      11.44678198      10.98303188
Se      13.57499226      13.39735721      16.31698296
Se      16.34847227      11.11946305      11.63606603
Se      16.97444552       9.52204515      10.00120094
Se      12.81735704      16.78676937      10.47897676
Se      10.28463460       9.44703335       8.07259890
Se       9.41808438      10.07666921      14.98558561
Se       6.94465247       9.38541140      10.00207650
Se      10.90349480       7.25728697       7.91043938
32
Properties=species:S:1:pos:R:3 config_type=qcd gap_pre_relax_energy=-108.48648807420756 gap_pred_energy=-110.18716144333314 gap_fmax_final=0.0009712928381137491 gap_converged=1 pbc="F F F"
Se      12.62225279      17.09619040      11.92843279
Se      15.92201629      17.91394612      13.90111828
Se      13.52339199      16.96860795       8.00820487
Se      14.14329084      18.76713071      12.58354007
Se      13.59271139      15.91250775      10.12608306
Se      11.25997936      17.07208470       7.37675530
Se      15.15049997      16.40727811      15.53966832
Se      16.89577182      11.29377515      10.39696073
Se      12.66131416      17.96337200      17.90336255
Se      13.15063804      12.64834257      13.66807131
Se      10.95589118      15.35614373       5.76077718
Se      16.66339985       9.77848034       8.77835325
Se      14.96698617      17.62590414      17.55839302
Se      12.02110532      14.56408427      14.58016069
Se      10.50573051      12.18198105       9.74344892
Se       9.30834262      13.91868799       6.64524484
Se      14.24287100       9.21763476       9.20360765
Se      10.39331168      11.95770359       7.39648464
Se      11.76846356      16.18457200      19.20258859
Se      12.81895056      12.55277765      10.15813886
Se      14.01970847      10.63216388      11.04045233
Se      11.11073802      13.59389520      16.51741988
Se      15.27877480      12.29304510      14.62160903
Se      12.47158781      14.08382377      18.39404843
Se      10.49676652       9.12073006      14.19704212
Se      14.81865958      10.95513770      16.54297471
Se      11.64258054       8.94930533      17.96657131
Se      12.14415522       7.38970411      14.13912316
Se      15.02819677       8.65734893      16.14989215
Se      10.20722602      10.01142671      16.36794852
Se      14.06845778       8.48288588      13.56330601
Se      13.10898994       7.41208898      17.00297807
33
Properties=species:S:1:pos:R:3 config_type=qcd gap_pre_relax_energy=-112.30758810314089 gap_pred_energy=-114.64519012066282 gap_fmax_final=0.0009224767181455185 gap_converged=1 pbc="F F F"
Se      16.20334474      12.32799409      13.08204135
Se      15.65689552      13.20033111      15.21565236
Se      15.04200696      15.46415153      14.89796880
Se      14.86540404       9.22908875       8.19766699
Se      14.71132775       9.78338412       5.90515570
Se      13.18441704      11.55982467       5.71294370
Se      13.24961003      11.42298377      10.75867171
Se      13.83426681       7.11777360       8.46082382
Se      11.07564661      10.64054107       5.07966691
Se      12.57338408      15.46487811      18.04576499
Se      12.84399558      15.77360634      15.71613110
Se      14.58491524      10.67974971      12.62703181
Se      13.78244178      13.70598558      10.25673065
Se      12.46043694      13.13487104      18.41290682
Se      11.52475858       7.35498137       8.83088102
Se       8.07555982      13.63507960      14.52655490
Se      11.03907263       8.75495739      10.72462471
Se      12.42967332      14.57418672       8.53226784
Se      12.93104338       7.45789957      13.62950025
Se      10.90382008       7.12321625      12.47570618
Se      10.07875154      14.45798806      13.83258808
Se      12.51969652       8.29953444      15.82360286
Se      11.23564553      16.50255321       9.17717369
Se      10.31108648      11.60513646       8.91827831
Se       9.45653350      11.19835337       6.68147514
Se      10.31453785      11.59362265      12.24093151
Se      10.31983169      12.37459667      17.77516164
Se       9.37208727      15.83672767      10.46594099
Se      10.64239797      11.56274541      15.56139076
Se      10.36660191       9.23233568      15.98150591
Se       8.10529247      12.29950289       9.62589174
Se       8.20550081      11.62443842      13.15300397
Se       7.72228787      14.62925297       9.29663610
34
Properties=species:S:1:pos:R:3 config_type=qcd gap_pre_relax_energy=-115.78912311479104 gap_pred_energy=-116.67825703777214 gap_fmax_final=0.000874233704083096 gap_converged=1 pbc="F F F"
Se      10.25023630      15.18789473       6.61855524
Se      14.87529927      18.36953859      14.48194340
Se      10.80588931      10.24275690      11.05668052
Se      11.94144162       5.62900571      18.03970316
Se       9.11130507      12.44547448       8.91766717
Se       7.73068680      16.78845661       8.90662447
Se      10.26824988      19.43878865      12.69543217
Se      13.12698016       9.25020161      14.50669924
Se      11.12695546      13.51001752       7.95691361
Se       9.90150724      17.05241223       8.07514901
Se      15.11933357      12.96158419       9.49589456
Se       7.98597436      15.38459532      10.83336346
Se      13.84114178       6.93653219      17.51487602
Se       7.50878780      16.83668099      12.62532051
Se      10.30041589       7.15937673      18.76081035
Se       9.54543952      17.41006402      13.68050521
Se      17.13531269      18.15282161      13.82461773
Se       9.73143574       7.23860340      14.86300764
Se      10.50434801       9.01939625       9.24098068
Se      13.47321210       6.29442546      10.01948153
Se      14.49212946      14.81756540      10.82304359
Se      13.42928824      11.29270879       9.74153803
Se      12.36223911      18.93288529      11.70873868
Se      13.70580360       4.43103049      13.20621323
Se      17.51501921      16.17754233      12.56712711
Se      10.76654483       9.27793334      14.24383017
Se       8.82549376       7.72885584      16.98482933
Se      14.46277100       4.38717771      11.09533713
Se      15.73675093      14.63915262      12.81869222
Se      13.87884509       7.12917827      15.16325425
Se      15.21099443       7.86018987       9.81778739
Se      14.59752065       9.77444191      11.10072070
Se      13.96360609      20.02451715      13.05933350
Se       9.02025457      10.46940739       7.80654262
35
Properties=species:S:1:pos:R:3 config_type=qcd gap_pre_relax_energy=-118.90514583377032 gap_pred_energy=-121.07576721938139 gap_fmax_final=0.000978865556945926 gap_converged=1 pbc="F F F"
Se      14.80714193       9.45653409      15.60850876
Se       8.62762749      10.89032535       8.08166878
Se      11.02991021       4.91426742      12.60317159
Se      15.89603644      13.80141152      16.00610513
Se       8.19641127      14.02280254      17.20602364
Se      11.94733458      15.27066925      17.07241033
Se      13.15650400      11.05596500      15.53963685
Se      15.01528315       9.51621289       8.59220495
Se       9.43220637      17.40726394      11.28170235
Se      14.17915853      14.85102058       6.91124978
Se      14.11050755      12.68577012      17.02716105
Se      10.10278737       9.32865789       9.12976275
Se      14.77037222      15.71350542      15.22026717
Se       9.63203025      12.93984702       8.69314516
Se      10.28608312      13.96327168       6.65331963
Se      12.01920878      14.78303381      12.71294055
Se      14.06616687       7.26903078      12.73328494
Se      15.35610459      12.38264531      13.30345778
Se       9.37469763      16.74835493      15.02637509
Se      10.59103810       6.83031941      11.29565893
Se       8.00567230      16.91637669      13.10564607
Se      14.76872913      11.04499839      10.40410155
Se      16.01830577      12.88937325       9.57855115
Se      10.90423694      15.62456326      10.79470437
Se      12.45028515       8.40014671      11.34722360
Se      11.21330860      15.25047888      19.30697721
Se      13.28472835       9.87000166       7.02175209
Se      12.51408450      13.31031379       6.23239479
Se      14.45014524      14.64992471       9.23827484
Se      13.27531569       5.17768671      13.48938594
Se      16.22841307      10.32224561      13.78860482
Se      14.27306617      15.44997032      12.87121469
Se       9.85281233      14.49517597      15.56877958
Se       8.96022017      14.41000087      19.42954589
Se      11.36448285       8.51825085       7.28520489
36
Properties=species:S:1:pos:R:3 config_type=qcd gap_pre_relax_energy=-123.12633436264366 gap_pred_energy=-124.49819144370485 gap_fmax_final=0.0007215070270057863 gap_converged=1 pbc="F F F"
Se       9.14870947      16.94423200      15.07408685
Se      10.97939412      16.20430070      16.37586353
Se      11.66931787       9.69086164      16.75769182
Se       6.89200509      14.40684295      11.30440834
Se      13.94139780       9.99605817      17.33312136
Se       9.88009036      17.91292924      13.04301137
Se       7.95844545      12.37802353      11.90153994
Se       9.06467129       8.12767942      13.56611131
Se       8.48896334      15.81340983      10.27317509
Se      15.09594114       8.05927750      16.62292450
Se      10.41316715      16.08170874      11.63696579
Se      11.11580749      11.16334491      14.98879431
Se      12.19715740      14.59201821      15.12737958
Se      10.29451477       5.35717616      11.11745639
Se       9.36490850       6.80026621       9.48544573
Se      15.31554583       7.54182060      12.91641540
Se       7.31816536      10.81864970      10.22468456
Se      10.33977488      10.05660313      13.03286078
Se      10.73247542       6.50523221      13.15539753
Se      13.51056779      15.48194451      13.37927370
Se      16.31158002       8.72695496      14.71733476
Se      13.83378329      13.10878871      11.99757278
Se      15.62924872      15.66863799      14.43133981
Se      12.34672152      13.19950560      10.33360549
Se      13.10276639      16.89025852       9.09234574
Se      10.50736178       8.88052075       9.35947445
Se      13.28238961       8.51613674      12.20938994
Se      14.85106786      17.40101841      10.63350083
Se      13.04956109      10.89563154       9.00657217
Se      17.06836656      13.87582238      13.86650593
Se      18.44495407      16.84561426      11.73945230
Se      14.41481607      10.04176885      10.62393912
Se       9.08924917      10.69436710       8.69253383
Se      13.41973795      14.63222566       8.65059807
Se      17.02291645      16.91329242       9.84926555
Se      18.68444131      14.55705911      12.25994369
37
Properties=species:S:1:pos:R:3 config_type=qcd gap_pre_relax_energy=-126.91432804447484 gap_pred_energy=-127.72909333887745 gap_fmax_final=0.0009906038672669688 gap_converged=1 pbc="F F F"
Se      16.49462732      14.59817364      11.60564313
Se      10.05504591       8.52509215      15.27661457
Se      10.27798949      11.62440651       9.94349766
Se      12.00771144      16.09282708       9.38963095
Se      12.74273553       5.65980529       9.69273185
Se      15.91637384      11.53191332      13.69048771
Se      12.42749615      12.45407483       9.25983683
Se      10.92493399       5.85715132       8.20392704
Se      11.10929510       7.95540461      13.23709665
Se      12.40144132      14.35187574       7.85290503
Se       9.60356282      12.16822429      15.18554916
Se       7.07335963      14.91049023      14.73328351
Se       9.22583808       9.18919462       5.93540847
Se       6.00971970      12.25698377       9.91452910
Se      15.20258680       8.38764337       9.02117765
Se       8.35629579       6.55983088      11.04953373
Se      11.03769863      12.59391377      13.28574612
Se      14.10374023      10.66608273      17.11583032
Se      11.16714895      10.27734413       5.09787367
Se       7.47107468      10.43335229       9.27976677
Se       6.13120313      16.04047677      11.05454578
Se      14.82963764      16.26209010      11.89005907
Se      17.06052454      13.59291537      13.67421753
Se      13.98708408      11.80213981      15.04380716
Se      11.39707736       8.02342922      17.16914459
Se       9.78464567      13.39882425      11.44274961
Se      10.01852548       5.94618247      12.59601822
Se      14.14053265       9.95211214       7.58572728
Se       7.71087776      10.70416811       6.93038721
Se      13.45848266       7.78690451      10.48725811
Se       7.80040114      15.94541204      12.72425979
Se       9.29686028       7.39127813       9.01746639
Se       7.02512013      14.35192384       9.64345258
Se       9.02693290      14.31191206      15.94148279
Se      14.10425386      17.10123875       9.79805835
Se      13.66412780       8.39586639      16.63934911
Se      13.05650102       9.00080499       5.69241002
38
Properties=species:S:1:pos:R:3 config_type=qcd gap_pre_relax_energy=-129.5692468346204 gap_pred_energy=-131.24189979114288 gap_fmax_final=0.0007937004669533131 gap_converged=1 pbc="F F F"
Se       9.85321170      14.54571189      11.10106665
Se      16.18895888      12.86247395       8.97020472
Se      12.56374286      14.15615701       9.76470430
Se      12.64210663      10.69553739      11.15575176
Se      14.48881925      14.46899951       8.48518667
Se      17.48737521      15.64144542      11.99901070
Se      14.96104084      10.24482564      11.35147288
Se      19.83436265      15.84267937      11.97313968
Se      12.01927748      15.68243531      11.76210605
Se      13.24052383      19.64072720      12.78582411
Se       7.80497008      15.46673551      11.77639598
Se      16.10631636      12.31051185      11.27053318
Se      15.08545877      20.97384608      13.46249456
Se      17.71055568      12.65613693      15.07825999
Se      20.67491110      13.67265062      12.38956238
Se      11.73579962      10.52980497      13.31057652
Se      11.22072787      12.75563182      14.01023443
Se      16.42508870      19.82783621      15.02844862
Se      13.18266287      17.41069370      13.55276626
Se      16.69445924      16.31968555      14.11984674
Se      19.81576071      12.84377748      16.11545813
Se      10.62802630      17.93837895      12.76505441
Se      13.91147391       8.67216803      19.13610036
Se      13.07776618      13.93119627      14.79795073
Se       8.26573359      17.55871358      12.86688416
Se      13.12613610       9.47663887      17.05639810
Se      15.75461178      20.18950598      17.26527249
Se      16.54989231      14.62328291      15.75333315
Se      13.52943826      17.05387592      17.17859377
Se      13.49909894      15.97160863      19.24971670
Se      21.44435478      13.72275867      14.61912608
Se      16.08058030       9.54749475      19.42924804
Se      11.65193796      11.24887226      17.60009420
Se      12.86393096      13.19275737      17.13192447
Se      15.81265413      11.57128012      20.63232007
Se      13.57619809      19.38069354      17.67668733
Se      15.75878127      15.44638191      19.72339086
Se      16.01920838      13.21204234      18.94081427
39
Properties=species:S:1:pos:R:3 config_type=qcd gap_pre_relax_energy=-133.43128892358604 gap_pred_energy=-135.17180701499078 gap_fmax_final=0.000917900146208142 gap_converged=1 pbc="F F F"
Se      14.46831940      12.57291650       6.43686189
Se       9.73778445      11.77533483       6.99828550
Se       9.73634271       7.11109223       9.03503177
Se       7.93554278       6.10939812      10.20392231
Se       9.60111601      10.83300374       9.11181518
Se      11.76806473       5.93286725       9.24636607
Se      12.66776897      13.56861807       7.52047042
Se      15.95804270      11.34651030       7.84800061
Se      15.37622792       9.10741235       8.24400644
Se       8.32447549      13.66766551       6.91801163
Se       9.33888650      15.45263407      10.22690987
Se      16.08298499      14.94129797       9.58169649
Se      11.98627527      11.77425401       9.60339841
Se       5.86245125      10.68796983       9.73256456
Se      12.67451315      13.78377130      11.17729051
Se       9.74775162      15.27869142       7.89510020
Se      13.69873228      15.11011058       9.56800272
Se       6.98292178       7.70056291      11.69225096
Se      12.65222670       6.44679730      11.37860871
Se      16.83728595      13.09771235      10.83416993
Se       7.21196135      16.38585360      10.68647571
Se      14.18227383       9.36154025      10.38075317
Se       6.26101742      15.58056144      12.70322770
Se      12.07693119       4.59089399      12.76337110
Se      11.55772562      10.73588384      11.77958017
Se       9.83007757      12.27376210      12.23245413
Se       5.14063527       8.56756959      10.49594007
Se      14.81135618      12.92152748      14.00519304
Se      11.27774814      12.80231037      14.11794612
Se       9.72843580       7.47949142      14.10354251
Se      15.88410621      10.03897310      12.08399789
Se      16.75128786      13.89865767      13.10380749
Se      10.14369379      12.15618817      16.07202753
Se       6.28829783      13.21438471      12.70858839
Se      10.46196451       5.23956991      14.37202967
Se      14.93294360      10.53859421      14.15324095
Se       4.79861609      12.28221888      11.11888493
Se       9.16972824       8.53820618      16.14355955
Se      10.95770962       9.99941724      16.62684040
39
Properties=species:S:1:pos:R:3 config_type=qcd gap_pre_relax_energy=-133.72469235622108 gap_pred_energy=-134.46049597825126 gap_fmax_final=0.0009920526437351557 gap_converged=1 pbc="F F F"
Se      16.61376757       8.64280084      10.82408439
Se      11.07707014      13.82631121       9.93546488
Se       8.14347086      12.77253424      12.06676733
Se      14.30750225      18.25426279      12.39010799
Se      15.79475922      11.72986142      17.24320289
Se       7.07560579       9.23857854       8.86191070
Se       5.70177498      10.27102984      10.50219239
Se      10.44676833      18.44667501      12.55506693
Se      12.46103102       8.53452892       8.05708181
Se      11.03269691      16.14694384       9.44583237
Se       9.29223678      13.99431464      15.63862585
Se      14.30936514       7.93438182       6.69345332
Se      12.48143272      13.70290900      13.71123691
Se      10.63648850       7.74713076      14.27183463
Se       9.86400729      12.88402453       8.13980771
Se      12.67377210      13.68346176      17.41999857
Se      17.21009635      10.73413079      11.74756102
Se      14.50774496      17.19173061      10.29629175
Se      15.89281383      13.22594783      15.49680174
Se      11.11266396      12.53498269      15.07499077
Se       9.67548794       9.60634974      13.11471509
Se      15.14899570      11.84674404      12.11554274
Se      12.36732754      17.40967925      13.43420585
Se       8.54924656       7.83538703      10.03439159
Se       9.42533955      17.10968015      10.87928488
Se       7.57366787      13.99151019      14.02130002
Se      13.91521813      14.71462210      15.91351986
Se      10.35045327       9.13203516      10.89340371
Se      14.80638547       9.64727345      16.52389641
Se      15.96044818      15.34375202      10.52230077
Se      11.44510712      11.91648095       6.66459576
Se      15.92027069       9.59834259       7.15401177
Se      10.17009341       7.70542065      16.58164778
Se      10.95062215       9.60766607       6.58811247
Se       6.36603113      12.52854485      10.52086995
Se      17.48851312       8.64100585       8.63167957
Se      14.77958776      13.29505120      10.29156976
Se      11.16692105       9.61835284      17.54132902
Se      13.33677654       8.98712272      18.23287092
40
Properties=species:S:1:pos:R:3 config_type=qcd gap_pre_relax_energy=-136.97688836256634 gap_pred_energy=-138.39090691337378 gap_fmax_final=0.0009435672946136659 gap_converged=1 pbc="F F F"
Se      12.19846961      17.17976581       7.74106671
Se      19.85392847      11.15456102      12.88834858
Se      14.39933393      16.31302034       8.05559717
Se      16.15182891      11.64503734       9.45503332
Se      10.61314069      15.78706878       8.76927728
Se      16.17522011      10.34716322      11.41386681
Se      20.59869558      12.25778478      10.96303113
Se      17.52793863      11.65644645      12.87043423
Se      14.77335535      19.03392480      10.95673418
Se      10.18584315      16.68476369      10.94525452
Se      14.50820659      15.01945706      10.02492904
Se      17.42599784      15.63804636      12.20218982
Se      12.73653579      18.92296275      12.12208389
Se      10.34411971      12.49984102      13.85274889
Se      19.30011471      15.79768714      10.78867043
Se      14.05749948      12.76550601       9.49888079
Se       9.61695960      14.03857417      15.53110179
Se      16.46191693      19.40316516      12.59737425
Se      12.04772379      16.62931839      12.35407615
Se      21.04955266      14.48185599      11.67056162
Se      11.33227572      14.57432022      17.07571012
Se      11.11016520      17.09137272      14.76997719
Se      17.46352207      14.39611585      16.94536329
Se      15.76130822      13.21649677      15.83069000
Se      17.10750522      17.47785231      13.75737791
Se      14.98353766      16.16103492      14.50282047
Se       9.79921942      10.36668583      14.68635470
Se      10.71786152      12.76953421      18.57709090
Se      16.45371778      10.92074354      16.05861620
Se      11.87835593       9.31390593      15.12449913
Se      16.69118480      14.73565722      19.15761688
Se      11.99155759       8.97657631      17.45641938
Se      13.25593859      17.37657057      15.59240068
Se      13.47859171      16.75794642      19.14089876
Se      10.40413271      13.48376433      20.82000123
Se      15.83633957      16.93500983      19.20988498
Se      15.65562074       9.87446422      18.00972670
Se      12.77404498      16.36418450      21.37088471
Se      13.42191246      10.63906951      18.33300155
Se      12.56635029      14.02226824      21.58892833
40
Properties=species:S:1:pos:R:3 config_type=qcd gap_pre_relax_energy=-136.64437472933264 gap_pred_energy=-138.67726100441632 gap_fmax_final=0.0006581785801349942 gap_converged=1 pbc="F F F"
Se      13.65577089      17.86351863       9.49554545
Se      12.78050786      16.99044374      11.52235685
Se      12.39360346      19.74173934       8.75466695
Se      15.98740841      16.32089176      13.77391892
Se      16.89308324      13.23312398      10.29762329
Se       9.12834692      19.82148453      10.65938897
Se      14.33536622      17.86562191      13.09628503
Se      13.49506953      14.34909476      11.32082416
Se      14.96398987      13.28942976       7.01591867
Se      10.13236145      18.38510292      14.16104367
Se      16.33579525      11.90666319      16.06447775
Se      17.12390766      13.05490093       7.96209376
Se      16.59013238      11.03524366      11.11011723
Se      10.13369266      19.07739729       8.66052278
Se      14.91825849      15.52584308      17.55987515
Se       8.96113511      17.97419164      12.14498103
Se      11.58938591      16.56760459      14.75150854
Se      13.36459828       8.36955044       8.38426259
Se      14.19267674      11.04529026      11.20478746
Se      14.61723309      15.06075541      15.26537271
Se      12.31282774      13.56046013      13.07970614
Se      14.17189867      13.61125210      18.77385158
Se      14.42664940      11.18534574       6.07181429
Se      10.69560855      13.72722315      17.47913830
Se      10.14042835      15.79757451      16.54623755
Se      13.51791114       8.71231816      10.69640975
Se      10.80251919      10.57816589      11.81001935
Se      15.63230650      10.04374582      14.84124206
Se      15.43721003      11.67713445      18.26726364
Se      10.12782806      12.75233558      12.52676112
Se      13.53705695      10.33189933      13.72442403
Se      12.28419297       9.43586599      16.70432394
Se       9.95832338      12.01993637      15.95907153
Se      12.59285167      10.33794766       7.28608265
Se       9.81963933       9.00576617      13.23623488
Se      13.03012834       6.99685940      13.69543008
Se      13.01140270       7.34258146      17.54721783
Se       9.92131105       9.81659942      16.76232858
Se      10.73995147       6.80944791      13.09694804
Se      13.29769713       5.82971500      15.73998974
41
Properties=species:S:1:pos:R:3 config_type=qcd gap_pre_relax_energy=-140.71232423706923 gap_pred_energy=-142.09219372779867 gap_fmax_final=0.0009146397979293293 gap_converged=1 pbc="F F F"
Se      12.99397646      14.62218976       7.49842225
Se      11.59731971       9.90411391       7.71588700
Se       9.44877382      10.66801174       7.80219452
Se       8.77739304      11.83228029       5.78121291
Se      14.43768931      13.07038937       8.42707933
Se       7.23994339      13.54836469       6.24532523
Se      13.14264200      16.77735429       8.55301700
Se      14.88612552       8.13069625       8.83697414
Se       7.78936930      14.70331762       8.27516347
Se      10.60845551      13.12344386       9.11907058
Se      14.53289345       9.85924695      12.40324981
Se      15.21849935      10.11485081      10.17760350
Se      12.41707460      11.86383213       9.50387890
Se       7.44776249       6.59649667      11.49742906
Se       5.85513902       9.41269719       9.52631477
Se       7.93350995       8.39631022      10.01083048
Se      13.06731702      16.62837519      10.90016134
Se      12.76976841       7.20531424       9.26047331
Se      15.56115744      14.01597034      11.83448383
Se       6.10857250      14.51615571       9.92864055
Se       5.32359453      11.05555862      11.13792786
Se      15.33907109      16.39577747      11.51816672
Se      10.14529570      10.56183990      13.41738303
Se      16.45674003       8.87571810      13.39820571
Se      10.08774050      14.48816561      11.96953913
Se      13.11815779       5.72127040      11.09988912
Se      11.40567002      12.59043670      12.57342675
Se       8.56414830       7.20125803      13.48188008
Se       6.99600513      12.71858621      11.20156898
Se      16.99150005      10.41444467      15.10077916
Se      15.93014618      13.82010665      14.09002594
Se      13.58191880      13.48063732      14.97548611
Se      11.78399679      16.70075653      14.28384373
Se      10.22876013      10.97557421      15.69747207
Se       9.58269557      15.93924364      13.75249139
Se      12.32227944       6.94334856      12.97220796
Se      12.65863361      15.54872448      16.08203687
Se      10.41891656       5.74313026      13.71488623
Se      12.00836574       9.62385467      16.54307204
Se      15.94369609       9.81951593      17.12685856
Se      13.86214988      10.97550502      17.14830473
41
Properties=species:S:1:pos:R:3 config_type=qcd gap_pre_relax_energy=-140.4122621058887 gap_pred_energy=-142.03937201629813 gap_fmax_final=0.0009933564541433726 gap_converged=1 pbc="F F F"
Se      14.49064279      11.14263424       6.12729839
Se      13.47730439      14.56654900       5.71309350
Se      10.79867030       7.96922063       4.84434615
Se       7.49892521      12.19112959       8.69921850
Se      12.66607311      15.79739340       7.54023488
Se      10.11658469      10.12649162       4.65366483
Se      14.25379622       9.96376970       8.24067660
Se      11.20213620       7.95767515       7.47327700
Se      12.51605385      12.36296724       5.78800937
Se      13.94329329       7.78986480       7.68492268
Se      17.22280858      14.45763849       9.52906442
Se      17.58658232      13.50954916      11.66858684
Se       9.31983429      12.10879409      10.14959846
Se       7.83363126      10.58023772       5.24474207
Se      11.09075618      10.09814701       7.95019548
Se      10.59236571       5.50623757      11.84618813
Se       9.01330717      13.98855307      13.09843870
Se      13.56236480      14.96302255       9.56037995
Se       7.89559334      10.13612050       7.55379220
Se       8.29095885       8.34553306      11.27005349
Se       6.60766468      14.04367675      13.09458360
Se      12.63715777       5.90915879      12.90802973
Se       9.50050148      15.69866986      14.63230171
Se      10.73299334       8.96076486      15.37049271
Se      16.06502196      11.73766016      12.01403732
Se      15.61712410      16.13549039       9.88466108
Se       6.27380732      11.79107588      13.69891985
Se      13.63864200       7.75217698      11.76968941
Se       8.91329346       6.84071421      12.91102443
Se       8.91835437      10.64325850      12.11885623
Se      13.60273038      13.99083556      14.19277199
Se       9.30799524      14.83418347      16.85196364
Se      13.89400133      12.72147446      12.28677827
Se      11.73970124      10.49610335      13.93035665
Se       6.21824507      11.42589604      16.05090112
Se      13.79419089       9.36490528      13.46657144
Se       7.25758025       9.38695209      16.63700498
Se      13.37002592      11.98555330      15.68611060
Se      11.48165797      14.77814628      17.70904697
Se       9.47081924      10.02583351      17.12694038
Se      12.15607858      12.48521093      17.59244546
42
Properties=species:S:1:pos:R:3 config_type=qcd gap_pre_relax_energy=-144.41205491444106 gap_pred_energy=-145.12003328268787 gap_fmax_final=0.000898995457474731 gap_converged=1 pbc="F F F"
Se       9.53496920      11.32290542       7.12270932
Se      13.42432865       9.06468586       5.24764380
Se      11.77440060      11.21911739       7.92000967
Se       9.29776066      13.59015963       6.44710787
Se      13.22081509      11.26830335       6.04422889
Se      14.45799144      14.00975499      10.52786940
Se       9.47586865       7.81339479       7.96599495
Se       7.34433961       6.78469864       7.87152315
Se       6.30276176      14.38132328       8.63349266
Se      10.62716225       7.52495598      10.00802056
Se      15.37944104       8.16763864       6.26694827
Se      16.61337215      14.30231248      11.50004106
Se       6.34499386      13.04752879      10.57538667
Se      10.98436839      11.06187716      11.27002571
Se      13.06687476      11.06446103      12.33323883
Se       8.55819971      14.96357339       8.21497408
Se       7.38622526       4.75011519       9.06677308
Se       6.95427162      10.88582039       9.81635433
Se      16.65213700      12.67001751      13.19996241
Se      14.75888475       6.11698304       7.24392497
Se       9.70823147       9.06883909      11.54269908
Se      12.65873392      14.60430247      11.92883034
Se       6.61464347       7.07803767      12.14988387
Se       9.35585650      17.29600724      13.47354747
Se       9.60408154      14.97911873      13.77171454
Se      14.27131002      10.53658767      10.25169047
Se       5.17331518       9.38688314       9.43001440
Se       6.33927361       4.94557215      11.18567118
Se      15.85786260       7.01838608      10.91755876
Se      16.40563062      13.84601048      15.23512638
Se      14.07829981       6.48355339       9.47251234
Se      11.36493884      18.33634176      12.72164994
Se      12.72528329      16.96944247      11.39189952
Se      16.17595082       9.38469655      10.97923170
Se      10.50279617      14.69176415      15.95031846
Se       4.73914015       8.36723661      11.51976365
Se      14.11104200      13.79521045      15.79734275
Se      11.07116347      10.67719279      15.23552984
Se       8.93015141      13.35590881      17.08447816
Se      12.99210374      10.17138825      16.53559652
Se       9.34288557      11.02618507      16.82299026
Se      13.96027855      12.11384724      17.46785987
42
Properties=species:S:1:pos:R:3 config_type=qcd gap_pre_relax_energy=-144.17484146540534 gap_pred_energy=-145.65208682034046 gap_fmax_final=0.0009539009209826603 gap_converged=1 pbc="F F F"
Se       8.64481633      10.42014773       5.49561671
Se      10.35738704       8.80457456       5.57183057
Se       9.06346643      11.80099755       7.39925124
Se       7.26950575      11.34883717       8.86670557
Se       9.50533838       6.91740350       6.69833198
Se      14.92072767       9.48070541       7.45323331
Se      14.12908533       6.13624444       8.91942431
Se       8.00185082      15.52751362      10.08180885
Se      16.52541417      10.56470952       8.81057154
Se      12.21296143      17.67968145       8.52124396
Se      16.84184242       9.45776524      10.87813203
Se      12.88367658      10.65151301       7.59550873
Se      14.49040801      17.16257902       8.09537549
Se       7.88864021       9.50262449      10.18773914
Se      10.01546010      14.70142209       9.06043292
Se      10.36464383       7.01262976       8.91334515
Se      11.94803865       5.25459051       9.00010462
Se      11.00556010      16.05228259       7.33527796
Se       8.75204847      17.35402837      11.35447826
Se      14.79740460       8.58220180      11.72765240
Se      12.04228329      10.27429785       9.77695776
Se      14.15360278      13.17302637      11.62437763
Se      10.53501134      13.86418940      14.69986822
Se      15.40867887      16.31857873      10.08968639
Se      15.48600005      13.95081672       9.83270286
Se       8.91617815      10.16673669      12.23357370
Se      10.41459126      16.22565820      14.56770166
Se       8.32940207      16.75769539      13.60837400
Se      12.09359881      12.47210658      10.69041683
Se      14.89938382       6.29439364      11.15592100
Se       8.77036616       7.00589368      14.15498225
Se      12.31007400       7.83627400      14.21998968
Se       7.92063888       9.19272117      14.13286026
Se       9.42608067      13.27086170      18.37968344
Se      13.64339440      10.78371088      16.26266757
Se      13.16574072      13.38566329      18.86550701
Se      10.75523800       6.91803895      15.56601074
Se      14.05624071      12.99982202      16.66877485
Se      11.28564008      14.73866622      18.54010161
Se       8.88760608      12.90174743      16.10635954
Se      11.67926614      10.45896911      14.61889725
Se       9.91867141      10.31364419      15.95448509
43
Properties=species:S:1:pos:R:3 config_type=qcd gap_pre_relax_energy=-146.10947558514928 gap_pred_energy=-148.95217323524528 gap_fmax_final=0.0007490208288851898 gap_converged=1 pbc="F F F"
Se      15.88077175      17.57088123       8.10458506
Se      16.72021404      17.55392108      10.34088831
Se      14.15777440      15.91079634      15.00713086
Se      16.53246288      13.65202724       7.89109063
Se      17.09528969      14.06775781      10.52052811
Se      14.97463950      15.47944596       7.58105762
Se      14.97077758      17.91982153      11.75841448
Se      13.44491848      13.90185191      16.01982094
Se      15.43833187      11.66393974       8.32050956
Se      15.14330950      15.54911541      12.86756923
Se       9.26468266      14.28644809       8.86122620
Se      13.02572747      11.07114253      10.83324445
Se      16.16342382      12.37630040      11.60407505
Se      15.45302369      12.95895305      16.88186590
Se       8.71124263      13.06456391       6.86568549
Se      10.61207260      14.43136641      13.92067801
Se      12.93822006      12.10394224       8.25856700
Se      11.25726678      15.30161339      11.81069339
Se      14.58492519       9.46338352      10.64486879
Se       7.18956935      14.72255467       9.86026023
Se      13.40299094      14.44171237      11.50101116
Se       5.92886547       6.52256270      13.63612026
Se       6.90680386       8.36158148      15.40672279
Se       9.18348435       7.64977141      15.34199254
Se      10.33789679       7.17124147      11.94447457
Se      12.50181615       6.46585636      11.88610804
Se       5.31329882       8.04940297      12.09292076
Se       6.76147937      10.10532908      13.94984527
Se      10.64689382       8.87620690      16.72062340
Se      11.30833073       8.58175087       8.88995497
Se      10.17610940       9.59878409      12.26898028
Se       7.01138934       7.97550466      10.38374563
Se       8.50569789       9.78013829      10.58780849
Se      15.00291141       9.44195758      15.44244379
Se      11.60736061      10.48536801      15.25490067
Se       9.36395222      10.89536129       7.36332392
Se       9.22378408      12.47080078      13.86350245
Se      11.86769518      10.43903363       7.15045508
Se       6.98562465      13.27237458      13.53915843
Se      13.11070159       7.37289118       9.51666555
Se       6.69174502      12.85951216      11.25768041
Se      13.32713249       9.64007841      13.76609104
Se      16.24072058      11.45828195      15.24803993
43
Properties=species:S:1:pos:R:3 config_type=qcd gap_pre_relax_energy=-147.01933473249053 gap_pred_energy=-148.20586411968551 gap_fmax_final=0.0009616115842346994 gap_converged=1 pbc="F F F"
Se      12.94199019      17.43883339      11.52997603
Se       8.60575943      15.11479033      10.29832466
Se       9.44061796      15.44008798       8.15440773
Se       7.24398088      12.31282180       8.21446686
Se      15.73689543      15.07581581      10.73484532
Se      16.19473465      15.05891475       8.39428235
Se      10.49237226      14.31111357      11.51537304
Se       8.46989365      13.58375693       6.83159277
Se      11.19972073      16.27750639      12.63631868
Se      11.91027271      15.92420337      16.21864644
Se      13.94661542      19.06033528      12.92804172
Se       8.36763797       8.71942753      11.49026209
Se      13.88660619      12.36792325      14.46082169
Se      18.34082045      11.90495074       8.17503806
Se       9.20050131      10.26941746       8.11305651
Se      17.57314204      18.10322032      12.41278221
Se      16.18358267      12.78176654       7.79408312
Se      17.78000855      15.87727808      11.61739259
Se      10.50770237      11.62803392       6.86320548
Se      13.40926047      12.06849328      12.12367690
Se       7.08755625      10.20284568      12.84648353
Se      18.15740433      10.78687790      10.25487226
Se      13.15890414      15.48369847      18.17199166
Se       8.29155351      14.62519181      15.99211172
Se      15.78672306      18.01675008      13.96352933
Se       9.93893998      10.09984829      10.43324546
Se      19.28581851      11.89759905      12.02665474
Se      15.23906926      14.30215584      14.26155911
Se      14.69148779      10.28242083      11.26488500
Se       9.35098680      11.04955782      15.78961553
Se      13.32090240       8.50859859      10.50361373
Se       9.68675637      16.19463632      17.04655171
Se      13.34804568       6.65432583      11.97796954
Se       8.37968947      12.61561086      17.25608036
Se      13.75067700      13.20359436      17.94068359
Se       7.59788992       9.62446623      15.06625999
Se      18.11298590      11.65053941      14.07640670
Se      12.68725242       9.00299824      15.05083975
Se      17.51908556      13.83512582      14.72697264
Se      13.33412639       9.55794536      18.70897827
Se      12.42132241      11.68715253      19.19422899
Se      14.03267721       7.26390105      14.16533612
Se      11.81658575       8.56402434      17.20309148
44
Properties=species:S:1:pos:R:3 config_type=qcd gap_pre_relax_energy=-150.09922179851208 gap_pred_energy=-152.45534191914248 gap_fmax_final=0.0007828407120870613 gap_converged=1 pbc="F F F"
Se       7.98556844      13.41143916      17.25336629
Se      10.83920488      19.22997059      11.17930895
Se       4.89927885      12.97136803      10.40909205
Se       9.95015796      18.58094387       9.06447653
Se      11.63520752      17.93389120       7.56322439
Se       8.57008640       9.81729995      15.62808387
Se       8.55812941      14.72183974      15.37254317
Se      12.85462970      18.11914458      11.69430112
Se       6.01779109      12.95761259      12.45553858
Se      10.62690535      15.74078851      15.84661523
Se       8.10157405      11.53401993      12.20818548
Se       6.09612853      11.66799357       8.76699614
Se      10.59303107      11.89139359       7.96623160
Se      11.92438673      15.61551307       8.08249685
Se       9.30401445      11.45463270      17.17308999
Se      10.66995360      10.49824979       5.91709735
Se      10.85231275      11.09017494      12.09662570
Se      12.24228044      14.50103076      14.60377703
Se       7.92670119       6.68577743       8.44924731
Se      10.31292274       8.19576659      15.73681674
Se       8.07164632      10.81521940       9.84779118
Se      13.33952858      10.92968330      12.03452298
Se      12.68338966      15.75417007      11.43873154
Se       9.11443362       7.15164241       6.44494910
Se       9.56399825       9.08065895      11.65205070
Se       8.61526039       9.41250115       5.89335017
Se      13.49955295      11.33680994       9.68450332
Se      10.10147415      14.24257150       7.54432519
Se      14.39205105      13.50978752       9.25497770
Se      12.25798624      12.14042600      14.99114195
Se       9.36106054       6.80501921      10.26276555
Se      12.10538183       8.79225041      14.32025446
Se      14.81202121      14.73289891      11.22584591
Se      15.12356521       8.19778170       8.40953081
Se      17.28994729      11.37554704      14.93717123
Se      11.50425250       7.71465071      12.28436116
Se      16.99667783      10.53996584      12.74837436
Se      13.99688538      12.13512774      16.66740200
Se      14.34995017       6.69076737      10.11083908
Se      15.83312889      10.20118610       9.26550995
Se      16.62716766       6.79980939      13.13130857
Se      16.23804218       5.69306871      11.07531302
Se      18.20297024       8.49583474      12.67368160
Se      15.54371681      10.41812546      16.21853823
45
Properties=species:S:1:pos:R:3 config_type=qcd gap_pre_relax_energy=-153.37195480051903 gap_pred_energy=-155.24134095336834 gap_fmax_final=0.0008264063261141924 gap_converged=1 pbc="F F F"
Se       9.84667836      16.77703685       7.09147978
Se      11.52882603       9.46699676       9.77772348
Se      13.33999666      15.35406473       6.62783214
Se      15.61358587      11.51528780       7.53954435
Se      15.97235400       9.64900736       8.95127522
Se      14.53455427      16.46906089       8.32068623
Se      17.69930189      12.59958919       7.41431554
Se      10.30256356       7.68993813       9.09135387
Se      10.16427920      18.24336010       8.92158459
Se      11.73327253       5.94316397      10.70874088
Se      11.19453216      14.89055287       7.50036299
Se      13.21865922       7.73469753      11.10473285
Se       7.43934493       8.94342095      10.39514751
Se      17.62969827      14.45904044       8.91788514
Se      15.42079985      14.73767071       9.69197046
Se      10.36232121      10.62453424      11.71358002
Se       5.92552211      10.70870206      10.90333249
Se       9.86403818      16.27216216      12.14731984
Se       8.63589614      17.60414763      10.58850732
Se      15.14081491      10.15225994      11.10374475
Se      14.37685016      13.73480101      14.00687160
Se      10.41824077       5.56519749      12.63493365
Se      12.49948120      18.60128914      13.45403535
Se      14.52977115       6.91601793      13.97483296
Se      16.45515698      13.16614357      12.39084196
Se      15.23448621      15.97923592      13.84028112
Se       7.24418626      11.83462194      12.49647538
Se      12.23759166      11.84825808      12.35723506
Se      17.34978270       9.34885366      12.59213088
Se       7.13016464       7.24522607      12.00695628
Se       9.13147210       7.43533995      13.31129840
Se       7.82198512      13.63814070      17.21717098
Se      10.32053773      17.74713666      13.92259646
Se       8.98235126      15.29060378      16.06079457
Se      12.57183029      13.89392979      15.97791898
Se      16.56953401       8.11293283      14.39323319
Se      17.85851080      11.64079783      13.40870335
Se      10.66008243      14.00185746      14.76719570
Se       5.98938040      12.96947700      15.84793218
Se      13.97060469      17.60042867      15.00097773
Se      13.09739189       6.79515962      15.87012294
Se      13.65215854      10.80819244      14.06483120
Se       6.76617436      11.06680109      14.70736121
Se      11.54529948       8.52570007      15.54866866
Se      12.41441894      10.79364609      16.02996390
45
Properties=species:S:1:pos:R:3 config_type=qcd gap_pre_relax_energy=-152.88217501186605 gap_pred_energy=-154.63513102939626 gap_fmax_final=0.0007815585756549892 gap_converged=1 pbc="F F F"
Se      14.40873194      12.68200255      17.09786239
Se      13.99483321      14.86185648      16.42084274
Se      16.57636712       9.83904453      10.27531520
Se      15.23929579       8.64646780       8.04106758
Se       8.90359487      15.85948067      16.13243776
Se      14.72857122       6.77165273       9.31137569
Se       5.82637053      10.12697614       8.04194881
Se       9.39410655      12.01984278      16.63295599
Se      16.54455894      12.60532440      14.75557710
Se      12.89098325      11.28443796      15.89569145
Se       6.27325896      11.13854995      11.93777799
Se      12.65836396      11.80855547       4.63113753
Se       8.86457278       8.57737096       5.91233517
Se      14.78645832      15.36301457      12.61496131
Se      10.71484713      17.60309420      12.52872421
Se       8.15367751       5.65316713       8.11906034
Se      15.79850262      15.20525332      14.60590897
Se      15.75890308       7.57665344      11.57557390
Se       9.89239680      15.70865281      11.31044098
Se       9.45698964       5.92260208      11.89252800
Se      12.36721656       9.75014047       5.71263288
Se       9.86412329       7.19510650       7.47604841
Se      17.36660009      12.57973811      12.67831479
Se      13.96546337       8.09592438      12.90000572
Se      10.71100696      13.06737952       5.18040583
Se      11.36860500      14.59684121       6.80457377
Se       7.67104186       6.25611991      10.34713587
Se      15.33393441      11.42280564      11.29790446
Se       9.23751126      14.14214450      17.71700397
Se      11.43582155       6.50450616      10.75341223
Se      10.90773886      17.10010683      16.07876229
Se      11.18238701      10.66053099      17.38871909
Se      14.88774396      13.41630247       9.88853351
Se       8.55162388      14.32278763      12.72467668
Se       5.34514658      10.53762305      13.85812440
Se      12.09604930      16.49111947      14.09762680
Se       8.08624688      10.37814287       7.32181290
Se       6.03483004       9.32242184      10.23575987
Se       9.73213659      12.35400017      13.23647896
Se      13.24848496       9.89981929       7.92857287
Se       9.85860421      10.70531472      10.15501824
Se       8.92387088      10.33395035      12.14380067
Se      12.71410166      14.13243292      10.40936897
Se      10.92289363      13.45176254       8.93101677
Se      11.95389531       8.66144080      11.63322927
46
Properties=species:S:1:pos:R:3 config_type=qcd gap_pre_relax_energy=-157.40113803231856 gap_pred_energy=-158.917939472613 gap_fmax_final=0.00096629217081778 gap_converged=1 pbc="F F F"
Se      18.34251786      14.31422922      14.99881519
Se      19.34406182      12.69549629      16.41490201
Se      15.99335942      11.58303363      18.17754127
Se      16.52296187      13.59632722      19.28464089
Se      15.17716341      17.92114836      15.39171758
Se      12.03455945      15.87322953      15.74089579
Se      12.74708654      12.49195809      16.61014098
Se      18.34301898      12.49506422      11.81145005
Se      17.70781423      15.84776156      10.17692957
Se      15.72211580      15.31430715      17.81806641
Se      12.17937923      14.53881228      17.67946918
Se      17.70371327      10.96263738      16.63418241
Se      19.34627182      14.11314675      10.39574049
Se      17.74459574      15.85624890      16.73001973
Se      14.05188239      19.53261816      14.13108146
Se      16.61062043      17.07036892      13.57996521
Se      14.02458035       9.34189338      15.62936349
Se      16.20753932       8.59594667      15.21871347
Se      16.60783934       9.74090209      13.22992785
Se      12.74847475      14.32153187      10.19888613
Se      12.17840363      12.27518934       9.12958073
Se       8.43948264       9.99898769      11.75050990
Se       7.66420792      15.57893070      10.66449921
Se      11.12408909      15.92444576       9.67580560
Se       8.44023760      16.80748317      15.06254310
Se       9.73891885      10.61080816      15.18653288
Se      15.72137387      11.49799796       8.99219174
Se      15.99647771      15.22915434       8.63376759
Se       9.74165086      16.20049998      11.62778637
Se       7.66169790      11.22832876      16.15284605
Se      12.03286616      10.94105812      11.06816689
Se      16.52414424      13.21571268       7.52621411
Se      12.52104246      18.19691768      12.94756140
Se      14.02781269      17.47099183      11.18016262
Se      12.51778424       8.61722290      13.86152501
Se      14.04785246       7.28037329      12.67835656
Se      10.32421504       9.38393411      10.49123088
Se      15.17411026       8.89128244      11.41779422
Se      11.12359783      10.88912480      17.13676129
Se      10.32634904      17.43089042      16.31640572
Se      16.21128548      18.21514652      11.59088387
Se      17.74343910      10.95388215      10.08001708
Se       7.20979307      11.59350221      10.46285602
Se       7.21293185      15.21431927      16.35379333
Se       6.90108373      13.58771504      11.68502781
Se       6.89557586      13.21941857      15.13471041
47
Properties=species:S:1:pos:R:3 config_type=qcd gap_pre_relax_energy=-160.46924424349376 gap_pred_energy=-163.46571123606563 gap_fmax_final=0.000929434483725418 gap_converged=1 pbc="F F F"
Se      10.52330550      10.26223311       4.74310675
Se      14.29263132       9.17517406       7.30101673
Se      15.49492687      10.86190421       6.13893535
Se      10.67865717       9.12577073       6.84855036
Se      12.96058152      13.15983177       4.66591872
Se      10.76728601      12.53781906       5.28714873
Se      14.93605639       8.94402013       9.56074005
Se      11.85648667       9.01596026      11.07553109
Se      14.31568511      12.85601829       6.58544324
Se       7.10331586      14.76698878      12.86089901
Se      13.39668775      11.37897541      11.56034888
Se      16.94494603       7.68627067       9.16840228
Se      16.19860672      13.48690493       9.73851889
Se       6.76767821      13.28757785      11.10266208
Se       8.46867604       8.74560950       7.45003532
Se      10.92848654      16.36392269      12.42948541
Se      10.64518818       6.85362765      11.14147800
Se      12.51981429      14.71452910      11.95654149
Se      14.86280909      17.34924177      15.31618325
Se       5.21528403       9.49915599       9.36258115
Se       4.50289971      12.42755253      11.41442042
Se       8.52141888      10.02281662      10.99652040
Se      15.36359196      12.83351448      11.80482789
Se       5.61596369       8.81875327      11.44197128
Se      15.28254038      15.63070643      13.76517409
Se      18.50679795      12.76749484       9.75461594
Se      11.27792520      10.54605825      12.78830819
Se       7.74409280      10.56498121       8.96945050
Se      14.42114856      16.14169036      11.55842756
Se       7.81675241      13.65964393      14.88155566
Se      13.38656292      12.80718075      14.64757606
Se      18.87611014       9.01689094       9.40634010
Se      11.16675570       6.41863386      13.38568167
Se       4.80727172      10.71596177      12.88891833
Se       9.23941369       6.68768761      14.69581910
Se      14.01904442      16.53629007      17.37519140
Se       9.39662690       9.01361636      15.25860883
Se      18.64319011      11.03972431       8.17743511
Se      11.14961252      17.20996363      14.67447671
Se      12.87615752       9.28260889      14.31834248
Se      11.08871395      13.13221646      14.65405372
Se      14.85559610      14.41700979      17.94001740
Se       8.31546538      15.42462835      16.33873683
Se      10.73033013      15.66666619      16.35175627
Se      10.30882306       9.49081058      17.32332080
Se      12.64525725       9.64780947      16.57917031
Se      13.34098901      12.78371448      17.09191749
47
Properties=species:S:1:pos:R:3 config_type=qcd gap_pre_relax_energy=-160.32265389527927 gap_pred_energy=-162.10890944271645 gap_fmax_final=0.0009929942993931477 gap_converged=1 pbc="F F F"
Se      13.10832389       6.04020335      12.30097562
Se      13.27572360       7.50532746      10.58662827
Se       7.14578555       7.71196037       8.74821672
Se       8.98905148       8.16578629      10.15802286
Se      16.03620929       6.96826365      10.35167267
Se      12.78458292      11.47660929       6.77067491
Se      14.88573716      10.40753533       6.83126440
Se      12.83686929       7.32228308      14.30358396
Se      15.89938541       5.65490186      12.19039388
Se      10.59216566       7.55101179      14.98214183
Se       8.12896522       8.29446529      12.34586307
Se      12.79628597      12.97943614       4.95269896
Se      12.94152549      13.13414160      10.06014455
Se       8.09673191      10.60209713      12.88765611
Se      15.59527960      10.88591908      10.62016661
Se       6.22977863       9.72743171       7.90670535
Se      17.06143135       9.05546531      10.96748042
Se      16.15147291      11.60522975       8.43076595
Se      10.23450333       9.04996076      16.78149818
Se      14.57204224      10.63540815      16.42629831
Se       7.90923611      11.18442173       7.10298900
Se      10.19440110      11.24385734      15.86266540
Se      13.03259952      12.26589189      13.64481545
Se       9.81401522      16.49391580      15.72893927
Se      13.11716650      17.42262466      14.27262927
Se      10.87780758      15.70321804      11.97854409
Se      11.64856562      15.51381447      14.12377099
Se      17.94531211      14.46705053      15.34319897
Se      10.76384102      15.86933693       8.58506952
Se      15.17924759      17.08124253      13.20105905
Se      10.93257294      16.03619377      17.65645014
Se      16.19909362      14.00936916      16.86185254
Se      10.19853334      13.90028947      18.48316685
Se       5.91372174      13.82521986      12.44877681
Se      11.33141772      16.16914704       6.32592302
Se      12.64687425      15.42748261      10.16320586
Se       5.90812653      11.50790662      12.94249863
Se      14.61670926      10.54583646      14.03332578
Se       7.68284293      14.34245027       9.18552248
Se      17.38143689      13.77058270      13.15330560
Se      15.43771392      14.85516096      12.35313809
Se      11.61703957      12.31910033      17.47086702
Se      16.42140613      11.72471567      17.42468350
Se       8.79097588      12.25708124       9.00595606
Se      11.75495839      11.84721216      11.68138966
Se       5.53839103      13.96161861      10.12775976
Se      13.38434962      15.08202881       5.83585153
48
Properties=species:S:1:pos:R:3 config_type=qcd gap_pre_relax_energy=-164.6073463107087 gap_pred_energy=-165.91636748115002 gap_fmax_final=0.0008571649306735238 gap_converged=1 pbc="F F F"
Se      11.43690640      14.10113571       7.73985771
Se      11.27419732       6.84409000       7.55023214
Se      16.25394857       9.65798849       8.88051113
Se      15.55694618       7.92083023      10.33056534
Se       9.33006459      14.55122839       6.74853712
Se      11.27050142      14.75859956       9.97909886
Se      12.24215466       6.17132232       9.59668591
Se       9.00491471       7.26418836       8.06375538
Se      11.73349984      17.13457857       9.94104333
Se       6.03296448      16.51708586      10.52846722
Se       7.73355906      12.87471773       7.23694210
Se      13.21213196       8.07211277      10.59646775
Se       8.29930617      17.14853356      10.71677716
Se       8.77689924       9.61129958       8.14680665
Se      15.73351271      11.72794023       9.87504722
Se       9.63311317       4.92952928      11.96112232
Se       8.27092010      13.42662432      13.86913607
Se       5.66770400      13.68257414       8.06755519
Se      17.70552201      16.85397935       9.61084134
Se      17.66280819      12.29599399      11.11841544
Se      13.98485308      17.64661630       9.65101911
Se      18.16413541      14.96375358       8.43233875
Se      19.32114222      13.45650192       9.89551369
Se       6.01237893      14.15823895      10.35299002
Se       8.00482945       6.48638864      12.65755262
Se      16.69934570      14.37132693      13.81939151
Se      12.47755386       8.77150873      14.19973905
Se       9.89844756      15.06801721      13.38503673
Se       9.86017794      10.48512743      10.08074546
Se      10.59077838       3.99800852      13.91311593
Se      15.45405601      16.06355701      10.79945006
Se       8.25442541      10.32472464      11.79231266
Se       8.24852196      12.99815261      16.18198155
Se       8.96961886       8.57403975      13.21154763
Se      14.65532236      13.29741391      14.11170800
Se      14.72739991       9.52812726      14.31572369
Se      12.42629124       6.85941111      15.59527233
Se       8.75460924      17.10391063      13.05875277
Se      17.58341132      15.17148836      16.00670757
Se      12.70936669       5.00331483      14.15658720
Se       9.68116272      11.13887098      16.51767401
Se      15.87287725      16.76629460      12.90693689
Se      11.63525603      11.81602620      17.68540185
Se      14.74754443      11.46219799      15.64770682
Se      12.66425283      15.36847658      17.11654159
Se      11.43708641      13.98880594      18.59586735
Se      16.24439337      14.24543472      17.65795192
Se      14.65113681      15.90186235      18.25851801
48
Properties=species:S:1:pos:R:3 config_type=qcd gap_pre_relax_energy=-164.60283121919895 gap_pred_energy=-166.10955027851605 gap_fmax_final=0.0009843590392450642 gap_converged=1 pbc="F F F"
Se      16.70604304      12.19691077       6.65305719
Se      14.38263845      15.10749408       6.14867481
Se      14.54853716      12.98505338       7.18984592
Se      11.75825394       9.42692121       7.40001019
Se      18.10904874      12.79081866       8.46228660
Se       8.53313081      12.05082125       7.47021686
Se       7.85257350      14.22199590       8.11433540
Se       6.69736076      10.57305678       7.48966619
Se      10.91700201       7.28799075       7.94196221
Se      14.27354294      16.64599317       7.93649440
Se      19.12373317      14.91905913       8.17886477
Se      13.75823863      10.68400436      10.02949970
Se      12.07468201      16.95584336       8.76978467
Se       6.67402139       9.58270251       9.63974389
Se      11.66296297      15.18405151      10.25944383
Se      14.51400809       8.41706179      10.19851865
Se      13.61411408       7.62986611      12.23417377
Se      11.57811399      10.98899103       9.23269397
Se       8.01593264      14.28253656      10.46703753
Se       9.69979407       7.34858607       9.97241719
Se       5.95697809      13.62725667      11.51799551
Se      19.07598602      16.25061291      10.12433568
Se       7.42670368       7.36719585       9.33740459
Se      16.81608287      16.73772389      10.64052250
Se      10.63771971      11.94876111      11.79184272
Se       9.11439181       8.49705461      14.27791375
Se      15.24260009      13.42813269      11.76623890
Se      12.11673759      16.05640604      12.42407757
Se      11.27085521       7.28634310      14.78050639
Se       6.93487705      10.85981014      13.80978951
Se      15.41107413       7.65261675      13.78346289
Se      17.00991415      11.85401036      11.81036495
Se      12.13773427      11.06823123      13.18807815
Se       6.25372328      13.17035499      13.79883344
Se      16.25806314      15.44754080      12.52196733
Se      10.12874432      16.81411236      13.39127299
Se       9.02452261      14.72280651      13.89312212
Se      15.28619100       9.81216817      14.74419930
Se      11.16977148       5.83932726      16.63419568
Se       5.95913402      10.30195927      15.90422165
Se       9.94265013      10.34863431      15.27017848
Se      17.18011639      11.00334792      14.02040029
Se      12.69088363      13.04273169      14.50843498
Se       9.91574303       6.71278981      18.44677811
Se       9.49508746      14.48087408      16.16786768
Se       7.69180592       9.77884127      17.45435802
Se      11.40990518      13.05454661      16.47547500
Se       7.81919800       7.42697789      17.59836073
49
Properties=species:S:1:pos:R:3 config_type=qcd gap_pre_relax_energy=-167.32895298161716 gap_pred_energy=-169.10653028230675 gap_fmax_final=0.0008826224560121042 gap_converged=1 pbc="F F F"
Se      13.13655321      11.41668960       5.71901890
Se      15.42735984       7.63912088      10.06093874
Se      11.07670117      12.91847315       8.69270432
Se      12.49157193      11.15333374       7.97221852
Se       8.97385216      11.81377131       8.61077569
Se      14.95977651       9.36347994      11.69802659
Se      10.56232995       8.26116461       8.68968552
Se      14.88869253      12.99629204       5.87972266
Se      15.43589520      16.89582813       9.10561759
Se      13.54561049       6.24063028       9.90864798
Se      13.90117887      15.11366010       6.17987818
Se       8.73040241      16.17218928      10.85954114
Se      12.36904230       6.88819112       7.96648502
Se      16.65791099       9.95417571      13.09109415
Se      11.55279633      13.37717184      12.31747434
Se       8.58477100      10.52981045      10.55794673
Se       7.94992123      12.41997589      11.94599129
Se       8.72289423       6.77574741       8.78737160
Se      13.70821650      15.38975704       8.55281610
Se      10.82101630      17.15972652      11.30794513
Se      15.96914784      14.82917026      13.02613185
Se      17.44807924      15.69825794       9.46599734
Se      12.44347782      15.54390000      11.85139276
Se       7.69027437      15.81367515      12.96921578
Se       6.99493517      11.74266595      13.99605075
Se      11.78102812       9.18887522      12.87411440
Se       8.40366919       5.82786744      10.94710267
Se      17.24110707      14.07247929      11.17384611
Se       9.78716425      18.69467403      14.51688601
Se       7.63740146      17.73700666      14.35486282
Se       8.45620791      12.08649368      15.83119864
Se      14.28378888       7.34427002      14.39914179
Se      16.16673722       8.26740179      15.04553470
Se      14.72192763      18.27985560      14.95007284
Se      15.37761733      18.40750386      17.20982500
Se      11.60808727      13.50323109      14.69798777
Se       9.60269053      14.17529271      15.72582050
Se      15.91392941      13.22809382      14.77301224
Se       8.48636622       7.45775946      12.61425397
Se      17.45701237      17.31068326      17.39048673
Se      10.75018137       7.36665581      13.60291517
Se      17.78744092      13.77987767      16.11695228
Se      11.02089891      17.49827920      16.14441767
Se      12.97278396      16.66964550      15.07284896
Se      15.28278000      10.18953113      16.68809707
Se      16.99699308      15.04687959      17.93922329
Se      11.33678006      10.22451783      15.81200803
Se       9.89935223       8.56302961      16.02222945
Se      13.30276069       9.29035098      17.20158683
49
Properties=species:S:1:pos:R:3 config_type=qcd gap_pre_relax_energy=-167.10239896752105 gap_pred_energy=-169.1175043478983 gap_fmax_final=0.0008441946264192848 gap_converged=1 pbc="F F F"
Se      13.94451930       6.30480248       6.43443865
Se      10.01563608      12.61156218       8.47666857
Se      13.30217790       8.48910497       5.91458331
Se      13.04880918      12.95749722       8.55344608
Se       7.66491725      12.65554870       8.68005647
Se      16.92877285       9.73492358       7.40034321
Se      15.34439601      13.56076797       8.82723171
Se      12.37952065      17.21244870       8.24329973
Se      14.53155184       9.92042091       7.41354809
Se       7.37792298      15.24998431       9.35095648
Se      12.17814521       5.32154917       7.72625941
Se      11.39654160      14.70188395       8.68687343
Se       7.21008584      11.59073933      10.74555966
Se      11.77832613      10.33057742      10.54705187
Se      17.32630608       7.96341894       8.89086294
Se      12.39133590      11.41953189      12.58524957
Se      15.42492496      14.65908394      10.93963225
Se      12.96758687      17.50559909      10.39414305
Se      18.27274349       8.92469692      10.83845667
Se      13.07714207       4.96405143       9.83326881
Se       6.55542897      14.99764356      11.43631390
Se       7.20776230       9.24919395      10.32615430
Se      13.44092746       8.77742400      10.35082482
Se      15.33891720      16.94896595      10.48315131
Se      11.89687762       6.76664201      11.08866057
Se      16.53671463       9.14120286      12.43429102
Se      15.67614181      15.38627184      15.73893866
Se       8.41387891      15.48053052      12.98589302
Se      17.46066747      12.43962583      13.96307944
Se       9.62033619      13.48884990      13.03611359
Se      12.02896587      10.19370817      14.56498250
Se       8.97702259       8.55208865      11.72647722
Se      16.02928100      11.45878938      12.34462672
Se      14.33135248      18.06513710      15.25173205
Se       7.40771193      10.74442518      14.32045132
Se      13.50133138       8.36109554      14.33442601
Se      13.80388800      16.12984692      17.04662362
Se       9.02051856      12.30512213      15.03796367
Se       8.61622085       8.73402278      14.07565493
Se      16.11771470      13.02274025      15.82313612
Se      10.87641104      16.80994546      15.09426428
Se      12.40088526      18.27399624      13.98786788
Se      10.31976012      13.51094350      19.40106046
Se      12.31592635       6.52828580      13.39035101
Se       9.51731296      15.70420616      19.82362450
Se       9.53414554      17.84741909      16.75435991
Se      11.60766926      13.38204268      17.41364199
Se      13.75161035      13.89585779      18.22049348
Se      10.77034100      17.36286763      18.69999568
50
Properties=species:S:1:pos:R:3 config_type=qcd gap_pre_relax_energy=-171.6465405145987 gap_pred_energy=-175.9145156171076 gap_fmax_final=0.0009434073435388124 gap_converged=1 pbc="F F F"
Se      12.31089571      15.59401554      17.92635047
Se      13.59280388      17.46541894      17.24455735
Se      13.00450357      12.29598840      16.56767988
Se       7.69901226      14.55497728      16.70608481
Se      11.47991867      10.88044533      17.83768054
Se      16.98197126       9.55829041      15.90044294
Se      15.76117508      17.46961700      18.21970883
Se       7.87666421      16.37278296      15.21150734
Se      10.97226135      18.28602788      13.67219866
Se      12.06104369      14.37161245      15.88281495
Se      10.58970545       9.18118809      16.52996203
Se      10.30855486      12.89356309      13.54370425
Se      16.36148146      11.87993210      15.86540396
Se       8.28468708       9.65907147      16.48264216
Se      15.02413833       8.34706532      16.23753769
Se       6.20848642      13.02652828      15.71979125
Se      17.42270186      18.14421735      16.68542724
Se      14.35387169       7.66363501      13.96827800
Se       9.88400493      16.16220388      13.89008721
Se      11.12804304       9.55959812      13.70620629
Se      12.99685630      10.74181528      13.72354337
Se      12.22416987       6.96395775      13.78968024
Se      18.45154482      16.12300036      16.00619752
Se       9.79868121      13.50367628      10.14603395
Se      13.33543557      18.04882695      13.60812721
Se      11.97422698      13.98354327      12.55752486
Se      13.82489756      17.85629885      11.30315501
Se      12.29649527      15.40112672       7.20879857
Se       7.66715676      11.33367585      14.90808324
Se      17.88966255      13.47138979      13.07201567
Se      15.74714264      12.66564098      13.72088022
Se      13.16985647       9.04373367      10.85543614
Se       8.76048050      14.07670496       8.12499867
Se      14.24263467       8.66500800       8.67817444
Se      12.13732121       6.89457810      10.94943263
Se      14.02695887      12.24559301      10.85890610
Se      12.81623375      11.83825013       8.89801422
Se      17.66636774      15.73306740      13.80668767
Se      14.56619009      15.57364038      11.08417849
Se      16.87945423      15.94480801      10.53211974
Se      15.95843041      10.25087214       9.12404341
Se       7.56556114      10.08610303       9.69451425
Se       8.61968911      11.54061913      11.16259140
Se      18.13682055      13.13941256       8.10127444
Se      10.32860189      14.44815001       6.35009934
Se      16.88269622      15.13714138       8.30138707
Se      16.62180799      11.50418061       7.25728948
Se       9.81155432       6.99240798      10.58615647
Se      13.80622209      13.59239202       7.59863727
Se       9.19326818       8.53655031       8.89629681
51
Properties=species:S:1:pos:R:3 config_type=qcd gap_pre_relax_energy=-173.90444911448785 gap_pred_energy=-176.29061996501363 gap_fmax_final=0.000805256884134039 gap_converged=1 pbc="F F F"
Se      16.03455006      11.95241091      11.08973650
Se      17.40988007      13.67214184      11.48347328
Se      18.69610816      13.10129017      14.69459214
Se      20.55717358      15.62977824      11.27436606
Se      18.39697994      15.41425487      14.33855095
Se      20.56903533      16.08598136      13.58376869
Se      17.29202794      12.67508532      19.57385949
Se      19.72677537      12.58106011      16.78069040
Se      15.77635975      15.53808746      18.05348489
Se      15.61857526      11.73424585      20.96469246
Se      15.99495128      11.19708760      13.47714988
Se      16.92957918      14.10075740       7.19831432
Se      17.45274083      16.94523849       9.64538674
Se      19.69742248      17.52021350      10.16433222
Se      15.26399400      14.57767366      13.43438948
Se      14.35981670      16.83235540      13.05600868
Se      16.23400078      18.01988700      13.80669918
Se      18.15732034      11.23298295      17.90539166
Se      14.44877734       9.53005605      13.82479021
Se      12.67586348      11.78851608      18.59700467
Se      17.41377526      16.42192641       7.34727436
Se      17.19130988      17.18934042      17.14881087
Se      13.51590636      16.22196260      18.33628397
Se      14.23353773      10.34782614      19.65723032
Se      13.93405163       9.59347719       9.05994696
Se      15.97242050      18.86120450      15.99791081
Se      10.22234312       8.70392678      17.18840284
Se      13.53820786      13.42087400       8.68915139
Se      11.60211756      16.57350758      11.15213462
Se      12.44143124      16.49671700      16.26539882
Se      13.68160442      13.57135908      12.15772822
Se      10.67435518      11.53776941      19.83915613
Se      14.65300344      13.94319250       6.62655538
Se      11.29527786      15.50196389      13.26832114
Se      12.51589925       8.74573219      10.77736705
Se      12.40673871      10.15008187      12.63515171
Se       9.48485022       9.56792145      19.25687370
Se      11.25301310      14.33414807      16.47735992
Se      10.08936649      14.77564120       8.26277712
Se      12.62268794      11.32474656       8.13112628
Se       9.75504946      17.03876589      14.30058853
Se       8.28765365      13.10878724       9.26816420
Se       8.48607746       9.19905669      15.65014454
Se       9.09880797      14.50257525      17.48074788
Se       9.71677684      16.53671063       9.66884434
Se       9.04021655      11.06420763      14.33362963
Se       9.84566014      11.38961866      10.51051606
Se       7.79053563      15.74044565      14.04250970
Se       7.47185769      14.29199751      10.95372517
Se       7.50462689      14.11963082      15.78373758
Se       8.23281701      10.85968979      12.04965772
52
Properties=species:S:1:pos:R:3 config_type=qcd gap_pre_relax_energy=-177.6365484143779 gap_pred_energy=-180.11152323149713 gap_fmax_final=0.0008618665236023022 gap_converged=1 pbc="F F F"
Se      19.16711194       9.80571623      16.69715600
Se      19.23620839      10.21735062      14.26191381
Se      18.93166989       8.19314415      13.17003221
Se      17.67572928      11.13914654      17.76657273
Se      17.02242154      12.32212490      11.01668588
Se      15.94146939       9.23436101      12.57218316
Se      15.60087440       9.87072740      16.61203774
Se      16.06884584      11.80151029       8.96538102
Se      18.45932174       6.40087103      14.73983289
Se      15.64476407      14.18725309      14.13050192
Se      13.36635722      19.25127141      13.24119649
Se      15.88157996      13.94474870       7.96461243
Se      16.29298680       5.61522344      14.42088358
Se      16.30390588      10.85619453      14.04047511
Se      14.70265431      16.32624984      17.90460295
Se      13.87733901       8.51735782      15.22464182
Se      12.57919403      11.09085491       6.33489292
Se      16.43147682      14.46000332      11.91732562
Se      11.11375707      19.75602118      13.73264666
Se      12.80282611      15.90922159      19.22510362
Se      12.53074695      13.40554594       5.83248643
Se      13.50709056      17.35766774      11.81997986
Se      13.94329207      11.78130730      17.05113948
Se      13.56240078      14.34629819       7.73818719
Se      13.95252396      16.91942867      15.73008711
Se      14.92935917       6.65146313      16.11762633
Se      12.57648347      14.14701899      11.15648286
Se      14.07836351      18.49516498       9.78622791
Se      13.43780106      15.00758020      14.43354593
Se      12.47860801      17.89418089      20.48826870
Se      13.28527877      10.20313895      12.31135503
Se      12.70305011      11.81040043      15.15818230
Se      11.25155879      20.17158080      17.69884594
Se       7.86435935      12.44246383       7.58445749
Se      11.07102346      10.60427992       8.07715677
Se      11.01298153      18.69624862      15.84936611
Se      13.24607674      11.89076388      10.19353608
Se      10.25664922      14.48134572      11.01316126
Se       8.97542298      12.70503699      14.11561308
Se      11.78476876       8.43910423      11.80116270
Se      10.35267412      17.59140253       8.89988639
Se       8.96830358      10.46704423       6.93696366
Se      12.56595964      17.84592632       8.09093704
Se      10.56512900      18.92725425      19.59138813
Se      10.06626704      11.45868005      15.78572368
Se       9.98154455      15.26869211       8.77979612
Se       9.72748000       8.67595055      12.97306051
Se       6.34076134      11.99683587       9.35107128
Se      10.13415649       9.13869904      15.24540017
Se       6.61900352      12.58670909      14.37196876
Se       7.26783877      10.65783990      11.07766131
Se       5.76443216      10.93747779      12.90247900
53
Properties=species:S:1:pos:R:3 config_type=qcd gap_pre_relax_energy=-179.99333244302287 gap_pred_energy=-182.46201055383895 gap_fmax_final=0.0005362725301297206 gap_converged=1 pbc="F F F"
Se       8.48329727       6.21068363       8.05244087
Se       7.26813172       9.06958051       5.90580886
Se       5.62688130       8.38187948       9.35443470
Se      12.26298941       9.34323446       7.51874769
Se      13.47990248       3.76572591      11.78839414
Se      12.39575323       5.84956925       8.71936446
Se       9.27864131       6.97903515      10.12446854
Se      13.05454866       7.20381455       6.89174663
Se      14.13709437       5.45219285      10.28782922
Se      12.94661958       4.86097788      13.84746563
Se       9.14674537       7.69207921       6.31403295
Se      11.89550038      14.12679546       6.60191315
Se       7.59962193      11.18311465       6.89738805
Se      10.23237783       7.44144616      13.50311707
Se       6.31836054      10.73157717       8.88269159
Se      14.03307524      10.68607217       8.37528407
Se       7.23998101       8.07458597      10.98160083
Se      13.66912479      11.94506810      11.88330791
Se      15.52334633      15.34280637       9.58206608
Se      13.15832003      12.48373630       9.64896766
Se      14.81828958       8.10787023      14.25484674
Se      11.09013965       9.57484919      12.79274670
Se      14.90143844       5.53292603      14.83208848
Se       8.00360977      11.28372140      11.97541769
Se      15.85359679      12.92304080      12.05014644
Se      10.19362406       7.28489980      15.86644987
Se      17.61637593      11.51733071      11.37035969
Se      13.07051693      16.17238540       6.91093048
Se       6.65738583      13.47439912       8.64890441
Se       6.58524920      14.26443036      14.13464984
Se      12.18136497       8.27379566      16.74781542
Se      15.36513818      16.34911538      11.70849205
Se       8.77844153      14.11025376       8.80345457
Se      13.13881746      16.38607877       9.30157664
Se       9.64931502      11.13677516      13.78459567
Se       9.64220631      14.53665412       6.39237423
Se      15.13813141       9.08260261      16.19690712
Se      17.02595763       8.13158355      12.84958103
Se       8.21896221      13.81599223      15.77487320
Se      11.28907663      10.49958811      16.84363264
Se      12.31159274      14.97912494      13.55240669
Se       7.69214459      13.63978361      12.12028168
Se      17.91488121      10.18920914      13.33485200
Se       8.20472430      16.73525509       9.23821983
Se      11.24363937      18.17773745       8.96544774
Se      13.17674358      17.11866956      12.11258279
Se      10.57281232      18.74690373      11.05135344
Se       9.43799702      15.78031909      16.27100360
Se      12.71863091      12.17807463      17.69161679
Se      14.29592588      12.57703315      15.96925753
Se       8.69129074      17.03662935      11.41986780
Se      10.64144267      16.51858971      14.39918967
Se      13.90669758      14.81687619      15.24948070
54
Properties=species:S:1:pos:R:3 config_type=qcd gap_pre_relax_energy=-184.70034653216334 gap_pred_energy=-187.72200218248202 gap_fmax_final=0.0009783446302222558 gap_converged=1 pbc="F F F"
Se       6.72497360      12.90265438       9.60804608
Se       8.98540582       8.95756376       9.99642594
Se       9.69268206      15.80592766      11.06202198
Se       9.03919597      13.89717444       6.89885370
Se       8.48046662      12.02729281       8.18853923
Se       7.55784026      13.34854141      11.74007070
Se       9.15021932       7.26307803      11.61876259
Se       7.48206211      11.05314749      12.57795635
Se      11.51209891      10.44394607       7.96346305
Se      10.77432586       8.30188565       8.51895535
Se       8.99625816      16.73702180      13.06729879
Se      11.00836232      12.93923494      11.95199635
Se       7.87026383       7.42119365      16.08862056
Se      10.72755088      19.01596783       9.05842826
Se      10.73353631      15.23295633       7.95884290
Se      10.60347734      17.50877338       7.22666914
Se       9.30769292      14.80690517      14.33245150
Se       9.06520504      11.37689622      14.28685890
Se      10.46399538       8.03171521      13.44702325
Se      13.70203138      14.77498308      10.63667443
Se       7.60599185      11.26610710      16.14247300
Se      11.83055434      17.96059895      10.91093579
Se      15.18807318       8.22554139      10.09259671
Se      13.02122112      11.49973020       9.55563395
Se      10.11352028       6.94162651      15.51124688
Se       7.94544668       9.31502293      17.47802891
Se      11.06080831      18.54329603      12.99146556
Se      11.50067656      13.88389905      14.15964583
Se      16.30600809       8.78668492      12.09151999
Se      14.39735589      14.28172176      12.89167552
Se      11.70499631      11.03156386      16.82129863
Se      18.53361567      16.48921368      10.79641170
Se      14.95206309      10.26573389       8.90302355
Se      12.13611798      11.02480104      12.88533416
Se      15.40486695       9.46027532      17.05184304
Se      15.44748319      15.21080073       9.14202351
Se      14.94423290      17.18208265      16.69931855
Se      12.68901291      17.01860762      15.98864774
Se      10.52746054      14.68654437      17.73031006
Se      14.31639804      11.98073517      12.64964989
Se      17.46944838      14.48094264      10.20170031
Se      12.09245409      12.95302577      18.14888378
Se      18.63169568       8.66499661      11.63487705
Se      17.16853821       9.49099171      15.49825547
Se      16.87455197      14.38836759      15.17125901
Se      17.59749791      17.24570051      12.85182794
Se      13.63150782      10.27608985      15.65863160
Se      19.25752865      10.70486655      10.65638556
Se      15.72897721      15.06281724      17.26316773
Se      11.37653928      16.87560735      17.95501449
Se      18.50730383      11.47656356      15.64379045
Se      20.43199498      11.49442354      14.25050366
Se      19.51391723      12.43123864      12.28952942
Se      18.65160785      15.99003302      14.49224255
55
Properties=species:S:1:pos:R:3 config_type=qcd gap_pre_relax_energy=-187.3315487984714 gap_pred_energy=-190.5746626381277 gap_fmax_final=0.0007956263133162796 gap_converged=1 pbc="F F F"
Se       8.01185397      11.25462055      14.19835171
Se      11.41289071      11.12431760      14.93950118
Se      17.54559321       7.60675186      11.12853205
Se      12.66957334       8.76686851      10.88748664
Se       8.13245418       9.06348044      11.43953593
Se      17.52767856       9.05093143       9.26102548
Se      15.68826726      10.16627637      16.10536579
Se      17.91357942       8.99208792      13.00667342
Se      16.73976504      13.07908316      13.41657370
Se       8.88676648      11.38694896       8.18472483
Se      19.29059238      16.17311283      13.14631583
Se      15.22582269      13.89272644      11.74440215
Se      15.07313264      16.08842765       7.77723295
Se      13.27251816      15.15337332       9.01127790
Se       9.82839685      13.45996124       7.94601026
Se       8.47687891      14.81891043      11.14234116
Se       9.80840776      16.66315591      13.67347992
Se      14.56275634      12.28954907      16.02819475
Se       7.49428299       7.61841591       9.68740746
Se      11.60755970      10.16880139      18.76603399
Se      14.62231442       7.31054202       7.18903858
Se      12.33385227      12.34820865      19.34865022
Se      13.65062544      17.31016403      19.60644113
Se      10.68887600      15.33491945      11.66569869
Se      17.96870516      17.43836001      11.64532250
Se      12.51987980      18.65186923      15.35125546
Se      11.20364008      10.35427930       9.87064093
Se       9.56641975       7.10664443       6.54572903
Se      11.81530880      15.81706998      19.60885495
Se      11.39502365       7.76870798      12.64875942
Se      16.83674284      15.00117924       8.91329141
Se      12.24074551      13.41546990       7.79724496
Se      10.81332984      15.75836388      17.49580594
Se      14.71860555      19.15214564      16.04432030
Se       7.23383937      14.87575544      13.16087915
Se      15.27399656       9.14630550       8.54579806
Se      12.99863047      14.95228351      14.54149382
Se      17.72033407      14.95900031      14.44034982
Se      10.34344516      11.84434864      11.72678604
Se       8.27750300      11.35244938      10.80150519
Se      10.19723011      10.57795918      16.90450787
Se       9.42750556       6.53097228       8.82556004
Se      11.15152597       8.86132866       6.41154149
Se      13.26364431      13.14516789      12.94636299
Se       8.88377924      13.39161826      14.21247085
Se       9.39528288      18.60883655      15.16453554
Se      12.31947665       8.89943361      14.48223735
Se      18.48337358      16.58615797       9.50966232
Se      15.53981418      16.93912170      16.35132024
Se      15.75388893       9.06684002      14.00557983
Se       9.21158855      17.53234779      17.21100355
Se      15.42070082      16.13277434      18.59697763
Se      12.48182700      17.03683265      13.55407631
Se      14.49854478      12.56853439      18.43008253
Se      13.10914547       7.93412355       5.48366506
