3
Properties=species:S:1:pos:R:3 config_type=qcd gap_pre_relax_energy=-10.871940195674727 gap_pred_energy=-10.873215931554471 gap_fmax_final=0.0003523836832413839 gap_converged=1 pbc="F F F"
Si       7.50856721       8.08404619       8.83591502
Si       9.78677792       7.97228732       8.75672555
Si       8.73026438       9.96927601       8.43296895
4
Properties=species:S:1:pos:R:3 config_type=qcd gap_pre_relax_energy=-15.23759465254627 gap_pred_energy=-16.779889956175815 gap_fmax_final=0.00021152829772713532 gap_converged=1 pbc="F F F"
Si       9.93210483       9.45965942       9.80805086
Si       9.54490634       8.44737385       7.66705407
Si       8.23762400       7.77800405       9.56482118
Si       7.92040355       9.95000138       8.59511259
5
Properties=species:S:1:pos:R:3 config_type=qcd gap_pre_relax_energy=-20.346567275680997 gap_pred_energy=-21.809442786162805 gap_fmax_final=0.0007447270702198654 gap_converged=1 pbc="F F F"
Si       8.12117071       8.94303168       7.57218897
Si       7.57393956       7.57138666       5.70296982
Si       6.11720929       7.36409964       7.57613108
Si       7.57585940       7.57834327       9.44703045
Si       8.48682103       6.41813874       7.57667968
6
Properties=species:S:1:pos:R:3 config_type=qcd gap_pre_relax_energy=-26.350355003979562 gap_pred_energy=-26.992276640185796 gap_fmax_final=0.0006634617937406857 gap_converged=1 pbc="F F F"
Si       9.00117885      10.46527840      10.00573337
Si      10.49102206       9.57662587       8.26818641
Si       9.96689339       8.22078668      10.24713063
Si       9.05832973       7.59422850       8.05383803
Si       7.56851795       8.48293064       9.79132778
Si       8.09265746       9.83874936       7.81238321
7
Properties=species:S:1:pos:R:3 config_type=qcd gap_pre_relax_energy=-31.373677838771453 gap_pred_energy=-31.49156221559785 gap_fmax_final=0.0006035823196360371 gap_converged=1 pbc="F F F"
Si       8.61975884       6.46342705       8.52336045
Si      10.51297296       7.97837374       8.52299727
Si       8.52417251       8.52340533       9.88433576
Si       6.59396152       7.79577447       8.52389863
Si       8.52338091       8.52414432       7.16320611
Si       7.23501628      10.13416211       8.52478636
Si       9.65713205      10.24710804       8.52381050
8
Properties=species:S:1:pos:R:3 config_type=qcd gap_pre_relax_energy=-35.31101130739857 gap_pred_energy=-35.792803780834035 gap_fmax_final=0.0001618989521435574 gap_converged=1 pbc="F F F"
Si      10.35145302       8.02538999       8.67092430
Si      12.12029756       9.33901986       9.59598092
Si      10.14204687       9.33883462      10.93622028
Si       8.53579910       9.33883462       7.74162569
Si       8.32644115      10.65244746      10.00701076
Si       6.55754841       9.33901986       9.08186505
Si       8.32639295       8.02538999      10.00692167
Si      10.35140482      10.65244746       8.67083521
9
Properties=species:S:1:pos:R:3 config_type=qcd gap_pre_relax_energy=-40.73735742152183 gap_pred_energy=-40.7726760855325 gap_fmax_final=0.0007795163998257818 gap_converged=1 pbc="F F F"
Si       9.44689571       7.09534325      10.64197056
Si      11.88937632       9.42186380       8.80211179
Si      10.04058699       7.96789629       8.52118451
Si      10.47083035       9.23078678      10.68975172
Si       7.86574512       8.75789890       9.99008479
Si       9.90867067      10.70270410       8.44650561
Si       7.46072188      10.90810579       8.81518828
Si       8.85948977      10.99458202      10.77234985
Si       8.19740488       9.06054074       7.46057459
9
Properties=species:S:1:pos:R:3 config_type=qcd gap_pre_relax_energy=-39.95542084681909 gap_pred_energy=-40.67555734711498 gap_fmax_final=0.0008659689530613424 gap_converged=1 pbc="F F F"
Si      11.19952093       7.47923280       8.75971993
Si       9.85658523       8.90401114      10.12870227
Si       9.85667770       8.90367466       7.39031827
Si      10.24687429      10.87684689       8.75924106
Si       8.92871133       6.79961247       8.75984239
Si       7.41230441       8.09272938      10.10502521
Si       5.88258244       9.43538449       8.75941120
Si       7.41220040       8.09239896       7.41402704
Si       8.04004328      10.25160922       8.75921262
10
Properties=species:S:1:pos:R:3 config_type=qcd gap_pre_relax_energy=-46.15372826499862 gap_pred_energy=-46.22690069649167 gap_fmax_final=0.0005502681312585625 gap_converged=1 pbc="F F F"
Si       7.05113012       7.57030281       7.69273326
Si      10.07377182      10.26056251       7.49933611
Si       9.18648818       8.11629045       6.68055755
Si       7.64961093       9.88765543       7.29945914
Si       9.02015429       6.18111581       8.19153830
Si       8.62720618      10.14081163       9.49849787
Si      10.32493664       8.18425756       8.81461422
Si       7.96590294       7.58103707       9.93291424
Si       6.31449805       9.29940708       9.28128686
Si       9.72568931       8.71794810      11.04845090
10
Properties=species:S:1:pos:R:3 config_type=qcd gap_pre_relax_energy=-45.47602964081972 gap_pred_energy=-45.47664853987186 gap_fmax_final=0.0009149271884760088 gap_converged=1 pbc="F F F"
Si       8.17724986       8.45264800       8.75941958
Si       9.31440425       8.60018452      11.08586605
Si      10.75778740       8.27958060       8.95467486
Si       9.28047779       6.62200450       9.78216599
Si      12.01130286      10.15251561       8.22325043
Si       7.30759564      10.46803242       7.86692378
Si       9.67544544      10.38941420       7.90389415
Si       8.23190862      10.71050320      10.03503817
Si      10.81280400      10.53729757      10.23071384
Si       9.38036913      10.73716438      12.10739816
11
Properties=species:S:1:pos:R:3 config_type=qcd gap_pre_relax_energy=-50.50784301411903 gap_pred_energy=-50.69476136387647 gap_fmax_final=0.0008451034729843357 gap_converged=1 pbc="F F F"
Si      10.49722963      10.84115437       8.50926567
Si       8.73646173       9.77064917       7.24375695
Si       8.73666708       9.77072625       9.77512826
Si       6.65538572       9.72846395       8.50961356
Si       6.85753695       8.50943956      10.66638909
Si       6.65557080       7.29025756       8.50968902
Si       8.73664254       7.24830509       7.24384274
Si       6.85718438       8.50930710       6.35288014
Si       8.73684957       7.24838263       9.77519791
Si      10.63740141       8.50962282       8.50932630
Si      10.49757019       6.17819150       8.50941033
11
Properties=species:S:1:pos:R:3 config_type=qcd gap_pre_relax_energy=-50.686403115946575 gap_pred_energy=-50.86916803760113 gap_fmax_final=0.0007336880161321589 gap_converged=1 pbc="F F F"
Si       9.79733000       7.79923421      11.16902005
Si       9.62441187      10.13194989      10.36933840
Si      11.52015529      10.56005715       9.00776418
Si      10.96843982       8.25531022       9.01730248
Si       9.62398227      10.12079864       7.65034688
Si       5.82697064       9.29533595       9.01385657
Si       7.62713553      10.90671229       9.00695791
Si       7.71638414       8.65862358       7.70718225
Si       7.71679899       8.66936129      10.32510500
Si       8.94124606       6.98051602       9.02285463
Si       9.79664539       7.78160077       6.86977164
12
Properties=species:S:1:pos:R:3 config_type=qcd gap_pre_relax_energy=-54.64743246739278 gap_pred_energy=-55.88406875846187 gap_fmax_final=0.0004891570988769816 gap_converged=1 pbc="F F F"
Si      11.19984052      11.83284396      11.09229306
Si       9.14080799      11.50127791       9.89955486
Si      11.44620747      10.22036724       9.32836493
Si      10.17003975       9.76362674      11.57668976
Si       7.85488462       9.63346466      10.75451310
Si       9.02327118       7.64187508      11.70560285
Si       7.98265794      10.09529139       8.37877253
Si      10.83164801       7.97957017      10.01692251
Si      10.02004422      11.26983643       7.59250255
Si       8.12311896       8.09729389       7.05175702
Si       8.47766621       7.70877100       9.35396017
Si      10.28823527       8.81420368       7.80748881
12
Properties=species:S:1:pos:R:3 config_type=qcd gap_pre_relax_energy=-54.488960503212475 gap_pred_energy=-55.50926798825555 gap_fmax_final=0.0008877392794676575 gap_converged=1 pbc="F F F"
Si       9.18788264      10.62276931      11.30604938
Si       9.35151983       9.41076708       7.33831170
Si      11.78344505       9.44048630       8.08424811
Si       9.58995063       8.17627841      11.38769234
Si       8.73603851       7.80790500       9.07051875
Si      11.15106023       7.53805508       9.70948788
Si      10.42676903       7.23559126       7.41200253
Si      11.24075216       9.76604288      10.52676548
Si       7.62795543       9.95024343       8.81432460
Si       6.81432548      10.38099501      11.04079201
Si       9.90203924      11.06346169       8.99614830
Si       7.80914906      12.22829186       9.93454623
13
Properties=species:S:1:pos:R:3 config_type=qcd gap_pre_relax_energy=-60.138636636902405 gap_pred_energy=-60.48396663790409 gap_fmax_final=0.0008213658442437792 gap_converged=1 pbc="F F F"
Si      12.03924464       9.15491197       7.99487133
Si       8.41701272      10.91666436       8.76002361
Si       9.66002539      12.96069739       8.87594963
Si      11.09758279      11.07045629       9.08018066
Si       9.70180653       8.78797620       8.59031987
Si      11.43645512       7.59748310       9.74991339
Si       9.12352661       7.20542403      10.35445866
Si       9.20526779      12.87756481      11.35455750
Si      12.47248582       9.70075419      10.50910705
Si       8.69563022       9.46441595      11.02371562
Si       7.26599795      11.35989827      10.81294247
Si      10.64964545      10.86394345      11.47562225
Si      10.73396362       8.53845464      11.91698262
13
Properties=species:S:1:pos:R:3 config_type=qcd gap_pre_relax_energy=-59.85815806847582 gap_pred_energy=-60.10066596260795 gap_fmax_final=0.0008014336977051148 gap_converged=1 pbc="F F F"
Si      10.60406418      10.09591794      12.05477855
Si      10.25489611       7.72596547       9.42652329
Si      13.01762009       9.88193345      11.60102442
Si      11.57131668       7.86620775      11.64236840
Si       8.97630003       9.65972226      10.33295681
Si       8.67063337      11.48629601      12.14649550
Si      12.49917795       8.68442524       9.54610788
Si       7.01929083      11.04011059      10.19108529
Si      10.73182920       9.93157060       8.52059672
Si       8.71370550      11.38155009       8.47970902
Si       8.52875652      13.14094289      10.14864849
Si      10.46413767      11.73104472      10.29103764
Si      12.68664138      11.11268250       9.35703749
14
Properties=species:S:1:pos:R:3 config_type=qcd gap_pre_relax_energy=-64.83012817969605 gap_pred_energy=-64.90344744665283 gap_fmax_final=0.0008578257254297551 gap_converged=1 pbc="F F F"
Si       8.88429033      10.06486349       7.61242076
Si       8.88549132       7.70462324       7.61289800
Si       6.70337445      11.04246403       7.73352063
Si       7.70671104      10.47561732       9.79385318
Si       6.10377468       8.88349135       8.58677137
Si       6.33594492       8.88407822      10.94044209
Si       7.70825243       7.29343822       9.79447511
Si       6.70558403       6.72483107       7.73431964
Si      11.06421881      11.04470607       7.73307126
Si      10.06190344      10.47692833       9.79363065
Si      11.43440372       8.88675077      10.94000440
Si      10.06344684       7.29474483       9.79428838
Si      11.06642951       6.72707609       7.73400998
Si      11.66617447       8.88638695       8.58629453
14
Properties=species:S:1:pos:R:3 config_type=qcd gap_pre_relax_energy=-64.9222320010352 gap_pred_energy=-65.21943141561435 gap_fmax_final=0.0008823301970862249 gap_converged=1 pbc="F F F"
Si      10.80673246      10.44583822       7.18572177
Si       8.54161616       9.87600671       7.85693595
Si      11.54879500      10.88379560       9.41747592
Si      10.36443453       8.56829093       8.71629014
Si       9.47849835      11.93374912       8.79511328
Si       8.05010188       8.03768871       9.36855700
Si       7.81191706      10.47792373      10.11468175
Si       9.32962765       8.94531000      11.17468474
Si      13.24773398      10.43349542      11.02081818
Si       8.10492230      12.82679882      10.56078577
Si      11.90970950       8.49686381      10.58924933
Si       9.86263766      11.38350219      11.18853422
Si      10.99855227       8.46873027      12.80188276
Si      11.62966039      10.90694562      12.89420836
15
Properties=species:S:1:pos:R:3 config_type=qcd gap_pre_relax_energy=-69.43191043158615 gap_pred_energy=-69.61199084102711 gap_fmax_final=0.0009943229773116927 gap_converged=1 pbc="F F F"
Si      10.10185965       9.55217391       5.87020512
Si       9.53908838       8.34659773       8.46392345
Si       7.67733629      10.36087927       5.67808490
Si       9.95459782       7.00632905       6.55520385
Si       6.17686221       8.26680151       6.25629734
Si       8.92410052      10.58610504       7.99484677
Si       8.33909073       8.06338430       4.75436191
Si       7.71771723       6.80954434       7.31156778
Si       7.03497087       9.18290835       8.26574057
Si      10.18424459       7.61515036      10.73621709
Si       5.77123962       9.09357119      10.38946712
Si       7.97343327       8.38514332      10.74931351
Si       6.96945582       4.90919254       8.70556240
Si       8.62171047       6.12074421       9.83821407
Si       6.23370801       6.92089037       9.65040960
15
Properties=species:S:1:pos:R:3 config_type=qcd gap_pre_relax_energy=-69.60642455577224 gap_pred_energy=-69.73580476349818 gap_fmax_final=0.0009097859888961047 gap_converged=1 pbc="F F F"
Si       9.73019487       9.01112859       6.45942230
Si       7.43779387       9.41763325       7.12072183
Si       8.44226608       7.24958992       7.50568316
Si      10.81352853       7.38696935       7.85755165
Si       9.04941763      11.19643230       7.18324357
Si      10.56579458       9.80589598       8.76205481
Si       6.78650436       8.10154544       9.02077293
Si       8.21928623      10.22197136       9.43844027
Si       9.97078644      12.09385135       9.82877309
Si       9.24848359       8.00387026       9.83239030
Si      11.73762919       8.28652646      10.50771573
Si      11.34430860      10.58243538      11.09073359
Si       7.70926263       8.99830070      11.66764665
Si       9.05158326      10.98753783      11.75132870
Si      10.05697093       8.82012263      12.13733225
16
Properties=species:S:1:pos:R:3 config_type=qcd gap_pre_relax_energy=-74.01983953452063 gap_pred_energy=-75.19964775669663 gap_fmax_final=0.0009241354275182505 gap_converged=1 pbc="F F F"
Si       7.23999394      11.96967679       9.45843087
Si       7.13485140       8.14993577       7.49662140
Si       7.50680957       9.65924223       9.33780031
Si       9.18635161      11.33225323      10.72221136
Si       9.15590197      11.46546787       8.09203244
Si       9.36017982       9.14516247       7.41670849
Si      11.27387035      10.45598917       8.01704922
Si       7.07654997       6.23991390       9.16899537
Si      11.30431042      10.32336866      10.64649650
Si      12.88185350       9.14297551       9.25063125
Si      10.96874704      12.44015559       9.43912070
Si      10.80137707       8.01218909       9.21617064
Si       9.17142227       6.69943403      10.38099774
Si       7.17515404       7.97096059      11.02466013
Si       9.40322163       8.95573968      11.15416265
Si       9.14366660       6.82179660       7.96217212
16
Properties=species:S:1:pos:R:3 config_type=qcd gap_pre_relax_energy=-74.03950612977937 gap_pred_energy=-74.54715119599504 gap_fmax_final=0.0008601003283275466 gap_converged=1 pbc="F F F"
Si      15.75341648      14.65713121      13.21595584
Si      14.79033644      13.00567831      16.95140956
Si      18.19051575      16.77461510      14.45796947
Si      11.53561018      14.08643575      13.47342498
Si      13.62155886      15.51350936      13.58405692
Si      10.96734342      14.64669057      15.81741144
Si      15.95687180      13.04809157      14.94588605
Si      15.69908620      16.59894828      14.63954970
Si      13.21478966      13.70085181      15.26766668
Si      13.03540775      15.97997270      15.89564393
Si      11.38563598      16.45583434      14.16509839
Si      18.45427475      13.24233905      14.80403559
Si      15.94262215      15.08633487      16.70634938
Si      14.89010461      17.18279773      16.79641516
Si      18.42781539      15.18737431      16.39702514
Si      18.13461057      14.83339504      12.88210178
16
Properties=species:S:1:pos:R:3 config_type=qcd gap_pre_relax_energy=-74.26841901710335 gap_pred_energy=-75.76527201753592 gap_fmax_final=0.0008338736113151527 gap_converged=1 pbc="F F F"
Si      10.01926985      14.01079235      10.07842683
Si      11.65589678      12.81283842      11.43235518
Si      11.17591412      12.06339415       9.12792716
Si       9.31450223      12.63129479      12.02002139
Si      10.92494923       8.80058426      11.70774862
Si       8.76823699      11.80129438       9.82088154
Si      10.86393913      10.96307103      12.72463405
Si      12.45908628      10.55114210      10.97770709
Si      13.11912533      10.66242349       8.71130978
Si       8.74342423      10.19873208      11.78798844
Si       8.81688184       7.84750121      11.01334080
Si      11.61539949       8.83494402       9.23816450
Si      10.94287346       6.74376735      10.34794752
Si       9.83315948      10.25399935       8.34286252
Si       7.89503052       9.53313752       9.60083978
Si       9.46512169       7.90389410       8.68065541
17
Properties=species:S:1:pos:R:3 config_type=qcd gap_pre_relax_energy=-79.0739741263994 gap_pred_energy=-79.25568294977208 gap_fmax_final=0.0006928595002447907 gap_converged=1 pbc="F F F"
Si       8.27948170       8.62975877      10.92398849
Si      11.80524699      10.91603148      11.73425138
Si       5.90205927      11.61855203       9.63669352
Si       6.67728805      10.28846247      11.58198605
Si      10.68292557       8.93050227      10.87181289
Si       8.17439049      10.73001787       9.63762975
Si       6.67721959      10.28425147       7.69425259
Si      11.80485979      10.91201504       7.54042978
Si      10.57506026      11.08385680       9.63727483
Si       8.27934926       8.62698657       8.35578055
Si       5.59613722       9.14257782       9.63935470
Si      12.02697486       7.30651699       9.64079642
Si       7.01346272       7.08338208       9.64163298
Si      13.27248789       9.10127189      10.84005616
Si      13.27225907       9.09895672       8.43782034
Si      10.68276890       8.92805913       8.40689752
Si      13.13564825      11.17642048       9.63696192
17
Properties=species:S:1:pos:R:3 config_type=qcd gap_pre_relax_energy=-79.17345037892002 gap_pred_energy=-79.727215428466 gap_fmax_final=0.0009285017864677661 gap_converged=1 pbc="F F F"
Si      12.34247293      10.31870857      12.82214357
Si       7.91674038       7.77639312       8.87727040
Si      12.58018348      12.22817628       9.03425295
Si       6.24846757      10.00782876      11.62694283
Si      10.17800270      10.11116835      11.60366713
Si       6.67087649       9.88885831       9.28819431
Si      12.09657847       8.60295458      11.05907644
Si      11.65036459      12.04306707      11.26506021
Si      10.14642093      11.29325005       9.38376716
Si       8.15625076       8.69810868      11.15899163
Si       7.72649652      12.01502946       8.65132815
Si       8.04013294      11.39992424      11.00736466
Si      14.01459832       8.68043523       9.68437007
Si      10.08701893       8.78558208       9.57268266
Si       8.63806580       9.88821869       7.92956402
Si      12.24243021       9.82709257       8.64695055
Si      13.60802515      10.77833013      10.73149943
18
Properties=species:S:1:pos:R:3 config_type=qcd gap_pre_relax_energy=-83.64093063061169 gap_pred_energy=-85.00194367470327 gap_fmax_final=0.0007121414770152013 gap_converged=1 pbc="F F F"
Si      12.24307592       9.58470197      10.48464673
Si       8.62782497      11.19272117      12.76984565
Si      10.26360275       9.58629932      12.03781125
Si       9.91869766      10.02500656       9.65162087
Si       9.24536613      12.38975870       9.58360072
Si      10.90157985      11.97232154      12.43258363
Si       8.85511604      13.46858522      11.76356858
Si       7.23488352      11.89056482      10.94132674
Si      12.57437432      10.12325865      12.85209855
Si      14.78354748      10.84451684      13.63814339
Si      14.50555070       9.66367907      11.41731899
Si      11.53725875      11.93528807       9.99975811
Si      13.17962575      12.50727372      12.82964800
Si       8.00024938       9.56521109      11.10370482
Si       7.69009679      10.65247393       8.84006704
Si      13.83253489      11.20801682       9.69085467
Si      15.20391296      12.01448146      11.49090932
Si      13.54003006      13.51316896      10.60982082
18
Properties=species:S:1:pos:R:3 config_type=qcd gap_pre_relax_energy=-83.51532941274546 gap_pred_energy=-83.83228604364022 gap_fmax_final=0.0009545734767593126 gap_converged=1 pbc="F F F"
Si      10.60853067       9.89239466       9.98808566
Si      11.76959503      13.83720013      10.33345184
Si       8.28349103       8.78450795      12.28776179
Si      15.02636408      10.66049365       9.26026873
Si      12.94780236       9.67481827      10.10814018
Si      15.43290140      11.63595180      11.52963247
Si      10.35517315      12.15279359       9.40419154
Si       8.54741895       8.74593109       9.79182810
Si      10.21094025      10.35600508      12.31300098
Si      13.29613580      12.05823765      10.33488967
Si       6.77984254      10.76058944      12.02116600
Si      13.28109645      10.69135735      12.26972616
Si      15.00433243       9.18445738      11.34367184
Si       8.10698515      12.79299979       9.42987115
Si      10.92194995      12.70998458      12.28433482
Si      11.70535552      11.21906225      13.96367728
Si       8.66810918      12.22294950      11.70879724
Si       7.07890510      10.64519494       9.65243360
18
Properties=species:S:1:pos:R:3 config_type=qcd gap_pre_relax_energy=-83.77186866596195 gap_pred_energy=-84.24388740641358 gap_fmax_final=0.0007074316927471881 gap_converged=1 pbc="F F F"
Si      17.29734103      14.59502353      17.72981588
Si      16.55700208      15.04170807      15.42304389
Si      16.09958149      16.67012605      17.28750284
Si      17.22680500      14.93175685      13.11562175
Si      15.29002291      15.23895446      19.03415348
Si      16.00807411      12.85625571      18.93438423
Si      14.07867170      15.28553598      11.29117773
Si      13.77235559      15.93880561      17.34090117
Si      15.22682456      13.68524373      13.06088815
Si      15.65256734      16.68685523      12.92478640
Si      13.95927444      13.56702555      17.77475123
Si      15.93603086      12.97472759      16.48012150
Si      13.65095791      13.00004986      11.43651598
Si      14.69624833      16.62211973      15.15747796
Si      14.32988674      17.59501123      11.17460335
Si      14.16906330      14.21822552      15.36845200
Si      13.19511939      16.75207557      13.15348459
Si      12.85417321      14.34049972      13.31231785
19
Properties=species:S:1:pos:R:3 config_type=qcd gap_pre_relax_energy=-88.97041880058644 gap_pred_energy=-89.12866732549695 gap_fmax_final=0.0008133954328918165 gap_converged=1 pbc="F F F"
Si      12.90853323       7.27485795      10.28232106
Si       6.08347988       8.97079087      10.28513420
Si      12.70222839      12.44653903      10.25254600
Si       6.26706407      11.07030475      11.44130788
Si       8.82050747      10.81828405       8.98788481
Si       7.42503655       8.99927957       8.16744651
Si      13.59267833      11.51499486      12.37473304
Si      11.07733536       8.78960758      10.32191813
Si       8.62879043       8.71238423      10.26238900
Si       7.73606164      12.64023074      10.19997191
Si      13.14499188       9.23924896       8.92924983
Si       7.46723007       9.09187593      12.36798247
Si      11.34504723      10.90344755      11.53450268
Si      13.44449679      11.48197165       8.07921279
Si      11.26250812      10.88159043       9.07672602
Si      14.54258359      10.84514270      10.19754672
Si      13.25986950       9.26179009      11.58217276
Si       6.24002880      11.02444325       9.04195577
Si       8.87223212      10.85391928      11.43570189
19
Properties=species:S:1:pos:R:3 config_type=qcd gap_pre_relax_energy=-88.79112658586767 gap_pred_energy=-89.11084882271369 gap_fmax_final=0.0009955021124284065 gap_converged=1 pbc="F F F"
Si      10.35226855      11.31269097       6.62136615
Si      10.55969253       8.75961083       6.64722201
Si       9.05151551      10.21263842       8.26145759
Si      12.55041222      10.31121705       6.63935612
Si      12.35101275      12.63930792       7.33374069
Si      10.56836540      12.03450521       8.94838979
Si      10.49149219       8.58209653       9.27005131
Si      12.74798337       8.53780382       8.19043113
Si      12.77090811      10.90207922       9.01984315
Si       6.98968010      10.97437425       9.28041580
Si      11.08192387      10.42983474      10.66845640
Si       9.04212534       7.45536552      10.76951483
Si       8.79810154      11.60957748      10.68491712
Si       7.30572137       9.14020730      10.71737859
Si       6.73804779       6.76464843      11.19309027
Si       8.92095197       9.17506139      12.46351064
Si      10.03922274      11.25718558      12.66852312
Si       8.45991663       6.82035366      13.05959167
Si       6.61625692       8.51704057      12.99834251
20
Properties=species:S:1:pos:R:3 config_type=qcd gap_pre_relax_energy=-93.34224831439553 gap_pred_energy=-93.92843295882642 gap_fmax_final=0.0009684453208979497 gap_converged=1 pbc="F F F"
Si       8.21785103      11.87414868       8.57602811
Si      10.02245392      11.68911765      10.36663795
Si      10.67072467      11.84462579       7.88462508
Si       7.84723403      10.11083595      10.33985467
Si       8.80711730      10.34120854       6.66269528
Si      11.79190414       9.99417467       9.39187198
Si       7.89879579       8.91185615       8.30721184
Si       9.87003196       8.87419123      10.21311765
Si      10.54859943       9.03703863       7.61373330
Si       6.16792299       8.29189872       9.78763818
Si       5.04743820       8.44092135       7.53386294
Si       7.12725692       8.52237976       6.11054509
Si       7.62785412       6.44573940       9.47559242
Si       9.63742738       6.49445094      10.98030862
Si      10.26235492       6.58605146       8.77872785
Si       8.30614771       6.60873523       6.87614432
Si      10.79172093       6.77171349       6.55815679
Si       4.92930354       6.17335301       8.69210179
Si       5.57683724       6.32864535       6.20987187
Si       7.03777794       4.84566819       7.82802843
20
Properties=species:S:1:pos:R:3 config_type=qcd gap_pre_relax_energy=-93.55742271192355 gap_pred_energy=-93.90597885090051 gap_fmax_final=0.0009113135448458365 gap_converged=1 pbc="F F F"
Si      11.25361891       7.47092102       8.09475181
Si      11.12173633       9.78689601       7.90039939
Si      11.25945912      11.06128939       9.88569853
Si      10.57706607       9.32599854      11.63153387
Si      10.20088289       7.32413317      10.17575598
Si       9.52323794       6.48248567       6.58454641
Si       8.91819248       5.13853424      10.22723220
Si       9.27142199      10.49692910       6.31547866
Si       7.81949110       5.96381142       8.09748009
Si       8.77196579       8.48914091       8.20190762
Si       8.41292100       8.23949124       5.53627268
Si       8.92594683      10.97490680       9.06439116
Si       7.64280297      11.93838904       7.23806743
Si       8.35279133       9.45438215      10.70168382
Si       7.50392248       6.86534162      10.71759710
Si       5.52315786       6.43890679       7.22064937
Si       6.69732901       9.70190414       7.11922214
Si       6.06183801       8.09225481       5.34934210
Si       6.13637025       8.18823338       8.76730394
Si       6.07127717       8.61148007      11.21611522
21
Properties=species:S:1:pos:R:3 config_type=qcd gap_pre_relax_energy=-97.87237651092823 gap_pred_energy=-98.12441591160405 gap_fmax_final=0.0009211286473722189 gap_converged=1 pbc="F F F"
Si      12.79936979       7.71120364      12.99994462
Si      14.82394817       8.54070559      14.19580792
Si      12.67828233       9.86266773      11.77906859
Si      14.68492941      10.61160458      12.88567584
Si      12.76050442       9.90283089      14.15282648
Si      14.73556209       8.49751700      11.63984568
Si      11.02056907      11.07632078      15.21964036
Si      12.41513257      12.96230783      14.64805067
Si      10.86573766      11.00061273      10.79829034
Si      10.57823284      11.83254155      13.00817842
Si      14.07431523      12.85590022      12.86800832
Si      12.29424161      12.90316714      11.20609128
Si      11.03723364      14.90756081      10.72556890
Si      10.68186323      14.18706053      12.96446157
Si      11.19306390      14.98335032      15.14689890
Si      13.25673210      18.09405383      12.80761274
Si      15.20371980      17.13426689      14.03439450
Si      12.94383676      15.91809866      11.66690737
Si      14.87966230      15.03680554      12.80156927
Si      13.02833706      15.95832541      14.04060118
Si      15.11265010      17.09102243      11.47848111
21
Properties=species:S:1:pos:R:3 config_type=qcd gap_pre_relax_energy=-98.33640927806277 gap_pred_energy=-98.61317073052896 gap_fmax_final=0.0009739697863657541 gap_converged=1 pbc="F F F"
Si       8.64642355      11.47443535      10.42693884
Si      12.27143174      11.94875906       8.62685751
Si       9.53746018      14.79875114      13.02171210
Si      10.10352566      12.77193022       9.13597920
Si       7.31744867      12.25552460      12.12049051
Si       9.73278141      12.45707774      12.59519929
Si       9.26115751      14.99547209       9.16216400
Si      11.93386305      12.53734443      10.89839736
Si      11.82238821      11.31619099      12.91858771
Si      10.72969286      14.58612453      10.98248819
Si       8.10686475      14.36281656      11.17466131
Si       9.50134514       9.28507803      10.19257095
Si      13.49776260       8.41593667      10.47625807
Si       9.60057078       7.56312910      11.88771185
Si      11.65776128       9.72006896       9.20972865
Si      10.60171941       6.45662903       9.88487206
Si       9.99076874       8.12177277       8.12762128
Si      12.93942983       5.87137779      10.04029823
Si      11.93525503       7.03558804      11.90771836
Si      12.29495728       7.55365294       8.42618058
Si      11.39615681       9.35110445      11.66232845
22
Properties=species:S:1:pos:R:3 config_type=qcd gap_pre_relax_energy=-103.46925362325796 gap_pred_energy=-103.69286859701278 gap_fmax_final=0.0007890000403043262 gap_converged=1 pbc="F F F"
Si      13.62460678      11.33691494      12.28015965
Si      13.46768957       8.28757900      12.12853970
Si      11.78068151       8.54028521      13.93365096
Si      13.83613351       9.75891423      14.09262315
Si      11.41379852       7.01298360      12.09506337
Si      11.59900857      10.89578054      13.52709012
Si      11.56201762      11.02058322      11.05643165
Si      10.06206194       9.27640001      12.22956998
Si      11.72777309       8.71824373      10.40944094
Si      13.77940950       9.94978203      10.31248528
Si      14.06281207      13.69552664      12.39274778
Si      10.50814123      12.69858898      14.60317398
Si      12.18992232      14.20482283      13.82404959
Si       9.94826202      13.47230147      12.44335673
Si      12.14854839      14.34394183      11.07735693
Si      10.44217229      12.92118707      10.20069569
Si      12.63445102      16.71313759      11.34238262
Si      14.73135882      16.33884056      12.51646628
Si      14.42121234      14.90036585      14.52552749
Si      12.67153261      16.58935662      13.78505035
Si      10.74452315      15.92905826      12.55607406
Si      14.35854377      15.11006641      10.38272431
22
Properties=species:S:1:pos:R:3 config_type=qcd gap_pre_relax_energy=-103.47680333387292 gap_pred_energy=-103.92826938295333 gap_fmax_final=0.000850105972890691 gap_converged=1 pbc="F F F"
Si      10.59896112       9.47222171      12.68596414
Si      12.23895534       8.89220998      10.86364456
Si      14.36732855      10.08692456      14.51558310
Si      11.99948603       7.23493913      12.59985960
Si      12.05477508      11.21040115      11.43699885
Si      12.12827748      11.16143950      13.91421600
Si      12.34303349       8.82240902      14.38316536
Si      14.25316446      10.16382710      10.66221626
Si      14.13413405      11.56331570      12.62288381
Si      14.02981837       8.55435630      12.56594997
Si      14.11216998      13.92841212      12.66977553
Si      10.87056496      12.91905187      14.91822793
Si      12.50293408      14.54065753      11.04580848
Si      10.74121182      13.00397236      10.57928682
Si      10.69670539      13.90801732      12.77068228
Si      12.60191576      14.47629652      14.40751823
Si      12.42375064      16.89427722      10.66128560
Si      13.43331621      17.49314608      12.75733131
Si      12.54822821      16.81381588      14.88494772
Si      11.41191669      16.19626418      12.79239206
Si      14.84946592      15.86189897      14.02763917
Si      14.77032210      15.91258154      11.34505896
22
Properties=species:S:1:pos:R:3 config_type=qcd gap_pre_relax_energy=-102.9505786059059 gap_pred_energy=-103.25217342361192 gap_fmax_final=0.0008552651862647768 gap_converged=1 pbc="F F F"
Si      13.59521359      11.23051091      11.82675253
Si       9.49440807      10.22301139      11.87830838
Si      11.26912670      11.08569920      13.21942307
Si      13.36320296      10.51260771       9.56347726
Si      11.23544938      11.06586786      10.48230779
Si      13.41007900      10.52087107      14.09732791
Si       9.91633868      17.27989168      11.81771495
Si      11.13887380      13.56284369      13.08350832
Si      12.97062927      15.14630593      13.69242908
Si      10.67839911      15.85622558      13.62578129
Si      12.22193060      16.59058529      11.79999190
Si      13.20518284      13.65582945      11.81984491
Si       9.28030390      14.70107234      11.85651310
Si      12.92649827      15.10838046       9.92268163
Si      11.10997844      13.53673437      10.60912587
Si      10.63551145      15.81413057      10.02346171
Si      12.94897758       8.47288019      13.03292528
Si      12.92589762       8.46677099      10.64160861
Si      11.65434390       6.35846391      10.58583991
Si      11.68019876       6.36340291      13.12393402
Si      13.86063690       6.52560565      11.83325427
Si      10.87325948       8.31674916      11.85822853
23
Properties=species:S:1:pos:R:3 config_type=qcd gap_pre_relax_energy=-107.55559314062204 gap_pred_energy=-108.0792364589163 gap_fmax_final=0.00097300910944112 gap_converged=1 pbc="F F F"
Si      13.03312596       7.08052691      12.96683834
Si      10.69692259       9.53001856      11.93789907
Si      12.89847390       7.12847004      10.56139344
Si      12.71083987       9.70801556      10.61977762
Si      10.88794661       6.95006755      11.87710057
Si      12.84588257       9.66132698      13.02901063
Si       9.45106841      11.51220206      12.04644703
Si      13.05323491      11.83175197       9.68915463
Si      13.29435002      11.74751826      13.99831762
Si      11.10544807      12.48157562      13.44608722
Si      13.55904762      12.69972189      11.84003709
Si      10.94145704      12.53967500      10.51078070
Si      11.73645742      14.37937860      11.97549352
Si      12.50670992      16.37190396      10.21915467
Si       9.58670158      16.11214821      12.13022351
Si      12.70245588      16.30213355      13.71230302
Si      10.55445857      14.90352694      14.24002096
Si      14.19948093      15.22744571      11.85393096
Si      10.31042829      14.98998468       9.87957928
Si      11.48231584      17.84949906      12.05880156
Si      11.08940949       8.23083242      13.99180921
Si      14.58917370       8.54017660      11.70093726
Si      10.85424368       8.31173275       9.80453495
23
Properties=species:S:1:pos:R:3 config_type=qcd gap_pre_relax_energy=-108.36000620259985 gap_pred_energy=-109.04905954450875 gap_fmax_final=0.0007972049795181576 gap_converged=1 pbc="F F F"
Si      11.58136636      12.16386488       6.77969498
Si      13.06724789      11.54138695       8.55313925
Si      11.29093808      13.62425210       8.62789494
Si      10.58273594      10.65555614       8.29951515
Si      10.92849950       8.19348514       8.38214049
Si      13.44523203      13.64762800       9.57559192
Si      12.75719583       9.43390552       9.54675068
Si       9.15103817      13.95261163       9.65815657
Si       9.12501764      11.59045092       9.84650235
Si      11.30442368      10.65961914      11.05737124
Si       7.75519127       9.95412551      11.04878996
Si      10.23205323      13.25703604      11.61617342
Si      12.49811468      12.68145327      11.54445097
Si       9.72752497       8.31103315      10.66665768
Si       9.20197805      11.03408765      12.67370271
Si       9.23556743      13.13934695      13.74870105
Si      12.85702741       9.03571339      11.87588860
Si      13.51701967      13.14795885      13.61231000
Si      11.13048954       7.41036336      12.64304594
Si      10.80317625       9.64833128      13.64400600
Si      11.42494327      12.51807460      14.50840969
Si      13.24533390      10.78512605      13.44267144
Si      11.98273216      10.45943643      15.49328188
24
Properties=species:S:1:pos:R:3 config_type=qcd gap_pre_relax_energy=-112.37836095677031 gap_pred_energy=-113.04844522619501 gap_fmax_final=0.0007931515649441172 gap_converged=1 pbc="F F F"
Si      14.91541844      11.46669391      13.33671860
Si      14.05427423       8.48259989      13.30647102
Si      12.95783871      11.45025826      14.72852727
Si      12.62118336       9.13552041      15.23200084
Si      12.76433539      11.53098488      12.26973283
Si      14.60405111       9.98312962      11.43331486
Si      14.89778049       9.86062639      15.16453496
Si      11.77842816       7.70464109      13.46013782
Si      10.98201225      10.22544304      13.60554635
Si      12.34121897       9.25221901      11.67534112
Si      12.25593709      13.66687133      11.45550345
Si      16.11990495      13.47466124      13.30839036
Si      12.59299151      13.52591327      15.74931070
Si      11.98675868      14.52138825      13.66704549
Si      14.65234085      14.37798080      14.93292200
Si      14.42182381      14.47433855      11.99480058
Si      13.74681289      16.25877583      13.58596542
Si      15.83069176      18.07939200      13.48240865
Si      12.67450156      18.23543610      11.97921013
Si      12.94757829      18.12111414      15.46527649
Si      11.25316526      17.01233956      13.80605978
Si      15.20416297      16.81020911      15.68306906
Si      14.86295910      16.95302669      11.32811181
Si      13.87424045      19.73684692      13.69001070
24
Properties=species:S:1:pos:R:3 config_type=qcd gap_pre_relax_energy=-112.66936484447038 gap_pred_energy=-112.90799177978343 gap_fmax_final=0.000844679832260006 gap_converged=1 pbc="F F F"
Si       9.58188906      14.12231449      11.37139631
Si      11.51921926      15.19333065      10.41507334
Si      11.27049629      15.12229388      12.77263529
Si      10.96705302      17.28620057      11.61287264
Si       9.01610242      16.13053588      12.65941495
Si       9.28445089      16.20719963      10.11566109
Si      13.06364951      14.17625878      13.97173112
Si      12.04894270      12.12772769      13.25855861
Si      10.51908878      11.98367561      11.40585310
Si      10.06033892       9.68977968      11.28845363
Si      12.11600767       8.90476565      10.25557974
Si      11.86054147       8.83183204      12.67844781
Si      10.85563559       6.49853088      12.48463302
Si       9.02394158       7.27686523      11.10656344
Si      11.10742294       6.57040149      10.09661155
Si      13.04820337       6.98880149      11.52219356
Si       9.94857318       8.54635596       9.13881399
Si       9.51027013       8.42124565      13.29572389
Si      13.39935416      10.21492786      13.83558206
Si      14.04635037      11.08289775      11.75069398
Si      13.82458079      13.59711509      11.80303571
Si      13.52869992      14.30907080       9.56179041
Si      12.40053592      12.22811086       9.92460485
Si      13.85346408      10.34457437       9.52888789
24
Properties=species:S:1:pos:R:3 config_type=qcd gap_pre_relax_energy=-112.58195241264835 gap_pred_energy=-112.96702983140759 gap_fmax_final=0.0008425999336170589 gap_converged=1 pbc="F F F"
Si      12.18383552      10.22290729      14.18297599
Si      12.20938599      10.21168691      11.76000186
Si      14.28576847      10.31356648      12.99301203
Si      14.14341139       9.05117200      15.09565200
Si      12.31410372       7.64594043      14.19028856
Si      12.33951171       7.63461474      11.77969179
Si      14.41324909       7.74351760      13.00646057
Si      14.18752260       9.03149442      10.89980015
Si      10.54053379       8.86868220      12.96030509
Si      13.55513650      13.27600514      14.38232088
Si      13.58469828      13.26315264      11.56122567
Si      11.13937319      13.11089536      12.94688403
Si      11.52629008      12.28433158      15.13560017
Si      15.29108356      12.45526837      12.99354756
Si      11.57224043      12.26410128      10.77456950
Si      11.57269054      17.51051201      14.25780797
Si      13.46471205      15.72071010      14.21529645
Si      14.99847460      17.14837866      12.96904024
Si      13.49099047      15.70946375      11.70381751
Si      14.01823179      17.92635238      15.07369617
Si      11.60039940      17.49867711      11.60571154
Si      11.44661574      15.50612846      12.93919823
Si      14.06262068      17.90735283      10.83751104
Si      13.26666047      18.90262836      12.94312508
25
Properties=species:S:1:pos:R:3 config_type=qcd gap_pre_relax_energy=-117.3375788093372 gap_pred_energy=-118.4730465323394 gap_fmax_final=0.0008966507654002765 gap_converged=1 pbc="F F F"
Si      15.39670304      15.19749475      17.08875762
Si      16.79912316      15.93251992      15.17552612
Si      15.11527313      16.63790689      13.54178782
Si      18.95892970      15.44569307      14.42237144
Si      16.99633662      14.91911584      12.89138800
Si      16.19402836      12.74771774      13.89215566
Si      18.40223696      12.06425486      14.80794586
Si      16.96010022      13.63666792      16.11501419
Si      19.54773591      13.82112794      16.16896507
Si      20.16629459      13.36330442      13.86846823
Si      18.22640841      12.71573167      12.54137492
Si      19.37616844      14.94641844      12.10784860
Si      13.72326195      15.63988967      15.27814984
Si      12.02614401      14.05656491      12.90064954
Si      10.57704683      15.96036418      12.36402132
Si      12.16319554      13.58416551      15.30709985
Si       9.74048041      13.59163841      15.69763561
Si       8.69633582      15.12136977      13.78202358
Si       9.32207364      15.90720028      15.96459102
Si      10.73814162      12.28963490      13.87186408
Si      11.34435889      15.81425606      14.75198548
Si       9.72437451      13.67687635      12.13668204
Si      14.57991039      13.38960530      15.62677000
Si      14.45652746      14.33260239      13.31596660
Si       8.28822164      12.72729006      13.90036879
25
Properties=species:S:1:pos:R:3 config_type=qcd gap_pre_relax_energy=-117.66228272866127 gap_pred_energy=-118.5011928141121 gap_fmax_final=0.0008596900618315154 gap_converged=1 pbc="F F F"
Si      11.97934171      10.07282897      11.92195950
Si      11.58007699      11.54964459       6.00470438
Si       8.80512807       9.37175410       9.85000000
Si       8.21747591      10.78531944       8.02422156
Si       9.82925590       9.97010079      13.16818219
Si      11.12176133      12.46568853       8.23635438
Si       8.26351892       7.35864724       8.16432779
Si       8.85846401      12.93010096       8.67240752
Si       6.68057413       9.09244384      11.09805656
Si      10.82736106       8.00469728      11.94913732
Si      12.64199910      13.43613177       9.85000000
Si       6.68057413       9.09244384       8.60194344
Si       9.39934728       7.61352559       5.96811862
Si      11.58007699      11.54964459      13.69529562
Si       9.39934728       7.61352559      13.73188138
Si       8.85846401      12.93010096      11.02759248
Si       8.48953569       5.58523835       9.85000000
Si      11.97934171      10.07282897       7.77804050
Si      12.50170466      11.08961777       9.85000000
Si      11.12176133      12.46568853      11.46364562
Si      10.82736106       8.00469728       7.75086268
Si       8.21747591      10.78531944      11.67577844
Si       8.26351892       7.35864724      11.53567221
Si       9.82925590       9.97010079       6.53181781
Si      10.29727804       7.08126357       9.85000000
25
Properties=species:S:1:pos:R:3 config_type=qcd gap_pre_relax_energy=-117.4825832801778 gap_pred_energy=-118.55051797283252 gap_fmax_final=0.0009346202171334184 gap_converged=1 pbc="F F F"
Si      15.96931924      16.39009705      17.54567721
Si      17.42451693      16.97392424      15.64093787
Si      16.09471808      17.50632098      13.64042554
Si      19.53207795      16.01568257      15.35068414
Si      17.73639425      15.57270060      13.50958625
Si      16.78535343      13.68987998      14.71276155
Si      18.79892479      12.74866597      15.71238724
Si      17.66440683      14.71636925      16.73696896
Si      20.07178489      14.38058746      17.11797225
Si      20.67964425      13.89996086      14.82252684
Si      18.88914209      13.15725306      13.26063155
Si      20.12550651      15.49981071      13.06929548
Si      14.69477190      16.93949477      15.54801890
Si      12.76131384      14.65446647      13.63121727
Si      11.25285313      16.51529046      13.12719316
Si      12.60594850      14.00921677      16.02313718
Si      10.17506624      13.54221101      15.83441939
Si       9.82910400      16.08384713      15.10304106
Si      11.00967816      15.44528283      17.19304503
Si      11.80720439      12.49189081      14.27604682
Si      12.32638459      16.35297366      15.33269155
Si      10.33003253      14.22459091      13.26078732
Si      14.96001987      14.61958598      16.15754930
Si      15.12013664      15.24486164      13.84254595
Si       8.35569701      14.32503480      14.55045219
26
Properties=species:S:1:pos:R:3 config_type=qcd gap_pre_relax_energy=-122.42458391181087 gap_pred_energy=-123.00270320265433 gap_fmax_final=0.0009772337264628594 gap_converged=1 pbc="F F F"
Si      10.89460910       6.30863959      12.44666377
Si      11.65498641      12.24051166      10.39425681
Si      12.05816614      10.09209466      11.28713674
Si      13.75347126      15.39703235      13.91125184
Si      13.19288344       7.03458670      12.46838031
Si      11.61282788      15.53292115      12.65953301
Si      14.17867852      17.66786010      14.54565660
Si      15.37482975      11.99807959      12.58160400
Si      11.06758790      17.86404114      12.72539204
Si      11.84699871      16.72435582      14.85157045
Si      10.14815172       8.84925218      12.49509384
Si      12.05155986      10.04223545      13.76191773
Si      13.46691060      18.42968475      12.26663449
Si      13.73534009      15.44278042      11.48509980
Si      11.64438408      12.15579239      14.72799496
Si      13.91313107       8.42437098      14.37061761
Si      14.11865453       9.99611030      12.53026163
Si      13.74148877      13.02018079      11.20914468
Si      15.34325116      16.82463654      12.62084761
Si      11.63368357       7.81811537      10.69384066
Si      12.36409715      19.25246943      14.23874810
Si      11.27837302      13.12450470      12.57610406
Si      11.62215288       7.74704214      14.26339824
Si      13.75884795      12.96026362      14.01747897
Si      12.09784285      17.03044884      10.72135117
Si      13.92519829       8.50009606      10.62812753
26
Properties=species:S:1:pos:R:3 config_type=qcd gap_pre_relax_energy=-122.61392035665942 gap_pred_energy=-123.04451304887827 gap_fmax_final=0.0009435088326604278 gap_converged=1 pbc="F F F"
Si      12.38877131       8.71178843      11.80539634
Si      13.77863623       7.44073731      13.35585754
Si      15.13385986       9.06346527      14.66708583
Si      15.10137473      11.21777147      13.36813781
Si      14.78314515       9.12909221      12.02270848
Si      12.71985130       8.61578736      15.27388658
Si      11.32152989       9.86339011      13.72164680
Si      13.23084561      10.91604429      14.80202772
Si      11.33925867       7.39903126      13.62904592
Si      12.96402049      11.00686835      12.34415513
Si      12.40879968      13.14671930      11.49343519
Si      12.25452570      13.88725618      13.74549289
Si      14.79961095      13.99139244      14.86836202
Si      12.87351102      13.00699817      15.86391624
Si      14.50259429      14.07693681      12.13073376
Si      16.38370544      13.18533082      13.28315849
Si      14.52337711      16.58223135      12.32543719
Si      12.53522313      16.28420658      13.78826746
Si      15.08471013      19.15187982      15.01917002
Si      12.97758449      19.72327439      13.89328965
Si      11.04626926      18.18777995      14.03500020
Si      14.75118339      19.14333838      12.46206864
Si      14.78091191      16.50123518      14.81484038
Si      16.45703926      17.56249953      13.39309333
Si      12.62524990      18.07375139      12.08780978
Si      12.98563367      17.88241619      15.55719920
27
Properties=species:S:1:pos:R:3 config_type=qcd gap_pre_relax_energy=-128.0098984011716 gap_pred_energy=-128.701999832254 gap_fmax_final=0.0008905766913530297 gap_converged=1 pbc="F F F"
Si       9.45926176       7.98263588       7.37338857
Si      14.43233673      10.97643474       9.68718651
Si       9.71525947      10.84951087      10.99106879
Si      11.59018048      11.20119790      12.46842677
Si       7.52520085       8.04916645      10.52301276
Si      13.37755337       8.99595828      10.84227713
Si       9.52277209      13.44640414      10.70820438
Si      12.52805159       9.13065703      13.15367314
Si       7.82876238      10.75781222      12.40855065
Si       7.98181840       9.88987272       8.09296905
Si      13.02931603       7.09318639       9.43679476
Si       9.55312284      12.36476331      12.97991848
Si      11.64526753      14.25946665       9.82527693
Si       8.87880458       6.33649054       9.25526707
Si       5.95665071       9.42171126       9.23639858
Si      10.44145419       8.55248038      12.25058381
Si       7.31452622      13.63387338       9.53235266
Si      12.89497022      10.84292980       7.59658401
Si      11.78085135       8.63414176       8.14991516
Si      10.92239572       6.97147473      10.53798602
Si      11.11828092      12.42484653       8.46503832
Si       8.02982932       8.45123997      12.93977423
Si       6.91601603      11.29884408      10.28874598
Si      12.89662202      12.48610461      10.96118374
Si       8.64534183      12.11296173       8.36111711
Si      11.88731392      10.56473642       9.82014367
Si       9.67416346       8.81722220       9.66028576
27
Properties=species:S:1:pos:R:3 config_type=qcd gap_pre_relax_energy=-127.01096693317577 gap_pred_energy=-127.48108141747848 gap_fmax_final=0.000963100999379393 gap_converged=1 pbc="F F F"
Si      10.36315518      17.90989846      12.32080058
Si      11.85060946      18.24533620      10.40147624
Si      12.77201087      18.19529136      12.65539924
Si      10.10590635      16.26009519      14.15219767
Si      10.23964199      16.33797144      10.37975399
Si      10.62139707      14.91473455      12.27870839
Si      12.43064469      16.01465644      13.66869550
Si      14.11439097      14.76518786      14.76694749
Si      14.88648675      14.12820856      12.63745751
Si      14.46204340      14.88103594      10.44339843
Si      12.59678438      16.06541720      11.26849603
Si      13.31450544      12.83633122      10.82430213
Si      11.44113829      12.72649447      12.29055903
Si      13.02499839      12.77171841      14.07266469
Si      14.19009486      10.77230693      14.66733966
Si      14.95717478      11.55528202      12.57757561
Si      14.57552743      10.86658889      10.35278596
Si      12.82175175       9.45971598      11.10518521
Si      12.60258696       9.40660346      13.55771639
Si      10.90431392      10.45102044      12.19294810
Si      13.62123880       7.35423249      12.36735399
Si      11.66642999       7.24117915      13.96472808
Si      11.62456623       5.63870205      12.15190559
Si      10.44838897       9.14140120      10.21366835
Si      11.97991290       7.31801402      10.44626918
Si      10.11082276       9.05862003      14.00180938
Si      10.08947791       7.49995651      12.05585805
27
Properties=species:S:1:pos:R:3 config_type=qcd gap_pre_relax_energy=-127.42925728998311 gap_pred_energy=-127.70978307127056 gap_fmax_final=0.0009319311344104279 gap_converged=1 pbc="F F F"
Si      13.17078556       7.40809225      14.15576598
Si      15.12063621       8.11734571      12.90720834
Si      13.11205465       7.41000379      11.75434330
Si      11.06914592       7.90393176      13.00613186
Si      14.48155226       9.33597360      15.01313673
Si      14.37942836       9.33928728      10.83698632
Si      14.13098895      10.54862081      12.93334721
Si      12.19655190       9.76296760      14.19127052
Si      12.13734266       9.76487762      11.77023819
Si      10.62613723      11.23987443      15.18337279
Si      10.08737604      12.01445387      13.03339827
Si      10.52033586      11.24326535      10.85843431
Si      11.92738845      13.08910027      11.41911797
Si      13.73069542      12.86830484      12.94495426
Si      12.00415363      13.08665335      14.55746068
Si      11.12064818      15.21744623      15.17439042
Si      10.40751321      14.58882287      13.02757933
Si      11.01482863      15.22080093      10.84943312
Si      14.52555989      18.30485428      14.13115315
Si      16.24168673      17.13412736      12.88679120
Si      14.46679634      18.30669634      11.72965247
Si      12.94515887      16.26227546      11.75552556
Si      12.36591880      18.33359378      12.98255067
Si      13.00438894      16.26041098      14.17659394
Si      15.32487459      16.11860842      14.99781410
Si      14.68681413      15.01927781      12.92322473
Si      15.22270878      16.12180320      10.82159479
28
Properties=species:S:1:pos:R:3 config_type=qcd gap_pre_relax_energy=-132.38645296797466 gap_pred_energy=-132.65771677402307 gap_fmax_final=0.0009006046539701232 gap_converged=1 pbc="F F F"
Si      13.88840500      10.57470688      12.18515723
Si      12.50980868       6.68816538      12.10971566
Si      15.16585001       9.51954168      10.42569529
Si      12.45710381       8.97848973      13.30198718
Si      15.73351771       8.13967088      12.42373115
Si      14.76663459       9.58772443      14.20887069
Si      14.99618657       5.84066658      12.38733275
Si      14.39137917       7.25786717      10.52128637
Si      10.29834682       9.66110695      14.00302805
Si       9.72430256      10.10618590      11.75425911
Si      14.02069742       7.32119632      14.03442078
Si      10.75309803       9.58303878       9.69206006
Si      12.71557280       8.93433486      10.85184765
Si      11.11229334      11.88403590      10.20018235
Si      12.54929284      12.48228644      12.00936826
Si      10.76416450      11.94390599      13.49901207
Si       8.92885586      13.43912834      13.78996325
Si       8.86380090      12.52402232      11.61962897
Si       9.38368219      13.36067924       9.47911198
Si      10.71529355      17.71491228      12.92860922
Si      12.91322492      17.41824159      11.95774992
Si      10.96753512      17.67128180      10.53940640
Si      10.51229710      15.16510300      10.52562924
Si       8.92882875      16.77016159      11.54897830
Si      10.25768209      15.20907526      12.93754898
Si      12.27859376      16.11889665      14.01475498
Si      12.45433613      14.83034625      11.95658831
Si      12.71704779      16.04305981       9.86190780
28
Properties=species:S:1:pos:R:3 config_type=qcd gap_pre_relax_energy=-132.91821518625642 gap_pred_energy=-133.52808334056834 gap_fmax_final=0.0008057033816453313 gap_converged=1 pbc="F F F"
Si       9.13477100      10.52247368       6.68893329
Si      12.84146153      10.92508701       8.84916246
Si      10.86394295       8.38518559      13.86068792
Si      12.20238774      14.73834315       9.86033257
Si      12.75137473       7.25058183      10.33396178
Si       7.85796589      13.77108412       9.37345305
Si       9.32175304       7.56338518       9.06919821
Si      12.47658778      12.31510820      13.16635204
Si      10.04040508      14.00054918      10.57126640
Si       6.21512269       9.69861301       9.92112871
Si      11.54695890       7.39948335       8.12979716
Si       8.73609682       6.19055733      10.92445572
Si       9.18719942      12.07719496       8.47367793
Si       9.07824401       9.54862319      12.82963157
Si      14.85865326      11.16066188      10.06061275
Si       8.12448301      11.75575435      13.01832218
Si      11.39237449      12.76227684       8.86968615
Si      10.71921735       7.28043075      11.69324006
Si      11.77050499      10.16347352      12.58865042
Si      10.28005685      12.60485245      12.41273107
Si      13.34686283       9.52550175      10.96127126
Si       7.50007196      11.65037101      10.59927569
Si       8.15039733       9.52781676       8.61438387
Si      13.11753553      12.67329919      10.87225848
Si       7.89854501       8.37568353      11.18235338
Si      11.20324168       9.69962123       7.66319727
Si      11.20154223       9.11384667       9.99889313
Si       9.69249592      10.83039431      10.92333944
28
Properties=species:S:1:pos:R:3 config_type=qcd gap_pre_relax_energy=-131.1282945532766 gap_pred_energy=-131.57205014115874 gap_fmax_final=0.0009530336344734998 gap_converged=1 pbc="F F F"
Si      11.39206889      14.70855100      12.40974688
Si      13.47522727      14.01563456      11.17575120
Si      11.29396226      14.68467284      10.02329181
Si       9.78725662      13.08610558       9.11293889
Si       9.18478657      12.37534588      11.29986235
Si       7.93263175      10.35078426      11.35354638
Si       9.38547069       8.85511104      10.14191768
Si       9.44295145       8.87000395      12.51062315
Si       8.44595121       6.92606719      11.36188359
Si       7.00913712       8.52536535      12.66328715
Si       6.94708265       8.50996999      10.11229994
Si      11.16026570       9.42160056      14.01616327
Si      12.61805889       8.44432633      12.43930950
Si      14.31897487       9.62346136      11.20209135
Si      12.56042374       8.43024084      10.06366264
Si      13.11781189       6.35362523      11.25149645
Si      14.86854618       7.59595508       9.93920162
Si      14.92985717       7.61124037      12.46149998
Si      11.02692423       9.38398496       8.54583914
Si      11.24871073      11.39991066       9.85573381
Si      13.17156612      11.69088255      11.21525818
Si      11.31497933      11.41488920      12.66175827
Si       9.92162288      13.15121255      13.42455260
Si      13.04349181      16.99589099      11.16701830
Si      11.73232809      16.99420187      13.24358154
Si      10.60475318      16.75010503      11.10148425
Si      13.43485241      15.42865858       9.28397311
Si      13.71679631      15.48869219      13.04871695
29
Properties=species:S:1:pos:R:3 config_type=qcd gap_pre_relax_energy=-137.36891236113985 gap_pred_energy=-137.60810071160523 gap_fmax_final=0.000864521095203511 gap_converged=1 pbc="F F F"
Si      14.74740000      15.85485469      13.52281960
Si      11.95842518      18.89402257      13.37791094
Si      15.28589299      17.25663604      15.41611337
Si      12.95198631      16.81282452      12.21516051
Si      15.50588898      18.82649272      13.49165376
Si      15.40609383      17.18620231      11.61671931
Si      13.92917894      20.65314058      13.40799557
Si      13.70615403      19.04037542      15.19872757
Si      11.34154525      15.36767034      11.25013727
Si      10.70720242      14.63994411      13.41561486
Si      13.81831201      18.97517863      11.66732760
Si      11.20281356      15.44791091      15.58878147
Si      12.87388089      16.85834307      14.67697325
Si      12.50700227      13.49872506      15.18131033
Si      14.24842904      13.57061579      13.54892571
Si      12.61506213      13.43655224      11.81175259
Si      15.01861242      11.36380628      13.61439609
Si      12.61576325       8.00787639      13.59989694
Si      15.71715600      10.11504068      15.56175675
Si      13.35461547      10.14455027      12.35109888
Si      16.12909995       8.50613262      13.70211417
Si      15.83734349      10.04501336      11.76234489
Si      14.78370141       6.50123560      13.69659499
Si      14.36392971       8.14685213      15.42088877
Si      11.58448848      11.34506455      11.33217004
Si      10.86188307      12.07856086      13.46782518
Si      14.47611683       8.08156040      11.88946550
Si      11.44574489      11.42503210      15.67077563
Si      13.27649989      10.19000850      14.81297117
29
Properties=species:S:1:pos:R:3 config_type=qcd gap_pre_relax_energy=-137.9489375023789 gap_pred_energy=-138.3978999431177 gap_fmax_final=0.0009898285824114991 gap_converged=1 pbc="F F F"
Si      14.28230218       8.64893070      11.09655226
Si       8.62404922      13.37108001       9.25137410
Si       8.27322840      12.97573067      13.26199849
Si      11.33720535      12.16886405       7.99404927
Si      13.81015966      10.73853774       9.92051680
Si      11.86203694      11.23240098      13.03308428
Si      12.64034563      13.45107356      13.16141833
Si       8.02374354      12.03373031      11.07643845
Si      12.87343410       9.06422144      13.07165123
Si      10.37429335      13.78271067      12.29106570
Si       7.37836243       8.09262501      11.34447805
Si      10.60093869      12.48087763      10.31513294
Si      12.34471597       7.58766108      10.07673472
Si       8.89650256      10.02736382       8.30716285
Si      10.91739944       5.94462651      11.08485782
Si      10.15200739      15.02980985      10.15709208
Si       9.45004750       7.84985609       7.64846660
Si       9.12726756      12.17865501       7.18540565
Si      12.99488525      12.69122569      10.92384135
Si      12.17774543      14.05377487       9.15914147
Si       9.19529335       7.26819814      10.04624947
Si       9.37137879       9.63900975      10.99541078
Si      11.84396510       9.85795676      10.98675770
Si       7.12809017      10.12049335      10.07831031
Si       8.81856069       8.70183075      13.21614477
Si      11.40324801       8.96577484       8.43470135
Si      10.89080876       7.82553007      12.49161708
Si      12.99676645      10.52271380       7.63753432
Si       9.51187858      10.99539735      13.05347229
29
Properties=species:S:1:pos:R:3 config_type=qcd gap_pre_relax_energy=-137.90056825234916 gap_pred_energy=-138.30377634288453 gap_fmax_final=0.0007803050029626737 gap_converged=1 pbc="F F F"
Si      11.17398169       7.67404232      12.56831588
Si       8.88787327       8.49642713       9.20032959
Si      13.51024731      14.56779088       9.81671974
Si       6.21329658      11.24337829      11.23037526
Si      13.31483344      10.72841297       8.17023329
Si       8.94801762      10.71204294      14.66813862
Si      14.59524834       9.34370927      11.23917768
Si       8.83698821      14.56742696       9.81688390
Si       7.91448574      11.83466591      12.73529712
Si      13.39941024      10.71247888      14.66811086
Si      13.46002758       8.49673735       9.20041032
Si      16.13414999      11.24410892      11.23052416
Si       9.51129871       9.35138926      12.88455009
Si      13.09576165      13.58716055      11.91855043
Si       9.03280442      10.72816108       8.17017010
Si      11.17351713      13.87848344      13.33077141
Si       7.75245720       9.34318733      11.23910004
Si      14.44618606      12.23253054       9.82485514
Si      11.17369112      13.71572688       9.49292298
Si       9.25121360      13.58685510      11.91879974
Si      11.17376014      11.58145217       8.59607607
Si      11.17368725      11.42103598      13.92429991
Si      12.83639852       9.35165899      12.88456024
Si       7.90122894      12.23210289       9.82480885
Si      14.43276608      11.83524578      12.73527889
Si      11.17393453       8.42299401      10.30705972
Si      12.60950728      10.46481260      10.49284497
Si      11.17358898      12.21976223      11.45639861
Si       9.73802833      10.46460932      10.49282634
30
Properties=species:S:1:pos:R:3 config_type=qcd gap_pre_relax_energy=-142.77873131734185 gap_pred_energy=-143.68840262137286 gap_fmax_final=0.0008807752874612292 gap_converged=1 pbc="F F F"
Si       6.96608954      12.11230249      11.34815741
Si      10.84957439       9.13641120       7.00432571
Si      13.88619370      12.89687477      11.84878722
Si      10.96586211       6.78497012      11.33950321
Si      14.20929913      10.96302631       8.58531978
Si       7.92994717       8.83848951      13.99492944
Si       9.55902029      11.91856988       9.85474993
Si      12.89461987      13.00926220       7.62685904
Si      13.93202340       9.20499914      11.83376720
Si       7.49618667      10.46151692       8.58448728
Si       8.25393866      12.73680711       7.58360461
Si      12.19315365      10.19117226      13.07634335
Si      10.41065977       8.80640720       9.71359731
Si      10.23113855      14.17380549      11.13544292
Si      10.49052941      12.53668788      13.08773548
Si       8.61984345       6.76902351      10.02245005
Si      13.43827499       7.09301599      10.52148425
Si      12.79187939      12.39118508      14.15568597
Si       8.53978686       8.22112536       7.81900293
Si       7.91801322      14.03344297       9.89124218
Si      12.85907301       8.73515466       8.62913432
Si       7.47277489       8.65699270      11.44378932
Si      12.07919185      13.33391821      10.00724949
Si       8.21898925      11.37400742      13.47832283
Si      15.41968085      11.05085589      10.89894920
Si      10.68444482      11.68667683       7.46712732
Si       5.67293771      10.16355180      10.34276362
Si      10.40505068       8.38669058      13.32405593
Si       9.73619197      10.23888849      11.39641959
Si      12.59020572      10.80874305      10.69928809
30
Properties=species:S:1:pos:R:3 config_type=qcd gap_pre_relax_energy=-141.396363445006 gap_pred_energy=-141.69354895953137 gap_fmax_final=0.0007719228830154154 gap_converged=1 pbc="F F F"
Si      13.89268102      15.35405124      12.83066115
Si      10.09808152      17.01668844      12.97116560
Si      13.88330356      16.69250569      14.83356356
Si      11.78879361      15.59839551      11.63573236
Si      13.38795769      18.36472284      13.04798413
Si      13.86098394      16.96254543      11.03777877
Si      11.21156965      19.40865287      13.13505610
Si      11.71794494      17.70881292      14.78018865
Si      11.69748603      17.95953914      11.25990564
Si      11.80304461      15.42491057      14.07227565
Si      10.81361446      13.70271905      10.56787090
Si      10.36055491      12.62782958      12.65665974
Si       9.72469007      10.34386416      12.49697639
Si      11.54859803       9.39960146      11.23267117
Si      11.56145056       9.23161803      13.59516942
Si      11.14154001       7.19285626      12.26510869
Si       9.30867964       8.23632252      13.62951495
Si       9.29492947       8.41758892      11.08190146
Si      13.03987259      10.08819287      15.20744844
Si      14.73628281       9.69489588      13.61473228
Si      16.05258169      11.40569822      12.53842992
Si      14.72331122       9.86349137      11.24518072
Si      15.83033879       7.93671665      12.29300990
Si      17.17481124       9.72802399      11.14839888
Si      17.18846687       9.54911995      13.66492512
Si      13.01051712      10.47691203       9.74223812
Si      12.64210621      12.35734015      11.20612126
Si      14.36501977      13.05866737      12.66456339
Si      12.65797481      12.15660966      14.02844112
Si      10.83813459      13.39642865      14.87164795
30
Properties=species:S:1:pos:R:3 config_type=qcd gap_pre_relax_energy=-141.4697992686419 gap_pred_energy=-142.81723928159425 gap_fmax_final=0.0008433093987084623 gap_converged=1 pbc="F F F"
Si      15.01610947      10.67025618       9.36975842
Si      13.64778620       8.49855650       9.99549643
Si      11.48266488       8.43162334      10.91892601
Si      11.96416889      11.16984138       7.49985159
Si       6.13173430      10.01226456       8.89207889
Si       6.18639960       9.31307700      13.31206344
Si       8.76190463      12.83497044       9.59219676
Si      14.12219419      10.96133649      11.87172337
Si      14.45731148      13.32837315      11.87544974
Si       6.57676478      10.51903005      11.20948482
Si      11.09590047      13.37333739       9.83381690
Si       7.18994461      12.86354127      11.45482370
Si       8.43339001      10.11531166      13.84977389
Si      12.11603256      13.02745006      11.96539882
Si      10.74425065      10.02808799      14.93163352
Si       7.89526346       8.79504436       9.84185763
Si       8.39485912      10.85952187       8.43903476
Si      15.64396885       9.24564018      11.15875414
Si      12.02447676      10.31543094       9.65451612
Si      10.28687180       8.65484410      13.00493915
Si       8.04524033       8.44455432      12.16937047
Si      12.48462200      13.47994106       7.92731835
Si      12.01047604      10.44187606      12.66356033
Si      10.06675112       8.88437961       8.95264711
Si      10.25595944      11.42980654      10.86772472
Si      13.94788649      12.71987254       9.66381127
Si       8.92163081      12.14892469      12.86241747
Si       9.95072679      10.02291186       6.85024361
Si      10.92621707      12.51753710      14.11834035
Si      13.74474471       9.41890879       7.77923973
31
Properties=species:S:1:pos:R:3 config_type=qcd gap_pre_relax_energy=-147.7962234212856 gap_pred_energy=-148.13140301915186 gap_fmax_final=0.0009354603491101191 gap_converged=1 pbc="F F F"
Si      12.60437204      12.76179871       9.18868553
Si       6.36718396      11.47687551       9.13335839
Si      11.13775532       6.75721065       9.27159827
Si      10.63727840      10.51211177      14.81265111
Si       8.49572569       8.10318947       9.82488472
Si      13.89009901      12.05011365      12.66079950
Si      11.75542075      13.16317764      12.01692347
Si       9.14054407       8.88347834       7.71500803
Si      10.06341659       7.74904818      11.90990712
Si       9.75405247      13.61518016       9.35517136
Si       9.58892494      13.02182980       6.94056308
Si      12.36606122       8.15476846      12.00484533
Si       6.78682495      10.16950300      13.12250625
Si      11.71748605       9.64038932       7.82844279
Si      13.12953634       9.32141750       9.70641569
Si       7.71479130      12.48822386      12.81882147
Si       9.12429758       9.31902613      13.38661523
Si      13.38910369       7.01915772      10.23319350
Si       8.10571743      12.32599671      10.49788140
Si      11.82186150      11.91551557       7.10187520
Si       7.08128851       9.78069060      10.66930943
Si       9.99173767      11.89982458      13.00623819
Si      10.92712634       7.57533141       6.95890353
Si      14.20977299      11.37606855      10.27762226
Si       9.24023228       5.96408404      10.56373395
Si       8.25317288      11.03799050       7.62543083
Si      11.71830373      14.71150813      10.18619125
Si       9.55451787      10.12024089      11.03335728
Si      12.53780047      10.07000387      13.32381017
Si      11.92037256      10.96178727      11.15938890
Si      10.25817890      11.33741553       8.94882425
31
Properties=species:S:1:pos:R:3 config_type=qcd gap_pre_relax_energy=-147.67717309670329 gap_pred_energy=-148.49214876002233 gap_fmax_final=0.0008545861070276701 gap_converged=1 pbc="F F F"
Si      13.11248340       9.71765376       6.71007755
Si      13.26199412      12.01933333       7.93359495
Si      11.68799631      14.00835075       7.40219268
Si       8.99306023       8.24949881       8.42516891
Si      10.62272009       9.94346491       7.38130255
Si       9.87073721      12.31896948       7.91482949
Si      13.42696863       8.39822434       8.95666650
Si      11.05699056       7.86420334       9.87035052
Si       7.91561612      12.72393139       9.53542183
Si      14.09833617      12.28633893      10.34447738
Si      11.96299082      10.54002429       9.80567388
Si      11.08622794      14.10774170       9.93600788
Si       8.42624915      10.02424193      10.22318237
Si       6.21629146      11.17218029      10.69918057
Si       8.73655374      14.78215298      10.80665272
Si      13.20661248      14.41933113      11.31754999
Si      14.00299496       9.51359706      11.23378046
Si      15.63126833      11.04203960      11.85211432
Si      10.42158831      11.72103593      11.04535596
Si       7.45972331      11.50731427      12.88766209
Si      11.76459961      10.50982260      12.60830929
Si       9.39869260       9.27799889      12.52492078
Si       9.07652596      13.17462192      12.69519973
Si      10.65870040       7.09016591      12.27650367
Si      12.38634812      13.05311766      13.07109914
Si      13.91211357      11.42683563      13.63607385
Si      12.69785969       8.34869407      13.03930751
Si       8.19283286       9.77179524      14.45763254
Si      10.50996284      13.34967120      14.55169022
Si      10.44399834      10.85478314      14.72152367
Si      12.73385595       9.75575879      15.10939032
32
Properties=species:S:1:pos:R:3 config_type=qcd gap_pre_relax_energy=-152.79911533968308 gap_pred_energy=-153.7870586383494 gap_fmax_final=0.0008043968268406121 gap_converged=1 pbc="F F F"
Si       9.31831955       6.46623096      10.82930980
Si      13.99751982      10.92141768      10.52104841
Si       8.82135458      10.85664332       6.65722284
Si       7.84387603      12.62772900      13.09632323
Si      11.87987207      12.35039199       8.01212189
Si       7.04699367       8.69119018      12.17939516
Si       8.44020175       8.45168007      14.34549730
Si      12.18666927      10.19439372       7.25638530
Si       7.99120777      13.77378561       8.81897996
Si      12.60385129       8.13046154      12.26416835
Si      13.18075681       7.01360560       9.99857681
Si       6.32501660      11.81119178       9.07770114
Si      11.64057720      12.75897152      10.79695304
Si       9.60140640       7.71802740       7.37634821
Si       7.44686685       8.40361319       8.53295685
Si      11.84869593      10.91976229      12.50793013
Si       9.19224699      13.51253395      11.09979405
Si       6.37478827      10.16518750       7.08234321
Si      14.16932529      10.04426934      12.92972262
Si      10.96278000       6.03547694       8.87595996
Si      13.61461468      13.26478563       9.60545018
Si       9.41223466      10.61301735      13.38103057
Si      10.51454460       9.27645776       5.57031088
Si       6.82042823       6.81232982      10.41849963
Si       9.70880982      13.29172867       6.92327435
Si      13.96859615       9.12477233       8.71259340
Si      10.31418920       7.16167461      13.09583810
Si       9.73158475      11.63997321       9.15915659
Si       6.37033639      11.14677382      11.60543526
Si       8.31046763      10.00540760      10.01507586
Si      10.20358684       9.18708760      11.17397919
Si      11.26271295       8.73386004       9.18504973
32
Properties=species:S:1:pos:R:3 config_type=qcd gap_pre_relax_energy=-152.37485447186575 gap_pred_energy=-153.52876122705604 gap_fmax_final=0.000994293955839733 gap_converged=1 pbc="F F F"
Si       8.00037327       7.70852314       8.11943768
Si      13.92959812       9.00622799       9.81040802
Si       9.60979260      14.60504228       9.13124765
Si       9.52020135       9.53637329      13.89207518
Si      13.08544198      12.65878056       9.77052759
Si       6.41421620       8.38590927      11.55962601
Si       8.66149878       7.04214798      11.49293348
Si      13.00288206      12.30512530       7.21498986
Si      10.42698829      12.72066424      12.55597982
Si      11.26938827       6.70933422       8.82964162
Si      11.76649472       7.75710645       6.46301323
Si       8.24049710      12.49396208      11.79864246
Si      12.13354043      10.50167372      12.59872359
Si       8.70875827      11.43898837       6.28613974
Si       7.41438193      11.59389183       8.51725126
Si      11.30158165       8.11662336      12.04397225
Si      11.10021118      11.39953919      14.53738922
Si       7.21683693      13.82596004       9.84138782
Si      13.03982157       6.76402144      10.73090072
Si       9.80178807       9.26423338       7.08692147
Si      14.27757632      11.03126892      11.35633501
Si       9.83279190       7.00823549      13.77292742
Si      10.49851651      12.81900234       7.43461138
Si       6.14235511       9.28021718       9.06397900
Si      11.53090674      14.36328650      10.94223584
Si      12.54271805       9.83706918       7.75607493
Si       8.93445272       5.62641554       9.33708817
Si      10.19599148      12.13891508       9.98562532
Si       7.27423714      10.40876289      13.01918033
Si       8.22806875      10.09603333      10.53208285
Si       9.96284208       8.83539409       9.87757794
Si      11.59862645      10.38464733      10.30444915
32
Properties=species:S:1:pos:R:3 config_type=qcd gap_pre_relax_energy=-150.7701791390252 gap_pred_energy=-151.80383695907878 gap_fmax_final=0.0008223548637234055 gap_converged=1 pbc="F F F"
Si       9.17615710      12.88154537      11.83103733
Si      11.48050296      12.39609430      12.01361174
Si      10.67683737      14.60797472      15.21030691
Si      13.73603666      11.86402575      15.28367751
Si       9.88277631      12.68525176      14.07700050
Si      13.05182497      14.15034788      11.93528037
Si      11.93546989      10.84962261      14.11040391
Si      12.21834574      10.16038277      11.86912587
Si      12.50178999      13.54232311      14.15771698
Si       8.60234178      17.17547076      12.20432316
Si       9.93217073      17.30891348      10.10048704
Si      10.35258617      15.75780702      13.14548157
Si      11.66094178      15.89096753      11.11985578
Si       9.33527448      15.12207951      11.05397874
Si      10.96772893      17.95458603      12.27482410
Si       9.82522839      10.56126771      15.12543941
Si       8.78817368       7.50130292      12.04641229
Si       8.12088771       8.59718528       9.90892034
Si       9.09262286       9.72208850      13.01463301
Si      10.26163279       9.16202618      10.97460882
Si       8.43679287      10.79807841      10.95924227
Si       6.93258788       9.16305903      12.02596699
Si      15.07647764      13.02890051      11.44873030
Si      16.25387021       9.51648824      12.56064885
Si      16.48503510      12.60887704       9.51739145
Si      15.34134373      11.64376647      13.48192170
Si      18.04447312      12.21151678      11.24366142
Si      16.97010275      13.48918926      13.00482471
Si      18.51639337       9.83184598      11.55139649
Si      16.46108549      10.27838294      10.18744205
Si      17.73844668      11.23461753      13.45022511
Si      14.48270085      10.64265461      11.45006329
33
Properties=species:S:1:pos:R:3 config_type=qcd gap_pre_relax_energy=-157.37116285453916 gap_pred_energy=-158.0905251300397 gap_fmax_final=0.0009036250458230249 gap_converged=1 pbc="F F F"
Si      10.33453000      12.51276816      12.68922412
Si      13.20207239       8.87352790       9.33410728
Si       9.84255318       9.17426230      13.16240982
Si      15.56309756      11.59799626      11.12799675
Si       7.90764708      12.75767991       9.11902757
Si       9.55026294       7.12446172       8.89254687
Si       8.41279955       7.41551843      11.10132561
Si      13.80355768       8.19864788      13.38639307
Si       6.35002208       8.71249279      10.67285586
Si      10.88026722      11.31159769       8.04265386
Si      12.49288001      13.97770419      11.96513527
Si       8.31192869      12.16884135      11.57684558
Si      13.24421902      10.61771304       7.48101097
Si      14.27868441      12.60189029      13.11150226
Si      13.92673560      12.29620563       9.25657689
Si       9.28682675      14.69083645      10.97879658
Si      12.89405557      10.53311996      13.65741910
Si      10.60057313      14.51815853       9.09548366
Si       7.85094368       9.83555272      12.07057386
Si      11.79773982       7.09807484       9.92496088
Si       6.99617065      14.06207188      10.86569593
Si       7.77933237      10.47800371       9.70598942
Si      14.89709799       9.07666523      11.22011535
Si       9.49217823      13.29128778       7.39387180
Si      10.55183910      14.83672002      13.07068688
Si      10.74335456      10.91485980      14.51935114
Si       9.58435256       6.82016637      13.23540920
Si       9.70654382       9.49903642       8.85723413
Si      12.91208909      14.56602657       9.63330586
Si      11.68532829       7.41888901      12.22142202
Si      10.99854924       9.55329089      10.88577695
Si      11.29176681      12.50131498      10.40517054
Si      12.82275404      10.95737043      11.33187802
33
Properties=species:S:1:pos:R:3 config_type=qcd gap_pre_relax_energy=-156.09292280368035 gap_pred_energy=-156.41524079222071 gap_fmax_final=0.0009428223643839223 gap_converged=1 pbc="F F F"
Si      15.44928085      13.62733936      12.25100728
Si      16.92979490       9.75477380      12.19499664
Si      16.92160094      13.56060755      10.34603386
Si      15.50241988      11.50535938      13.44176194
Si      18.43723400      12.97476618      12.24149278
Si      16.92173156      13.50558176      14.15305233
Si      19.37763393      10.74922583      12.20941234
Si      17.82481712      11.34788959      10.45442655
Si      17.82478499      11.29684878      13.98089088
Si      15.50216577      11.54074629      10.99942311
Si      13.49983467      10.60619545      14.36959245
Si      12.57200388      10.19191269      12.20172501
Si      10.30246023      12.96206082       9.56805909
Si       9.89171988      14.71793361      11.08112688
Si      11.58086748      15.95410010      12.28556009
Si       9.89237054      14.68398965      13.45493641
Si       8.08644838      15.87095821      12.28518288
Si       9.85412640      17.12712995      13.57260512
Si       9.85361073      17.16328395      11.03316544
Si      10.30469824      12.88556642      14.91668047
Si      12.28402848      12.48863240      13.62639679
Si      13.17366724      14.20395300      12.25936506
Si      12.28317216      12.52850900      10.84420963
Si      13.49942496      10.66879217      10.04647081
Si       7.01100087      10.15152175      11.00007222
Si       8.01679066       8.28369213      12.17702747
Si       7.01250804      10.11703954      13.40822123
Si       9.13643414      11.46981723      13.44592144
Si       7.13325122      12.27158407      12.23452996
Si       9.13532384      11.50492214      10.99865755
Si       9.09503494       9.16936261      10.11950565
Si      10.24661553       9.66034656      12.19530033
Si       9.09759255       9.11000706      14.25763932
34
Properties=species:S:1:pos:R:3 config_type=qcd gap_pre_relax_energy=-162.27118718976973 gap_pred_energy=-163.82636061866626 gap_fmax_final=0.0007703164402293298 gap_converged=1 pbc="F F F"
Si      10.62511948       7.82337610       8.06987445
Si      11.62125048      14.05318389      11.86551616
Si       8.41842456      10.65064323       7.47306525
Si      15.23754923      12.07839176      10.38167088
Si       8.81467748       8.10937725      11.82461380
Si       7.91632537      13.42497952      11.87668968
Si       6.65856556      12.35897233       9.87775448
Si      11.98442112      13.83029755       7.57140445
Si       5.20399932      10.27404971      10.40023917
Si      10.27017320      11.08449534      13.49345552
Si      13.78994472       8.04330736       9.77498602
Si       8.40821235       7.16511579       9.17901673
Si      12.33471245      12.60628611      13.90732036
Si      14.26190899      10.35146130       8.70025249
Si      13.72374045      11.09927226      12.28578089
Si      11.25895444       6.00800059      10.96916934
Si      12.10658972      11.25538656       7.51337848
Si      12.23222587       6.54305469      13.33720660
Si       6.71630284       9.04506097       8.65740148
Si       9.49766585      15.33468902      11.04339121
Si       8.69104047       5.62563844      11.16625431
Si       7.01321485       9.93737928      12.24791796
Si      13.15801932      13.52572055       9.85666565
Si      10.68998955       8.57050081      13.09216081
Si      12.48721969       6.11292487       8.67008032
Si      10.48313769       9.68534735       6.27388026
Si       7.63079625      13.09801217       7.59000533
Si       7.79138656      11.79148122      13.89814064
Si      13.35560737       8.51079254      12.24050247
Si       9.75769556      13.78750979       8.92324754
Si       8.64665960      10.38945676      10.15607174
Si      11.14634901       8.80287262      10.42529337
Si      11.95549087      10.97647749      10.23314050
Si      10.05361567      11.98747075      10.96543767
34
Properties=species:S:1:pos:R:3 config_type=qcd gap_pre_relax_energy=-161.06927464304792 gap_pred_energy=-161.43884039298834 gap_fmax_final=0.0009694654798858949 gap_converged=1 pbc="F F F"
Si      10.58902146      11.74725677      13.45599669
Si       7.82564854      14.83861797      13.41158001
Si       9.18316612      11.28783599      11.55515368
Si       9.78249057      13.70630040      14.65183080
Si       7.56107561      11.29240521      13.45224014
Si       9.17195899      11.33229734      15.35865576
Si       5.89099763      13.03689170      13.42666857
Si       7.55090311      13.03383203      11.66661088
Si       7.54070313      13.07523439      15.19646312
Si       9.78947291      13.67787254      12.20996430
Si      11.35498440      15.24706145      15.57358908
Si      12.08335612      15.97914973      13.41106694
Si      15.18286154      14.07845499      10.76638019
Si      15.61957197      15.84938542      12.23776097
Si      14.06920737      17.28734833      13.40063943
Si      15.61374336      15.87700934      14.60426010
Si      17.52386114      16.90319279      13.41361488
Si      15.86749550      18.31209957      14.67999240
Si      15.87379413      18.28199436      12.10660813
Si      15.17001922      14.13989570      16.11321927
Si      13.15196755      13.91770999      14.84239019
Si      12.92435214      12.01989497      13.45882221
Si      13.15900974      13.88519966      12.03253692
Si      11.36634919      15.19760141      11.26184463
Si      15.03483801      10.98226498      13.47564611
Si      18.50252042      13.22547379      13.45702169
Si      16.30236385      10.08445357      11.61154201
Si      16.32936348      12.61924987      14.72342736
Si      17.86257442       9.69359507      13.49712033
Si      16.29409480      10.12868307      15.36604426
Si      19.92185927      10.97158135      13.48657475
Si      18.31821162      11.35825592      11.71874451
Si      18.31039656      11.39972003      15.23772683
Si      16.33513068      12.58954477      12.19562739
35
Properties=species:S:1:pos:R:3 config_type=qcd gap_pre_relax_energy=-167.38931002339598 gap_pred_energy=-168.53394874784192 gap_fmax_final=0.0009186706467382586 gap_converged=1 pbc="F F F"
Si       8.00270312       7.78382789       9.89816240
Si       8.80442239      13.61612721       7.11760939
Si      12.33416153       7.66155594       8.80655629
Si       8.75375071      11.08043317      14.09911317
Si       6.90065583      14.03899290      11.13499566
Si       8.75820992       8.87154444       7.66230654
Si       8.70620281       7.53874620      13.22330953
Si      11.00891025       8.59608594      13.49883726
Si      13.94663237       8.89930246      11.36879259
Si      12.33205046      10.59271644       6.47358559
Si      11.08753271      15.54644759      10.53739281
Si      14.55234633      12.47117087       9.87120732
Si      10.95874443      14.30305353      12.81890597
Si      12.18635103      12.02640808      13.11047710
Si       8.55132124      11.36859413       8.25890335
Si       7.26634392       9.40416596      11.41955796
Si      12.90844153       7.02734645      12.83642944
Si      12.62783716      14.06556196       9.03206713
Si      14.16728798      10.45468211       8.28793121
Si      11.08208468      12.58055421       7.56039822
Si       6.94462222       9.21413753      13.91109374
Si      11.27022089       6.52575624      10.88849025
Si       8.93856157      14.38094154       9.60013440
Si       8.79088274       5.80555620      11.31858471
Si      14.84337621       8.11706982       9.08276775
Si      11.07247758       8.30268382       6.62999109
Si      11.11751966      10.64347266      15.00056357
Si       7.16724843      11.67843214      10.31847100
Si      14.53006406      11.33569734      12.25510448
Si       8.48920068      13.50843695      13.11860406
Si      10.05604309       9.02131689      10.99579071
Si      12.36143573      10.90813299      10.51067299
Si       9.16338877      11.38273343      11.44953624
Si      10.86099127      12.69073731      10.57973519
Si      10.97072668      10.07032767       8.83667085
35
Properties=species:S:1:pos:R:3 config_type=qcd gap_pre_relax_energy=-167.08467379419346 gap_pred_energy=-167.88378136899166 gap_fmax_final=0.000906536344729805 gap_converged=1 pbc="F F F"
Si      12.17563392      13.86486886       8.21111029
Si       8.37729737       6.90478428      12.20982539
Si      12.92285472      14.24710137      10.58904063
Si      13.63490050      12.28247331       6.89984826
Si       9.90960230      14.64691254       7.43796942
Si       7.76500245       8.18939799      14.08374436
Si      10.51938530       6.39738042      11.43001038
Si       7.64894053       7.22754301       9.98829389
Si      11.64723536      10.94783238       6.58857111
Si       9.02779371      14.23092653       9.68591410
Si      12.45359316      11.95259282      10.73808866
Si       8.43402779       6.26876332       7.97183387
Si       7.51079738       9.92037911      12.37037635
Si      12.04219718       6.82644267      13.18773652
Si       9.92554199      12.26449697       7.52323381
Si      10.64882026      13.92611649      11.31355839
Si      13.14747861      10.76855042       8.64652464
Si      10.61150251       6.26152325       9.09947365
Si       6.95743883       9.44230267      10.16215076
Si      10.16107571       8.27186094      13.68915525
Si      13.09012687      10.62996101      12.77060897
Si      11.37370450       8.81886999       7.61780804
Si       7.28337623      12.28579417      12.72937150
Si      12.83228628       8.50945358      11.69549592
Si       8.96458101       8.57727967       8.26519224
Si       9.65255509      12.54743810      12.97403062
Si      13.25491184       8.51166672       9.38825752
Si       8.14579653      10.82784855       8.19878528
Si      10.82614857      10.53540065      13.37157490
Si      12.60889380       6.82534308       7.70161023
Si       7.44172646      12.59922371      10.33746377
Si       5.97168668      11.29836649       8.92867634
Si       9.62659354      10.08383389      11.36286746
Si       9.83047725      11.92484892       9.90387228
Si      10.85109829       8.45750462      10.20300768
36
Properties=species:S:1:pos:R:3 config_type=qcd gap_pre_relax_energy=-172.11542244987982 gap_pred_energy=-173.10374087081482 gap_fmax_final=0.0008997216847324462 gap_converged=1 pbc="F F F"
Si      10.76786118      12.16377993       6.38948304
Si      14.72322579      12.94945520      10.61500236
Si      11.35298596       8.45871159      13.10520655
Si       8.93541318       9.55586329      15.57758639
Si      10.89529762       6.49149055       8.85771010
Si      11.08969228      10.55130150      15.49590001
Si       7.77190463       9.62664227       8.30180967
Si      11.15773870      12.89791408      15.89841221
Si       9.90970887      14.24098115      11.76293087
Si      12.15607146      14.74037538       9.08866286
Si      13.08323304      11.71512810       7.30644320
Si      10.36029437      13.38185267       8.53497657
Si      13.86100208       9.33124312       7.30380459
Si      11.57050494       8.47370256       7.44524604
Si      13.29889620      10.67646989      12.99759922
Si       8.25064981      13.80336676       9.86189195
Si       8.10091120      11.24862864      10.33313806
Si       8.02067533       8.28128493      12.12400564
Si      11.83576080      15.86194314      11.31042063
Si      12.61009601      12.67758598      14.03336789
Si       9.30286547       7.49117031      14.19078171
Si      14.33610914      13.76922731       8.24206785
Si      11.65835828       8.20795719      10.56969996
Si       8.98917691       7.93876218       9.76533904
Si       9.87154478      12.82287150      13.91203047
Si      12.86226310       9.13515619      14.73756663
Si      13.31113622      14.04601365      12.19051896
Si      15.12963171      10.55301517      11.26851255
Si       8.26610708      11.08972099      13.91987739
Si       6.52513844      10.37159748      12.25514592
Si      13.41186863       9.81674034       9.53972385
Si      10.02334093      10.20378194       7.49023812
Si      12.55295236      12.37118956       9.76964915
Si      11.56103701      12.20829434      11.91570190
Si       9.91939871      10.45938213      12.36678982
Si      10.74044130      10.60069245       9.73605229
36
Properties=species:S:1:pos:R:3 config_type=qcd gap_pre_relax_energy=-171.93032925208922 gap_pred_energy=-173.36068658195154 gap_fmax_final=0.000987741939393938 gap_converged=1 pbc="F F F"
Si      12.75849768      12.83032853      13.67508399
Si      12.24414790       8.86022024      12.97993139
Si      10.09775311      13.54303576       6.06994944
Si      10.06504240      11.82114030       8.94336772
Si      10.36153707       9.40406806       9.13528670
Si       8.01109395      12.23015928      10.04258861
Si       8.17552070       8.89240232      12.53790229
Si      12.61289484       9.56757925       6.21683335
Si      12.87665690       6.45258747       9.45111990
Si      12.92590125       8.98466418       8.76356561
Si       8.73987281       7.10643429       7.17415194
Si       6.86050779       7.40496700      11.01488483
Si       7.96129253      14.76300391      10.00798631
Si      12.25975966       6.80801893      11.91421339
Si      10.37945588       5.54662354      13.07656499
Si       8.53888182      11.18572190      12.33949456
Si      12.01780553      11.98824898       6.86927922
Si      10.56275078      11.59321097      14.18229481
Si      14.46646390      10.70370257       9.98803379
Si      10.90648740      11.63219110      11.04341198
Si       6.65162660      11.00405812       8.23785728
Si      10.11139814      14.49744351       8.53785176
Si      10.35214341       6.51960613       9.08848062
Si      12.38589918      14.96440131       9.71670393
Si       9.64695606       7.79860027      14.00761919
Si       9.03802499       6.07428311      10.98457205
Si      12.92346710      12.54902430       9.16590767
Si      13.06983935      10.84047393      12.09414436
Si      11.22281510       9.33142972      15.22268509
Si      10.31390599       8.49773702      11.18132722
Si       8.33579595      12.92358000      14.20207413
Si      11.42657745      13.97916784      11.83930850
Si      10.06155033       9.21473940       6.43021475
Si       8.66575653      11.41635716       6.63299027
Si       9.14576577      14.22229060      12.16856389
Si       7.70735815       8.72970303       8.94495847
37
Properties=species:S:1:pos:R:3 config_type=qcd gap_pre_relax_energy=-177.16676014999678 gap_pred_energy=-178.1525690887364 gap_fmax_final=0.0009981097963978535 gap_converged=1 pbc="F F F"
Si      12.50832374      11.02797776       7.63097098
Si       5.84895518       9.88096600      10.00228902
Si      11.14907299       9.04028989      14.81704596
Si       6.21440522       7.92943211       8.66937229
Si       9.89244953       9.36967574       6.95244359
Si      12.94847352       9.50786432      13.08649192
Si      10.83904178      13.59637795      13.39619144
Si       7.33422662      12.62135912      11.27414337
Si      11.54941907       6.25430749      11.30043673
Si      15.00757551       8.26212862       9.41528956
Si      14.42285763      11.56148005      12.56460889
Si      10.22518078       7.68315587      12.87069114
Si       9.67079548      12.73761552       8.10563984
Si       7.40553865      11.77127045       8.60296421
Si       6.67952728       9.19990070      12.09994498
Si      13.15730861       7.91485522      11.12989203
Si       8.19029494       7.52262021      10.00087117
Si      11.27797755       7.36253221       7.11669130
Si      10.70620714      11.51142914       6.24605667
Si      10.49125992      14.90951668       9.08982038
Si       7.40632355      11.06670453      13.26202107
Si      13.05712534       8.74463905       7.89813622
Si       9.93854271      11.14523112      13.89674408
Si      14.24338658      12.53946856       8.31977939
Si       5.39730420      12.31006644       9.71748202
Si       7.72699894       9.55416987       7.90181958
Si      13.22795851      13.86295512      12.33035069
Si       7.78783336       7.08475506      12.37058715
Si      12.43000752      13.42850028       9.87540047
Si      14.81190983      10.77550058      10.10678076
Si      10.45286422       7.15458057       9.36781676
Si       9.35335725      14.23287392      11.32965595
Si       9.14046202       9.48077242      11.86474924
Si       9.70386893      11.72696533      10.20005073
Si      11.73250644      11.60708947      11.79863468
Si       9.70998516       9.44498036       9.40871190
Si      12.10500879       9.92032678       9.72375837
37
Properties=species:S:1:pos:R:3 config_type=qcd gap_pre_relax_energy=-175.85881661245037 gap_pred_energy=-176.4059157842995 gap_fmax_final=0.0006207350260245411 gap_converged=1 pbc="F F F"
Si      16.00520906      10.98040586      12.72349350
Si      18.39768905      14.36544425      12.75036413
Si      17.44496574      10.69865044      14.63359536
Si      16.58575200      13.00981678      11.51292031
Si      19.06239167      10.87244042      12.73959781
Si      17.46556803      10.71429397      10.82685164
Si      20.52409081      12.79575675      12.75537603
Si      18.86848024      12.61786408      14.50994058
Si      18.88759594      12.63235359      10.98164324
Si      16.57245956      12.99973295      13.95695277
Si      14.86402762      14.36223436      10.56968299
Si      14.09723765      15.05019901      12.73007586
Si      11.11128270      12.86747999      15.22775926
Si      11.13999070      12.88944707      10.17986051
Si      13.21244406      12.86847981      11.34335334
Si      13.65561446      10.99614567      12.71068378
Si      13.19711389      12.85705888      14.08835058
Si      14.84028319      14.34395093      14.89280788
Si      10.13940380      11.12083183      13.95169955
Si      10.15480639      11.13091357      11.42817773
Si      11.67646281       9.72147465      12.69364462
Si       7.91017233      11.41914904      12.67701859
Si       8.37595499       9.64848577      10.87797015
Si       6.84377323       8.99144571      12.66100850
Si      10.53774737       8.67609320      14.55912204
Si       8.35411341       9.63457968      14.46804844
Si      10.56084351       8.69121192      10.80590419
Si       9.05666561       8.05671305      12.67086759
Si       8.71600622      16.68068494      13.90493298
Si      10.28835440      18.06583661      12.71897670
Si       8.73076677      16.68589256      11.50709092
Si      10.41372601      14.69747374      11.49327014
Si       8.25795045      14.51145415      12.69816184
Si      10.40102174      14.68900419      13.92465198
Si      10.99860196      16.92516430      14.81207675
Si      11.96499390      16.12812919      12.72260009
Si      11.02228026      16.93954856      10.62730913
37
Properties=species:S:1:pos:R:3 config_type=qcd gap_pre_relax_energy=-176.13677005628995 gap_pred_energy=-177.48148425227362 gap_fmax_final=0.0009430829121387592 gap_converged=1 pbc="F F F"
Si       8.88877669      15.04413827      10.46373864
Si      11.55455460      15.27547540      10.58276381
Si       8.03135909      13.00227130      11.89288636
Si       6.12984781      11.58594540      10.72967668
Si       8.84885208      13.57397865       8.28125674
Si      12.76761279      14.18993281      12.62320650
Si       9.16919172      12.45880422      14.18815306
Si       6.71582630      12.03590914       8.21945656
Si      12.44241009      13.51521597       8.83215234
Si      10.44424106      12.86869526      10.47781034
Si       7.27356126       9.85262590       6.92640423
Si       7.85237098       8.41916326       8.99648436
Si       6.31412114       8.92998526      11.03689227
Si      11.49514006      13.50568625      14.82455190
Si      10.96085279      13.50024742       6.73459375
Si      15.01862798      13.01251648      12.00008459
Si       8.57638845      10.45588536      10.88283774
Si      11.51191109       9.03811503      15.50295123
Si      15.23778091      11.60066185      14.20652954
Si       8.20206519       8.30168444      12.74021561
Si      10.50733559       9.79048879      11.89022963
Si       9.14815970      10.78938628       8.41172221
Si      10.19604215       7.61706319       9.81442716
Si      12.72571770      11.23446142      14.83518548
Si      14.03718250      11.69784784       9.83078025
Si      13.72863924      10.70256739      12.35068191
Si      12.11177352       9.49176471       9.71789369
Si       9.28929323       9.87375459      14.50646735
Si      11.24683169      11.90144554      12.46007632
Si       9.84911738       6.42414465      12.10178892
Si      11.75292515       7.82330208      13.20927702
Si      12.32031883       7.23213778       8.20860327
Si      12.95664164       9.47752071       7.01239764
Si      11.26769960      11.20124799       7.72946169
Si      15.18193728       9.94623311       8.24218166
Si      13.67214881       8.51959551      11.72536350
Si      14.38558129       7.92293805       9.62365344
38
Properties=species:S:1:pos:R:3 config_type=qcd gap_pre_relax_energy=-181.98043923656633 gap_pred_energy=-183.07517559424286 gap_fmax_final=0.0008985774981046148 gap_converged=1 pbc="F F F"
Si      12.21987328       8.78096796       6.39586748
Si       5.88045872      11.52684557      11.47883342
Si      10.88844365       9.06824823      13.77021498
Si       5.59613892       9.76961895       9.67562196
Si       9.73632050      10.00182622       7.79230992
Si      13.23507372       8.24448291      13.17083928
Si      11.90042132      12.86125074      12.76046914
Si       8.37603349      13.69077633      11.97369533
Si      10.01252413       6.42770697      11.97847083
Si      13.11571606       7.05936576       9.44969271
Si      13.86141389       9.92535144      11.25833173
Si       9.07444365       7.35526030      14.19540759
Si      11.16200544      12.19935297       6.72164365
Si       8.06628825      12.97916039       9.33603103
Si       5.92853113      10.66093475      13.87346020
Si       9.81763776      13.88827755       8.09575872
Si      12.60329284       6.12039435      11.80111618
Si       7.62081358       8.68451697      10.68982994
Si      10.41871407       7.66985663       8.74561025
Si      10.37140770      10.18069411       5.31382834
Si      11.47762655      15.06738239       9.60365503
Si       8.08273329      11.83550443      13.38707433
Si      12.01036863       6.39140793       7.22297230
Si      14.25523907      12.43993730      11.79456134
Si      10.42523778      11.27198496      14.09680805
Si      13.57471420      10.08324438       7.81553715
Si       6.35315148      13.90713762      10.76665293
Si       7.64723922      10.71868473       8.98902953
Si      13.69711511      12.47620040       7.08429489
Si       7.62410597       9.03244439      12.94737497
Si      13.13039588      13.07156569       9.55161047
Si      15.04688249       8.73506057       9.31765458
Si       8.49660458       6.42306320       9.91030924
Si      10.57727901      14.95032015      12.03736098
Si      11.87815371      10.63782133       9.36105889
Si       9.58126600      10.27372253      11.67126123
Si      10.42716584      12.63186356      10.48842757
Si      11.45608010       8.58467632      11.10423480
38
Properties=species:S:1:pos:R:3 config_type=qcd gap_pre_relax_energy=-180.68537445063862 gap_pred_energy=-181.9937822673253 gap_fmax_final=0.0007829786627896271 gap_converged=1 pbc="F F F"
Si      16.65297042      14.26056845      12.89666626
Si      18.63313096      10.59438862      12.87830287
Si      18.11683853      14.34949227      10.99395054
Si      16.98707811      12.15379975      14.10216949
Si      19.70185307      13.99135764      12.88691782
Si      18.12799362      14.33650313      14.79144329
Si      20.92735840      11.90860037      12.87631321
Si      19.30531441      12.27533470      11.12018017
Si      19.31550871      12.26324533      14.64417009
Si      16.97980736      12.16217123      11.67494716
Si      15.09547580      11.02070923      15.03488671
Si      14.13951990      10.43157839      12.89141807
Si      11.71782278      12.98359185      10.29442152
Si      11.73530107      12.96634931      15.52185562
Si      13.71269816      12.75633634      14.26399718
Si      14.32278932      14.59445538      12.90468717
Si      13.70392687      12.76533693      11.53715486
Si      15.08247594      11.03544735      10.74599656
Si      10.93972734      14.76846354      11.63522090
Si      10.94848222      14.76020533      14.19805846
Si      12.48805433      16.11869501      12.91581044
Si       8.80778533      14.49562625      12.92304107
Si       9.06875820      16.12440672      14.74640998
Si       7.48865052      16.60280899      12.93424811
Si      11.25088294      17.18946002      11.08930082
Si       9.05643507      16.13595894      11.10856571
Si      11.26335646      17.17758119      14.75738841
Si       9.69780224      17.70459976      12.93034701
Si      10.64352311      11.37172476      11.63181784
Si      10.65186482      11.36334670      14.18111573
Si      11.82097679       9.68600596      12.89690206
Si       8.60597061      12.10450169      12.91567012
Si       8.50123530      10.45269101      14.72416422
Si       6.85174643      10.35022127      12.91576097
Si      10.38371802       8.93891943      11.06936124
Si       8.48919861      10.46475146      11.09718761
Si      10.39597088       8.92693555      14.72931589
Si       8.75143532       8.77726815      12.90427281
39
Properties=species:S:1:pos:R:3 config_type=qcd gap_pre_relax_energy=-186.78266770378912 gap_pred_energy=-188.31239361043083 gap_fmax_final=0.000916818106742614 gap_converged=1 pbc="F F F"
Si      11.62915664       7.72244664       8.90962131
Si       7.70767890      12.96420713       9.15620856
Si       9.36850094       6.59716435      11.51673893
Si       8.80356837      13.31084472      12.45641099
Si      10.29252026       8.85650007      11.87236810
Si       7.03348083       8.52619949      10.05448552
Si      12.13533173      14.50130127      12.05326720
Si      12.51619736      11.17156300       8.23932107
Si      10.90728012      13.14381194       7.91497014
Si      11.80365655       9.80817544      10.29023627
Si      14.11973615      10.99636700      10.52404011
Si      14.23787587      11.58732015      14.58630719
Si      12.06306798      15.42806079       7.91521254
Si      10.66753135      15.00674544      10.01248695
Si      13.23040767       6.65745173      10.54394527
Si       7.11143964       7.30995921      12.30708414
Si      11.78137559      11.75429450      14.11650406
Si      11.54281541       6.80817607      12.38503281
Si      10.58983614       9.51314750      14.43593985
Si      13.78980230       8.84306462      11.31134009
Si       8.69281423      12.43223139       6.81237205
Si      11.67927172       9.19475095       6.85035307
Si       9.27830501       9.95715655       7.46913126
Si      11.96817430      11.82182900      11.78214150
Si       9.33203170      10.11317211      10.07935270
Si      14.73479214      11.93455785       8.41119695
Si      14.41954532      14.94444645      11.63655625
Si       6.74763237      11.04237997      10.60835741
Si      10.12775576      12.25733450      10.37158609
Si      13.75581277      14.09439492       9.32414223
Si       8.15761458      15.07105832      10.61686392
Si      12.10503005       7.47210690      14.77020276
Si       7.63046260       7.90664088       7.62954756
Si       8.15458026       9.41552859      13.41387244
Si      13.52352241       9.28930040      13.74432178
Si      10.67875576      14.05210482      14.11049780
Si      14.19869891      12.58084722      12.26333836
Si       6.90235978      11.64506312      13.09405354
Si       9.39064832       7.07736279       9.21965897
39
Properties=species:S:1:pos:R:3 config_type=qcd gap_pre_relax_energy=-186.0246056501893 gap_pred_energy=-187.40811308973582 gap_fmax_final=0.0009550538077246136 gap_converged=1 pbc="F F F"
Si      10.68238884      12.10666765       6.10702216
Si      11.40569260      10.06353519       7.08887910
Si      12.02656288      12.93633488       8.05006077
Si      13.77735862       9.68334250       7.31296514
Si      13.89600415      11.65811026       8.60634629
Si      10.26959341       8.46820005       8.34278792
Si       9.58763132      11.71012801       8.16657714
Si      12.36870957      15.34447972       8.70130660
Si       8.08617874       7.68760837       8.83522526
Si      12.04473754      11.43576289      10.36761307
Si      11.82814610       7.31120039       9.74579400
Si      15.96854605      12.97518307       9.31408401
Si      13.42988391       9.02575735       9.53268801
Si      14.21336426      14.54939812      10.26021586
Si      10.52588061      15.32654177      10.39409273
Si       8.31292897       9.98829523       9.20002345
Si      10.06776856      13.06280010       9.99986526
Si       8.92354799       8.46144254      11.04266157
Si      13.14027313      12.58958744      11.96178841
Si      11.19012697       9.09620869      11.13356475
Si       7.79363281      10.50535774      11.54136042
Si       9.07002780      12.39371426      12.02227795
Si      15.87041451      12.03047849      11.72019462
Si       8.21607901       8.71505844      13.34643861
Si      14.22281125      15.06978960      12.78883681
Si      14.40502050       9.95848177      11.69100244
Si       6.19459865       9.88598659      13.32847068
Si      13.68111962      11.78742455      14.50277154
Si      11.63878689      14.77974374      12.60657613
Si      10.22414942      14.16988245      14.70125023
Si      11.00082214      11.87479173      13.31965030
Si      11.49718476       9.23273380      13.62449480
Si      15.74233560      13.32394642      13.97780635
Si       7.94238387      13.50364095      13.77071061
Si       7.75876813      11.22232138      14.57884976
Si       9.86425622       8.19413045      15.03028408
Si      13.99433098       9.26132440      14.11221351
Si      11.54683653      12.32294091      15.98238412
Si       9.81274389      10.50929493      15.41249238
40
Properties=species:S:1:pos:R:3 config_type=qcd gap_pre_relax_energy=-191.6035035293169 gap_pred_energy=-193.29277711562807 gap_fmax_final=0.0009837236850800005 gap_converged=1 pbc="F F F"
Si       8.64478612      14.69819376       8.08171837
Si      10.41837151      14.84597094       9.93212917
Si       6.73610500      10.71990046      10.63296902
Si       7.15929429       9.23388438      13.57114095
Si       8.56013203      12.39692237      13.36733718
Si       9.68865946      11.48913910       5.19497098
Si       8.61875739      10.63203349       7.33423196
Si       5.76416923       8.46553811       9.76586051
Si      11.37703953       9.10396700      10.26157710
Si       9.92192003      14.54560942      12.50659582
Si      13.13181832      11.54266844       7.71147941
Si      13.70122396       8.00431448       9.11941566
Si       9.81323802      12.41477277      10.80584044
Si       6.12595887      11.52847821      13.01089256
Si       9.65797876      10.04452950      12.81242893
Si      10.45924620      13.34865974       6.84894694
Si      10.69656916      11.36328743       8.96202194
Si      14.72389535      10.33509876       8.81920925
Si       9.10209055       9.29060042      10.66601422
Si       7.97275537      12.41545497       9.07141636
Si      13.49627645       9.59765589      14.80709125
Si       9.43262554       6.47486800      10.77219117
Si       7.18339919       7.45031273      11.66487257
Si      14.25715112      13.56137698      11.32747380
Si      11.28175347       8.43226339      14.27773616
Si      12.02304087      12.97268456      12.56333940
Si      15.51452544      11.25281771      11.06226113
Si       9.02957186       9.23678812      15.38874861
Si      12.99747734      13.90130688       6.79853245
Si      11.65616608      11.31323620      14.46066481
Si       7.92153390       8.37413780       8.34349196
Si      11.61943876       7.12408696      12.07503556
Si       9.41121693       6.26625086       8.19880590
Si      11.43052170       7.83906748       7.86239211
Si      11.30459833      10.07555876       6.60076764
Si      12.73539445      13.92330686       9.29470808
Si      13.92938194       9.53076679      12.24176336
Si      12.81034340      11.35295332      10.49236100
Si      14.13146465       7.07083598      11.47106403
Si       9.50190948      11.77250103      15.76230221
40
Properties=species:S:1:pos:R:3 config_type=qcd gap_pre_relax_energy=-191.3840033013535 gap_pred_energy=-193.56784082593757 gap_fmax_final=0.0007781444456052086 gap_converged=1 pbc="F F F"
Si       5.77009487      10.98840119       9.79253596
Si       6.40931041      13.02624733       8.30846676
Si       5.71084032      10.86791725      12.39524871
Si       7.12528143       8.61449060      12.74899657
Si       8.86159737       8.12521082      14.63263475
Si       7.06657958      13.09215366      12.67298898
Si       9.44756037      12.65880103      13.67673099
Si      10.27599296      10.14632806      13.87910694
Si       9.39397918      15.83527799      10.55656923
Si       7.93257820      13.68398841      10.28140329
Si      11.11657669      15.09860661       8.77055928
Si      12.84319051       6.27194879      12.59620825
Si      10.25875214       6.72227901      12.98416877
Si      12.62987926       6.58255133      10.01442524
Si      14.62844107       9.43822735      10.59844057
Si      14.51123244       7.72025982       8.67357162
Si      12.89124810      10.47499382      13.76578159
Si      14.31563467       8.42674952      12.97761075
Si       9.26667304       6.74884721      10.59939075
Si       6.72860942       6.88116400      10.87242631
Si       6.61538510       8.68671806       9.06477377
Si      10.61522091       5.54467595       8.76214740
Si      10.47035727       7.72005341       7.35757106
Si       8.32098164       9.15363435       7.20358637
Si      12.56828509       9.17666460       7.89426958
Si       8.44375936      11.77201096       7.23906469
Si      10.75325167      13.03125977       7.20952300
Si      12.97864539      11.66187903       7.22820288
Si      14.53162209      12.90493897       8.92443672
Si      15.94954889      11.71421127      10.76740678
Si      10.77743938      14.23990087      12.08079016
Si      13.26672775      14.82535034      12.33746020
Si      13.82746787      12.31799794      12.16570120
Si      13.45586952      15.05231524       9.81095442
Si      12.65193547      11.19264407       9.94914853
Si      10.52240745       9.00519342       9.78457785
Si      10.53109491      12.61094537       9.92752330
Si      11.74387496       8.71475494      12.01866629
Si       8.60713487      10.71209319       9.72781244
Si       8.41793840      10.79131446      11.98211803
41
Properties=species:S:1:pos:R:3 config_type=qcd gap_pre_relax_energy=-196.67376172810728 gap_pred_energy=-198.70573205545216 gap_fmax_final=0.000988519966210984 gap_converged=1 pbc="F F F"
Si      14.06778810       7.72855271       8.50172188
Si      12.24593103       6.98234205      10.33146931
Si       5.27152594      10.30544958      13.10814790
Si      11.33174816       8.34828893      14.57016652
Si       8.64582317      13.07549428      13.16680507
Si      10.97546828      10.93227371      14.63107769
Si      15.26999164       9.51225299       9.95417336
Si       9.69129698      15.25590906      12.23508120
Si       6.77250856      11.79319723       9.50635871
Si      10.44389862       9.60106475       6.63372114
Si      15.46931590       9.14097495      12.52832366
Si      13.13236058       9.23555543       6.50842998
Si      12.46749139      13.51996032       6.61316368
Si       6.36383420      12.38136977      12.00544985
Si       6.49686547       8.84453099      11.31952025
Si       7.50031764      10.10169446      14.38701030
Si      12.11929758      14.36799077      12.49484371
Si      15.03362586      12.78058351      10.86447822
Si       7.73766415       6.64982109      11.98040003
Si       9.89401684      14.05463343       9.96987582
Si       6.16344163       9.40246164       8.80412964
Si      12.99330536       8.20168509      12.51563924
Si       8.71163848       8.99430550       8.56060238
Si       8.21913216      13.43716629       8.08011208
Si      16.06774809      11.66016822       8.78270611
Si      13.76955583      11.52659548       7.59577895
Si      10.25981622      12.19326039       6.97261876
Si       8.81195663      12.02681468      15.51068217
Si       8.79910073       7.92318120      13.96639290
Si       9.64430621       7.50021269      10.46298741
Si      15.40923979      11.70034324      13.22386014
Si      12.28553875      14.10956477       9.08434317
Si      13.90483823      15.09665340      10.77436891
Si      12.96562919      12.34004799      13.86256527
Si      13.38864886      10.73875833      11.68807514
Si       9.42406540      11.37637364       9.52892711
Si      10.81201263      11.96945815      12.01524875
Si      11.86515208       9.21695081       8.86792615
Si      12.24332014      11.51994440       9.91754884
Si      10.33762082       9.32438593      12.19708310
Si       8.48501766      10.62158310      11.77004053
41
Properties=species:S:1:pos:R:3 config_type=qcd gap_pre_relax_energy=-195.88158776805668 gap_pred_energy=-197.67403754114653 gap_fmax_final=0.0009461326311895372 gap_converged=1 pbc="F F F"
Si      11.63905968      13.18781325       7.74395611
Si      12.78764719       9.99833496       7.46509495
Si      10.49714313       9.52203137       6.46447610
Si       9.87260722      11.92232263       6.85495290
Si      13.94047993      12.26376856       7.42167707
Si       7.63540379      12.56685705       7.77749747
Si      10.64225261      15.33505109       8.60985667
Si      14.04266065       8.37830797       9.04114115
Si       8.63332496      14.22287532       9.37952801
Si      10.78104690      12.94247325       9.90234106
Si      14.49214200      11.68639369       9.89657693
Si      16.00022856       9.56687601      10.18861508
Si      12.48090458      10.15699833      10.53540332
Si       9.90318009       7.61223969      10.46190466
Si       8.58599850      11.52039215       9.63528424
Si      10.34567304       9.72792051       9.02411240
Si      11.05948429      15.36152726      10.95335579
Si      12.43589924       7.51515321      10.90032223
Si      14.71356288      13.46928673      11.82216411
Si       7.40912883      14.84530302      11.37706625
Si       7.25398278      10.68284796      11.62611787
Si      13.25179440      15.66764730      12.18347483
Si      10.46846608      11.70105235      12.53348851
Si      15.03167620       8.85561679      12.51065382
Si       9.31411806      15.62070438      12.47578430
Si      13.68064693       6.67564266      12.96365774
Si      12.09784525      13.22771438      11.77575091
Si       9.35307716       9.29726351      12.36603383
Si       8.11601705      12.86888908      12.48675991
Si      15.94680419       9.95645885      14.67704546
Si      14.67507658      12.12356374      14.07174417
Si      12.85488962      10.39026551      13.13949026
Si      12.07175532      14.50746095      14.20007650
Si       9.42208925      13.30456239      14.36194797
Si       9.89544127      15.59801696      14.82460642
Si      12.35001308       8.24904458      14.54666243
Si      13.82546605      13.70447451      15.92995592
Si       9.79096735       8.65426640      14.85387908
Si      10.44803244      11.11768984      15.19709678
Si      14.05105810       9.18390358      16.24988722
Si      12.78581898      11.39385243      16.15342383
42
Properties=species:S:1:pos:R:3 config_type=qcd gap_pre_relax_energy=-201.71014907818997 gap_pred_energy=-204.0940662786809 gap_fmax_final=0.0009318464707709582 gap_converged=1 pbc="F F F"
Si       6.35084944      11.11101089      13.40772818
Si       8.44014339      12.64372416       6.76020783
Si       7.11093839      14.15030575      10.96693197
Si       5.43274313      12.09594790      11.13233115
Si       7.03738343      10.42640276       6.98859544
Si       8.77685692       6.78592878       9.59296848
Si      10.95092802      12.21075611       6.31382468
Si       6.92371835       8.13961377      10.84413912
Si       9.05623101       8.35578869      14.62657435
Si       9.73965386      10.88076619      14.61549219
Si       7.86296410      12.60418046      14.92734740
Si      11.57053701       6.70083638       7.56777214
Si      10.99873010       9.83849968       5.08121214
Si      12.91879979       5.74053119       9.56539786
Si       6.22959193      10.21661664       9.49388820
Si      11.24536899      13.86873327       9.65077721
Si      14.47907460       9.32329753       7.72732456
Si       8.78301854      13.81397710       9.02236163
Si       9.05867715       6.22351257       7.05783836
Si       6.68645572       8.51751189      13.44282135
Si      10.86758447       6.24163021      11.04410607
Si      12.90526020       8.21366517       5.91762965
Si      12.72249591      13.71900035       7.52013930
Si      11.37157279      14.63564119      12.18738123
Si      12.86855357       9.23148643      13.23404723
Si      14.18699670      11.47795744      11.28858261
Si      12.36978699      11.28562189      14.74567700
Si       8.91016138      13.80035793      12.86407689
Si      11.11273834       7.33366291      13.37613650
Si       8.96871486       8.75268070       6.36835773
Si      15.08988403       9.14226606      11.95313931
Si      13.36269851      13.14385038      13.14698044
Si      13.70258158       8.18790350       9.95771145
Si      13.80505909      11.69030706       8.68246257
Si      10.97486271      12.01378070      12.53576890
Si       8.11950288      11.60804574      11.38907969
Si      10.31949261       8.90414923       8.78572999
Si      11.29340697       9.04674415      10.90498936
Si       9.01164502       9.37832188      12.11595818
Si      11.60050236      11.33142068      10.44849353
Si      11.88591388      10.08775832       7.64567388
Si       8.79719131      11.02507639       9.00161424
42
Properties=species:S:1:pos:R:3 config_type=qcd gap_pre_relax_energy=-200.34551581077565 gap_pred_energy=-201.73304749178058 gap_fmax_final=0.0007162169519213185 gap_converged=1 pbc="F F F"
Si      12.15874345      10.34438654       6.79827184
Si      13.39218106      11.91794497       8.14893161
Si      12.64131836      14.07229672       8.63325008
Si      10.32926779      10.98159225       8.21929265
Si      10.52181940      15.18101378       8.08013227
Si       9.57020919      13.14992618       8.80161770
Si      15.39707756      12.95488943       8.76258039
Si      14.78257730      15.26015734       8.72097052
Si      12.70837706       9.35331740       8.90294133
Si       8.77535709       9.68660040       9.53372480
Si      12.13739702      13.07997110      10.83168025
Si       9.74679656       7.75834338      10.37255376
Si      11.99016877       7.01000295       9.48035761
Si       8.30590497      12.77083806      10.77116030
Si      10.29444526      11.52428239      10.52839060
Si       7.07798287      10.65272969      11.10383653
Si      16.65900301      11.77717612      10.37254907
Si      10.12221241      15.20661404      10.40333874
Si      11.47088169       9.45767880      10.86523524
Si      14.67067031      10.50334929      10.11473966
Si      14.04401378      14.68312360      10.89606616
Si      12.98447390       7.23272003      11.75336055
Si       8.11189636      14.93483609      11.66694750
Si      13.06067106      11.09096167      11.96512843
Si      11.95916230      15.17247385      11.91826346
Si       8.96947992       7.28837019      12.71828796
Si      14.99582372      12.74565555      11.77157962
Si      14.40959326       9.08377271      12.19176726
Si      11.35127902       7.79536718      13.30602668
Si      11.15713070      12.67435270      13.16457284
Si       8.48935775       9.78320030      13.04817831
Si      10.77631595      10.35588904      13.18773338
Si      14.74436964       9.69574031      14.59416298
Si       9.42300034      14.29254023      13.53217323
Si      11.40483095      15.50962479      14.20648259
Si      14.03978347      11.93311383      13.93446204
Si      12.35417277      13.36957755      15.02182891
Si      12.37423918       9.38625061      14.67522885
Si       9.08532198      12.76157196      15.27460829
Si       8.15676840      10.58429277      15.42502431
Si      10.63584105      10.57778207      15.68989253
Si      10.94238229      12.62797106      16.83496808
43
Properties=species:S:1:pos:R:3 config_type=qcd gap_pre_relax_energy=-206.32433738517483 gap_pred_energy=-208.8162664086887 gap_fmax_final=0.0008038195277824199 gap_converged=1 pbc="F F F"
Si      14.96751836      11.78191631      13.02135502
Si      15.65649840       9.35891166      12.35535326
Si      13.06120106      14.43145442      11.55166920
Si      13.33287147       8.54813336      13.13977941
Si      11.94692764      13.84683018      13.79612933
Si      13.10512773      10.71207151       6.96706906
Si      14.44608849       9.84661319      10.12596861
Si      15.11889801      12.29771432       9.46699590
Si      11.00356777       5.70839340       9.87107295
Si       9.60412328       7.22149128      13.42524098
Si      11.81444829       6.52882504      12.22901303
Si       7.22668270      10.21959637      14.80274402
Si      10.95746738      10.54792054       5.49159595
Si      12.05491217      13.75224391       8.15087300
Si       9.47020884      14.38199472      10.83670383
Si       7.52432796      12.56205032      13.73662454
Si      11.53801263      15.62396296       9.83403168
Si      14.21752656       8.55381020       7.90677367
Si      15.58245704      13.80440069      11.50816930
Si       9.70463771       9.66779545      14.38679895
Si      10.12145296      12.64126388       6.81265468
Si      14.29672961      13.02074514       7.12898501
Si      12.25668700       9.89475696      15.10379357
Si      13.46786429      12.23981427      15.13763869
Si       7.38121079       6.58123349      12.23460249
Si       8.79996973       7.08458570      10.08456271
Si       5.31483662      10.35040369      10.77700279
Si       7.80298754      12.58150731       8.01440158
Si       7.11989060      14.44431571       9.68819799
Si       7.82488803       8.04216614       7.88054770
Si       9.41782393      14.42609257      13.47993830
Si      10.16392479       9.02489696       7.44665062
Si       6.58609288      12.51888936      11.34204581
Si      11.96172593       7.80277226       8.81181561
Si       7.16586678      10.25897218       9.00934626
Si       6.92350150       9.15605962      12.43570080
Si      12.31575844      11.28581400      12.72361817
Si       9.47620715       9.22195490      11.48483628
Si      11.91383162       8.89044521      10.84615492
Si      10.04788840      11.81722202      12.90873131
Si      11.10228916      11.12969181       8.90017426
Si      12.61032645      12.04002153      10.33631556
Si       9.14606731      11.70157049      10.35964822
43
Properties=species:S:1:pos:R:3 config_type=qcd gap_pre_relax_energy=-205.12646600029956 gap_pred_energy=-206.5281840233783 gap_fmax_final=0.0008301485213197668 gap_converged=1 pbc="F F F"
Si      15.58350126      14.72227014       9.35478485
Si      13.88614399      15.66713918      10.89792607
Si      14.04161341      18.13280168      11.39802774
Si      17.38423126      15.98330228      10.71959663
Si      16.66383376      18.37093628      11.45195282
Si      15.39771469      13.29317359      11.27319965
Si      12.07854752      14.69354976      12.14702403
Si      11.19348798      12.48692806      12.85022982
Si      19.51434157      14.85288364      11.88171623
Si      15.07963686      10.98940293      11.93103879
Si      15.18913693      16.51701042      12.73831278
Si      13.55321390      12.61206490      13.07891644
Si      13.21336029      17.74526383      13.74166267
Si      11.16705079      16.56330562      13.34826553
Si      17.27891420      17.78456984      13.91423598
Si      17.07804120      14.06079622      12.63313618
Si      19.21142632      12.51580416      13.18030631
Si      19.36262488      16.29195747      14.05487560
Si      14.78495861      13.12055263      14.94041484
Si      16.80213288      11.53161107      13.78705632
Si      12.52102934      15.28437170      14.82840354
Si      17.03948810      14.88081334      14.93302722
Si      11.07211027      13.45192749      15.16927897
Si      19.12854392      13.26610758      15.71118240
Si       9.87407790      15.68256443      15.30107208
Si      20.02314926      15.60776810      16.46003018
Si      16.84567506      12.18847545      16.32254154
Si      13.82830546      12.60728800      17.26272379
Si      16.83518593      18.79152767      16.23594711
Si      14.61834907      15.19087434      17.40987312
Si      14.35794912      18.11222003      16.00789592
Si      11.53433678      12.38506261      17.41187813
Si      17.58083535      16.41719567      17.05977970
Si      11.56926288      16.26839719      16.93107190
Si      15.36312746      13.39957779      19.34787669
Si      14.86159303      15.71282438      14.98516526
Si      15.65513896      11.30082687      18.35819312
Si      12.55740307      18.34003355      17.76384025
Si      12.22104870      14.57500011      18.40521125
Si      13.50588175      14.65173368      20.64805131
Si      13.91094613      16.79718709      18.92903387
Si      16.50583297      15.47849852      19.21949139
Si      15.12681719      16.67440073      20.97575200
44
Properties=species:S:1:pos:R:3 config_type=qcd gap_pre_relax_energy=-211.68073353363462 gap_pred_energy=-212.018802845719 gap_fmax_final=0.0008704193180125562 gap_converged=1 pbc="F F F"
Si      11.40022612      12.15774976       6.84577862
Si       9.80538807      13.73961147       7.60163120
Si      10.74965607       9.87690256       6.58133279
Si      13.27088757      12.58709309       8.22185408
Si       7.87509899      13.77516334      10.82619896
Si       6.53608903      13.03814438      12.61777610
Si       6.81030994      10.79539028      11.84317445
Si       8.20775024      12.50384687       8.89471802
Si       6.87414963      10.77396577       7.94639212
Si       5.97539776       9.67220993       9.92400401
Si       8.65867306       9.26294925       7.49038370
Si       8.87237380       7.91572488      11.98127279
Si       7.60355433       9.24582479      13.52207327
Si      10.60304393       6.44652113      12.69916963
Si       7.62936622       7.92489787      10.00340833
Si       8.73280627      12.77534893      13.55106750
Si      10.31768457      14.54205902      13.34993082
Si      12.17636352      13.18107527      12.74558177
Si       9.16005056      10.69082584      14.57521146
Si      11.44344154      10.01918729      14.74982963
Si      13.14695053      11.59386344      14.25925493
Si      12.09058405       8.12990005      13.48976271
Si      11.03667740      14.54846717       9.51929874
Si      13.38435545      14.79581952       9.15662845
Si       9.59558172      15.41853058      11.19506086
Si      13.77555133      13.47762947      11.06886626
Si      14.27303902      10.33035261      12.53323972
Si      15.44367379      11.74147554      11.02343868
Si      14.42947641       7.98678884      12.96592395
Si      13.47094631       7.57596998      10.85413985
Si       8.40327861       6.93320372       8.01253387
Si      10.63268592       7.07973575       8.85699402
Si      11.73924365       5.92111633      10.61030368
Si      14.95723355      10.99366001       8.75737925
Si      13.49354851       9.15271401       9.13079563
Si      12.19569752       8.16991764       7.36900649
Si      13.06626134      11.23460087      10.34041243
Si       8.43017560      10.24556945       9.80051967
Si      10.79617471      12.03146346       9.20726667
Si      11.74167271      10.59276176      12.39391638
Si      10.89420781       9.61029301       9.00557609
Si      11.14093353       8.31233813      11.16036459
Si      10.11483032      12.96253683      11.45164375
Si       9.32394900      10.51584012      12.14592411
44
Properties=species:S:1:pos:R:3 config_type=qcd gap_pre_relax_energy=-210.02377046426437 gap_pred_energy=-212.45499438652115 gap_fmax_final=0.0009734183315566674 gap_converged=1 pbc="F F F"
Si      14.72902359       8.60440347      15.19513025
Si      14.58581143      11.17362513      15.20342551
Si      13.39548260      12.67464222      16.98253175
Si      11.40404739      10.98795149      17.04151690
Si      12.23689921       8.80121879      15.85528581
Si       9.95068998      14.38176808      14.61509555
Si       9.62426393      11.92705285      15.34154210
Si      14.46964654      14.95331637      13.62570273
Si       8.10296714      10.42041387      13.83824573
Si      14.05918658       8.54138380      12.67020075
Si      12.46406275      13.73568243      14.75959338
Si      15.30664017      12.55796680      13.13262458
Si       6.93822778      13.92830097      12.03683373
Si      10.87417159       7.86070660      13.85339227
Si       6.43422942      11.35958341      12.08842308
Si      12.01752305      11.08991022      14.29250961
Si       8.14333306      14.62714952      10.02367027
Si      11.79464414      10.03692398      12.27348682
Si       8.29177327       7.84869759      13.62667559
Si       8.36537115      13.30999212       8.07224483
Si      12.38126745       6.59903593      12.16803083
Si       9.57152799      13.56243711      12.16074178
Si       9.68325306      10.96284967      11.68902136
Si       8.64273587       8.44021089      11.13363079
Si       9.96568926      15.18772495       8.62412100
Si       6.81184000       9.92607549       9.91968283
Si      15.27231434       9.94036310      10.76571399
Si       6.75103223      12.66405058       9.73666445
Si      13.56786444      11.88628986      11.11763209
Si      16.99001072      11.86406133      11.26347476
Si      11.13205499       8.05442330      10.48722044
Si      11.30703177      14.38254191      10.37587734
Si      13.71073444      14.66654496      11.20360677
Si      11.83850419      11.66584526       9.61218839
Si      12.14026098       9.29610501       8.82620302
Si      10.11990583      13.98740925       6.36130999
Si       8.89187552      11.23757322       9.20265019
Si      15.55429619      13.46267798       9.79657271
Si      14.61464995       9.02062416       8.44218143
Si      11.82807450      13.72609923       8.00671234
Si      13.80636674      12.45679085       8.23997406
Si      10.41138163      11.81540277       7.47512881
Si      11.81529951       9.95195722       6.57500104
Si      14.25261425      10.67079691       6.53710910
45
Properties=species:S:1:pos:R:3 config_type=qcd gap_pre_relax_energy=-216.95704609971307 gap_pred_energy=-218.4667896465898 gap_fmax_final=0.0006901806236160064 gap_converged=1 pbc="F F F"
Si      11.56420208      14.96986464       9.79259710
Si      15.26595873      12.02426400       9.79706118
Si      13.90284840      12.91063689      11.94018414
Si      13.05130868      15.36699757      11.87215166
Si       9.11226602      15.83786385       9.99928756
Si       8.12189442      13.85017762       8.70509467
Si       6.08105936      12.32162345       9.04380963
Si       8.66336983      15.47117586      12.56204597
Si       7.32950121      13.27790256      13.00427740
Si       5.55388590      11.96824003      11.61517757
Si      12.79630743      11.09462449      14.80115133
Si      10.96175155      12.87416343      15.27248205
Si      11.03336981      14.62410398      13.30164620
Si      15.10703290      11.65240079      13.86228440
Si       6.71528367       8.07232083       9.80392073
Si       7.47290912      10.17037730       8.49085912
Si       9.17029378       7.42820907      10.39261070
Si       6.59725419       9.58100122      11.90182255
Si       9.03132460      10.46494338       6.33059571
Si       9.80591467      12.80439136       7.13260866
Si      11.16616188       9.03857915       6.88820762
Si      10.83968614       6.90759247       8.34793872
Si      13.62321435       9.70124968       6.51531325
Si      13.62132191      11.91952760       7.80675062
Si      12.10234525      13.98015089       7.38655119
Si      13.21076444       6.20094398       9.18169359
Si      14.01192288       8.67048565       8.84365185
Si      16.09111986       9.57691718      10.14368207
Si      12.36856033       6.88790287      11.55323958
Si       7.86293451       9.28954289      14.20393637
Si       9.99268246       7.87761082      13.81061880
Si      10.08403683       5.85798136      12.24806562
Si       8.95437528      11.65862298      14.11114944
Si      12.30866669       8.54181020      14.77689496
Si      14.12828780       7.30580195      13.42058609
Si      14.68113014       9.59333491      12.33022443
Si       9.70756342      13.35292944      11.15247221
Si      11.81858613       9.67376382      12.30666725
Si      11.48418620       9.00238837       9.97405512
Si      10.12114198      10.49570951       8.83335382
Si       8.13503476      11.74083776      10.78978762
Si       9.31945387       9.70345220      11.89998061
Si      12.92873521      10.75889524      10.43998597
Si      11.39006110      11.97291568      12.70255173
Si      11.43864023      12.25412108       9.43932318
45
Properties=species:S:1:pos:R:3 config_type=qcd gap_pre_relax_energy=-216.4304525911577 gap_pred_energy=-218.29032870639475 gap_fmax_final=0.000875445875307542 gap_converged=1 pbc="F F F"
Si      11.31317583      11.55065353      15.33542106
Si      12.33373432      13.89503847      14.78048229
Si      14.91290523       8.20004028       9.85182570
Si      13.23925542       7.66041988       7.95487229
Si       8.74639538      13.72459303      14.48736244
Si      11.41697606       6.10863014       8.83291237
Si       6.94175633      12.12899848       8.06307013
Si       8.51233417       9.86039916      14.51195713
Si      14.49406347      11.44856943      11.95398067
Si      12.57716841       9.28016636      15.48431462
Si       7.12126916      10.64937548      12.10434093
Si      13.32066207      11.77010963       5.81317662
Si       9.75173716       8.96543076       6.09830206
Si      13.51003848      15.88587236      11.36525234
Si       9.52853199      15.72952289       9.77840809
Si       7.14346281       7.47375312       9.33963281
Si      14.09727537      13.88514642      12.88148623
Si      14.36326754       6.97167853      12.04810805
Si       8.38503028      13.41255816       9.84641451
Si      10.05847508       6.31516813      12.88509290
Si      12.14368414       9.66507156       6.70731158
Si       9.57069740       7.89774011       8.44494602
Si      15.66778507      10.70145007       9.76714064
Si      13.76300722       9.25989692      13.17600095
Si      11.13845914      12.79661009       6.64624371
Si      11.33392833      14.70254377       8.32362605
Si       8.17777577       7.69853352      11.72750999
Si      14.25441508      12.26094100       8.18674376
Si       8.89964585      11.75701478      16.20193144
Si      11.90550243       6.88605242      11.21843786
Si      10.49313520      15.67800161      14.38456123
Si      10.65517717       8.53540386      13.99177544
Si      13.31495304      14.25739161       9.45914491
Si       7.89620608      12.81323075      12.25350188
Si       6.52420581       8.66446277      13.50259799
Si      11.03806858      15.20972764      11.84545393
Si       9.10756380      11.25713577       6.98260689
Si       6.80098072      10.06602664       9.62784705
Si      10.68969455      12.64699893      12.86154544
Si      13.00252912      10.11824348       9.22351854
Si       9.42433959       9.82748964      10.27469148
Si       9.88182192      10.59631303      12.39572634
Si      12.32030162      12.71011107      10.91474914
Si      10.48787898      11.99071816       9.25408055
Si      11.85834383       9.20438158      11.32950897
46
Properties=species:S:1:pos:R:3 config_type=qcd gap_pre_relax_energy=-221.18032257026977 gap_pred_energy=-223.47687587046363 gap_fmax_final=0.0008281378361344871 gap_converged=1 pbc="F F F"
Si       6.98303950      11.30139244      13.56558894
Si       8.60503241      11.01137198      15.55664947
Si       7.17140823      13.31242153      11.91419859
Si      10.38801697      12.14213555      14.05678232
Si      12.95054233      11.49965835      14.16440795
Si       9.21450416       8.86259351      14.31798259
Si      11.68951693       8.11311619      13.86926123
Si      13.60607913       9.21065039      15.23280684
Si      15.26864671       8.74370674      13.29070169
Si      16.85682651      10.55405575      12.21176939
Si       7.13470845       7.84645834      13.15608800
Si       5.18970907       9.55612115      12.87456571
Si       7.99345694       7.38632101      10.75060273
Si      10.53071892       7.12148890      10.40673768
Si      12.24941728       6.26533045      12.13865695
Si       6.04610215      10.22499743      10.46840220
Si       5.65327804      12.73397738       9.90049686
Si       7.88324986      13.14924335       8.73483566
Si       6.66416167       8.35775649       8.76022538
Si       8.87086015       9.46960902       7.95768325
Si       9.02965602      11.84806202       6.85187010
Si       9.09041752      15.17772081       9.81814580
Si       8.14769964      15.73285679      12.19870648
Si      10.23033563      14.66589464      13.37815064
Si      11.47190404      15.27092578       8.70808262
Si      13.46617891      15.80931083      10.38512115
Si      12.75377587      14.99266205      12.79048175
Si      11.29265973      12.80288868       7.77913272
Si      15.76278291      12.90391001      12.45959224
Si      14.31658839      13.71558264      14.41979851
Si      15.87919362      12.40135796       8.18611873
Si      15.34440308      14.01857070      10.17294257
Si      10.95050407       7.92693909       7.99076814
Si      13.21767887       9.21072470       8.03163087
Si      13.55534642      11.63711505       7.16466784
Si      13.85701313       8.05793198      11.19109024
Si      15.26239536       7.99976403       9.01572681
Si      16.18531210      10.30118990       9.70969312
Si       9.81132868      12.91007973      11.29578793
Si      14.08090735      10.76952517      11.93818472
Si      13.74415864      11.75039359       9.88732117
Si      12.02772106      13.45758127      10.63843402
Si      11.65900552       9.58326990      10.24537663
Si       9.85600157      11.32798406       9.56783863
Si       8.40502734       9.91020566      11.69525254
Si      10.84359914      10.14601696      12.34251059
46
Properties=species:S:1:pos:R:3 config_type=qcd gap_pre_relax_energy=-219.10647281626194 gap_pred_energy=-222.0621134931949 gap_fmax_final=0.0009092712790744158 gap_converged=1 pbc="F F F"
Si      13.26264901      13.66830718       6.83440915
Si      10.99234708      10.43513890       8.99601582
Si      10.33539074      16.39200382       8.65936648
Si      11.02494221      12.25809506       7.16741389
Si      15.11702695       9.89080842       8.82886969
Si      14.89105544      12.37150373       8.32915964
Si      12.77391140      15.67383367       8.42301387
Si       8.94241899      10.52446972      10.11987877
Si      12.86969789       8.64646387       9.27404207
Si      11.10830006      16.63313458      11.10563335
Si       9.88433125      13.84951922       8.90043294
Si      16.77886597      12.93767655       9.99079146
Si      13.11707780      11.11358756      10.44848546
Si      16.86652290      10.38634991      10.71734148
Si       7.79811911      12.76341554       9.89706075
Si      11.44799380       7.48191224      13.37555529
Si      12.44751905      13.04152016       9.38986438
Si      14.42933020      16.63498285      10.18233606
Si      13.31970297       8.43827319      11.83479063
Si      13.10144502      18.07673529      11.87101785
Si       7.55300958       8.54839771      10.99868141
Si      11.82955512      10.24726269      13.09224110
Si      10.71609426      11.41115857      11.44683728
Si       6.63701005       9.41025725      13.30878365
Si      13.47845430      16.18374167      13.62326763
Si      15.64632456      14.71877003      11.54489957
Si      15.77373583      15.05889259      14.07879230
Si       9.01558933       6.96846162      12.54043419
Si      10.55962441      14.71342949      12.77866249
Si       8.87349688      13.03755053      11.95211324
Si       9.28990985       9.71000798      12.75280590
Si      12.90940396      14.63903920      11.28695635
Si      11.91827442       7.52598007      15.88480653
Si      11.80983635      12.82120985      14.26985639
Si       7.59424807       7.40065775      14.67503963
Si       9.89685107      11.34572662      15.29741880
Si      15.45785794       9.56810386      12.77733766
Si      11.49710340      15.41793295      15.13227769
Si      14.85613532      12.02326961      11.72513994
Si      14.53776104      12.76289049      14.27921630
Si       7.82321027      11.71358833      13.87575428
Si       9.69465440       8.75523537      15.38056622
Si      13.08106523      13.72973402      16.40003467
Si      12.95675096       9.89357128      15.51585865
Si      11.62065724      11.65552355      16.83525828
Si      15.45488625      10.51202344      15.19162879
46
Properties=species:S:1:pos:R:3 config_type=qcd gap_pre_relax_energy=-218.88620988517397 gap_pred_energy=-221.6863773207868 gap_fmax_final=0.000924620432222119 gap_converged=1 pbc="F F F"
Si      11.06233052      10.62814122       6.85581514
Si      13.34077865      11.37848925      13.49221225
Si       7.73945632      10.65489257      13.37137599
Si      10.14996510      15.51251124      13.27476769
Si       9.46155351       8.97741512       7.48263030
Si      10.13002668      12.68921649       6.47277692
Si      14.14278078      14.35639301      10.70148329
Si      10.34048815      12.46931576      15.28212650
Si       7.00886868       8.66102616      12.01202699
Si      13.17256455       8.29160824      14.81943336
Si      12.79880970      11.20529293      11.17258463
Si      12.82924533       8.25511734       8.45064451
Si      12.36262614       6.35567203      13.77869126
Si      12.96200398       5.66581026      11.33515316
Si       9.40463701       7.86748521      12.23154732
Si       7.93718362      12.27474592       7.64163183
Si      11.15828020      14.67851796       7.32341335
Si      12.87299825      13.57003462      12.96919707
Si      13.47032554      14.07823166       8.15984057
Si      10.67631150       6.53529591      10.43374076
Si      15.44111835       9.49254101      11.06004417
Si      10.74091628       6.83067571       7.86437050
Si       7.09568170      12.04847144      11.48301908
Si       6.22351664      14.24293385      11.44228839
Si       7.10580349       9.86868535       7.63644815
Si       7.64664831      10.20795273      10.05860239
Si       7.73713530      12.39941327      15.22270814
Si      10.77841026       8.12039523      14.27613025
Si      14.68082440       7.21480790       9.97098976
Si      13.36544160       9.93099868       6.59522714
Si       7.96519942      14.08536542      13.31149561
Si      10.00341616      10.07898276      13.04874283
Si       9.46017309      12.28459367      10.47631579
Si      11.79023218      14.64377800      15.06706554
Si      10.06422312      14.55562675       9.39030306
Si      11.69465572      15.33911963      11.15920460
Si      11.61961940      10.29744149      14.77898141
Si      11.53737792      12.30361234       8.78667105
Si      10.15198826      10.09901947       9.38395810
Si      10.29172495      12.76770227      12.56143893
Si      11.71398896       9.12402496      10.83458823
Si      14.84678365      11.80329322      10.16568953
Si      13.97513612      11.78744318       7.99446986
Si      13.34882442       8.15426888      12.14272984
Si       7.84220204      13.84778010       9.60677722
Si      15.09642406       9.60455980      13.65934761
47
Properties=species:S:1:pos:R:3 config_type=qcd gap_pre_relax_energy=-225.9854498006252 gap_pred_energy=-228.16681909534822 gap_fmax_final=0.0009060659770443682 gap_converged=1 pbc="F F F"
Si      10.74497622       8.49791814      14.56735144
Si      14.55075215      11.00453518      10.79552880
Si      12.37426710       5.77778012       8.92309899
Si      10.89815521      12.87882463      15.85955637
Si      14.84422215      12.04491298      12.86122571
Si      14.47878152      10.40382146      14.72274448
Si      10.38697846       9.80985809      12.21462021
Si      15.78238928       8.73069313      10.69406564
Si      12.42777240       9.29241323      11.14616761
Si      10.43296117      16.32541125      13.03093382
Si      13.78428391      15.13512342      10.36183647
Si       8.75144024      13.03199353      14.38889378
Si       8.13205248       7.45027895       8.19462731
Si      12.35647754       7.10342422      13.09110180
Si      10.20251464      13.36739083       8.22220779
Si       8.04917321      14.37859050      10.81177182
Si       9.25054683      15.66162969       8.92564908
Si      11.37849300       8.46102253       5.51144678
Si       8.44981453       7.81289681      13.50930269
Si      11.20887826      15.73765762      10.59877602
Si       8.06269913      15.30009935      13.25828166
Si       8.14895967      11.07008340      12.75431259
Si      14.48473978      12.90263096       9.01248968
Si       9.85452375      10.45176752       6.21082331
Si      11.93027356      10.91559265      14.47215160
Si       9.12593274       8.48580685      10.49759473
Si       6.47360693       8.76263871      10.84555706
Si       6.53256584       6.31113656       9.94026183
Si       8.51704625       6.04647167      11.62333577
Si       7.62608449      11.87549965      10.34813698
Si      11.02470265       6.57350116      10.95794111
Si      10.23447078      13.69371061      12.26678021
Si      12.10776503      12.19946445      12.17383158
Si      14.01373613      14.21287069      12.77958465
Si      10.71318362       7.36933724       7.73487566
Si       7.47094377       9.81706925       7.30611016
Si      12.01554771      13.14476522      10.03470206
Si       5.77037107      10.61795364       9.16634262
Si       9.23658561      11.03501364       8.93637550
Si      13.79762861       7.93015052       9.16723281
Si      11.04992921      12.73079030       5.88929452
Si      13.47461848       9.18965985       6.85684519
Si       6.38410670       9.30037115      13.38740451
Si      11.89563196      14.52878354      14.15859044
Si      14.45908026       8.53664274      12.93677576
Si      12.86752886      11.66265339       7.37226549
Si      11.53425213       9.72080400       8.77264093
47
Properties=species:S:1:pos:R:3 config_type=qcd gap_pre_relax_energy=-225.22216087745568 gap_pred_energy=-227.24851639619504 gap_fmax_final=0.0008740834152197064 gap_converged=1 pbc="F F F"
Si      11.25803973       8.95221651       6.44139882
Si       9.27848445      13.08495519       6.31920275
Si      12.84006995      10.88499377       6.80795770
Si       9.52103537      10.67110199       7.22004077
Si      11.55177467      12.73031862       7.40060862
Si      11.58588622       8.28984957       8.92916018
Si      12.37134875      10.82667953       9.48908075
Si      13.16289523      13.98154970       8.81443721
Si       9.13857656      13.84663038       8.77233558
Si      14.95821381      10.95367582       8.16357998
Si      15.59578057      13.38799929       8.53805990
Si       8.42518922       9.73020370       9.38290605
Si       9.43777728       7.47650960      10.07885209
Si      16.00158858       9.06405503       9.54676064
Si      13.69297001       8.43978009      10.52829033
Si      10.04618533      11.71492849      10.13305571
Si      12.10353170      15.33360543      10.36316733
Si       9.79116656      16.17844083       9.69011730
Si       6.21737013      10.59091281      10.34593010
Si       7.30076399      12.89913494      10.37271757
Si      10.91103091      13.25524323      11.58736949
Si      13.82408999      12.36356485      10.49018982
Si      16.39207564      13.25678222      11.00416780
Si      15.79746324      10.75545370      11.44086372
Si       9.12880189      15.26372577      11.98886601
Si       6.68833293      14.60847897      12.12151037
Si      12.49920972       9.81802123      12.54708159
Si      13.88224311       6.81853057      12.54701038
Si      13.13952026      16.15798057      12.57103088
Si       7.23128884      10.43530071      12.63552377
Si       7.58018570      12.68597244      13.20126524
Si      10.16803178       8.37429645      12.42212927
Si      14.51119666      13.97497969      12.68569187
Si      11.11821193      14.98542085      13.66084310
Si      14.94905753      10.16628779      13.80305005
Si      12.36946036      12.35794184      13.10820786
Si       9.64858966      11.21396868      12.77772945
Si      15.08728851       7.75210937      14.66448082
Si      11.64183645       6.66450549      13.79380115
Si       8.10279787       8.51967956      14.04050183
Si       9.16132299      12.57436807      14.92035547
Si      12.70661537       8.70248306      14.93977193
Si      14.57192540      12.49524908      14.86660134
Si      10.55031702      14.24312601      16.02804924
Si      12.14391587      12.27222616      15.79508472
Si       9.46316604      10.26809420      15.27606890
Si      11.47059703       9.99588889      16.76231536
48
Properties=species:S:1:pos:R:3 config_type=qcd gap_pre_relax_energy=-230.80190431245896 gap_pred_energy=-233.67436779961335 gap_fmax_final=0.0008604913751988494 gap_converged=1 pbc="F F F"
Si      10.97718398      13.27475118       9.54007226
Si      10.78249682       6.97197858       9.12418313
Si      12.91143565       5.80730919      10.06067841
Si      10.85989392      13.07947654      12.89462067
Si      15.63536860       9.45497681      10.00161411
Si      10.63768605       7.61285696       6.64081903
Si       7.22202580      16.15568891      10.47696246
Si      13.23851092      11.03313137       7.07005246
Si      12.50336861      10.84556558      12.94552169
Si      13.19367641      14.62697367      10.50466687
Si       7.73509306      14.15008656       8.88286779
Si       9.24509745      13.35891270      11.00430489
Si      12.97056634      11.80819122      10.47017675
Si      13.11200116       8.42485063       7.00933548
Si       9.83268975       5.96226947      13.12735812
Si       6.45991716       9.92022048      12.55589387
Si       7.08361848      14.42173769      12.39129302
Si      11.88454814       9.64756208       9.12761163
Si       9.73632765      12.24087759      15.21605249
Si       6.10729842      12.22803753      11.39406053
Si      10.87392425      12.11337818       7.11188503
Si      13.14915994       8.45609769      10.59381983
Si      12.26585246      11.55149840      15.61563820
Si      14.49207960       9.23329318      12.73765360
Si       9.87466599       8.02708685      14.70211769
Si      16.77228568      10.19639963      12.18072603
Si      15.29092844      12.33573817      12.10614825
Si       9.66886866       9.85980378       7.60717254
Si      15.06934342      11.67323048       8.80934460
Si      12.63260586      15.02405122      13.01352223
Si      13.95715755       7.31201063      14.34113627
Si      12.20755889       8.95996587      15.24330027
Si       8.57126838      10.18874970      14.10498900
Si      10.54044325      16.51208809      13.49407275
Si      15.66825218      13.90294525      10.05943974
Si      11.41049493      15.92934143       9.03559765
Si      10.56048408       9.24831821      12.36184759
Si      13.90631874      13.06016482      14.20953581
Si       8.73235927      10.90144508      11.35704896
Si       9.74947231      16.15160809      11.04660873
Si       6.67472188       8.17552491      10.61934286
Si       9.86348557      14.53187468       7.36473967
Si       8.95095070      14.58704251      14.22945557
Si       9.13229206       7.43306078      11.07947971
Si       7.56571449      10.11884521       9.13549882
Si      14.72854399       7.28649574       8.76551399
Si       6.00502703      12.18789515       8.82660146
Si      12.23837602       6.69803153      12.49105748
48
Properties=species:S:1:pos:R:3 config_type=qcd gap_pre_relax_energy=-230.09449514253092 gap_pred_energy=-232.41106093657876 gap_fmax_final=0.0009900595599121246 gap_converged=1 pbc="F F F"
Si      14.08384705      10.58172981       7.00631240
Si      15.21861117      14.77816270       7.46361931
Si      13.38061476      13.07569075       7.03343631
Si      11.92126792       9.22339281       7.57554673
Si      16.42704004      10.37773570       8.11532812
Si      10.97947517      13.23574280       7.91711664
Si       9.99703025      15.52573162       8.78356871
Si       9.81783613      10.92810479       7.48162680
Si      11.97072043       7.07124505       9.02820143
Si      13.72102672      15.22138382       9.50721664
Si      16.15459073      12.84513451       8.93346378
Si      13.55785124      11.77259623       9.50742746
Si      11.85988448      16.99821719       9.80288010
Si       8.21129311      10.79573088       9.53703318
Si      10.93921390      13.66681076      10.61125947
Si      15.25926229       9.89811088      10.37810074
Si      13.57545028       7.99174677      10.81348933
Si      11.27716335      10.56894408       9.70038108
Si       8.26323515      15.03221851      10.65727853
Si      10.40076665       8.18144503      10.70736585
Si       6.80973150      12.87972690      10.41898897
Si      17.20803650      13.50870807      11.20698833
Si       7.82542310       8.47736384      10.60532935
Si      15.32374567      15.21852787      11.53093244
Si       9.14828962      12.19144920      11.68105497
Si      10.53462685       9.95549031      12.19176117
Si      13.36816250      13.12688585      11.35832800
Si      11.33895664      15.85982665      12.08775057
Si      11.41220755       7.61737956      13.07567733
Si       7.85353905       9.86397195      12.82294305
Si      13.89436787       7.12489175      13.19555892
Si      15.61170309      11.76317384      12.21310115
Si      12.48643488      11.39868869      13.26523143
Si       6.68735181      12.22162972      12.95292723
Si      13.51625181      15.06633285      13.37131556
Si       8.88867272      16.02852567      12.94540403
Si       8.64818223      13.67044905      13.97701359
Si      13.85114399       9.43682303      14.38207283
Si      10.38079465       7.35695958      15.40257902
Si       9.04097877       9.51879372      15.08838761
Si      10.45858931      11.81263659      14.87430698
Si      15.62617181      11.29497759      14.76694086
Si      13.70434798      13.06392537      15.06698738
Si      11.80073981       9.39827075      15.97847432
Si       9.27442420      13.57081456      16.59011183
Si       8.96909524      11.04162666      17.21061611
Si      11.83361893      12.92700263      16.91042224
Si      11.35915772      10.70619974      18.13906881
49
Properties=species:S:1:pos:R:3 config_type=qcd gap_pre_relax_energy=-236.0565396231386 gap_pred_energy=-238.7552072241924 gap_fmax_final=0.0009705200588913892 gap_converged=1 pbc="F F F"
Si      13.27393559      15.72921950      10.64510492
Si      14.53910137      15.16932361      12.78980931
Si      13.90002484      14.74550584       8.34483624
Si      11.54156816      13.74134554       7.55035156
Si      11.25821087      12.19048148       5.50344919
Si      15.73055271      12.99461557       9.07230288
Si      14.74563232      10.68802422       8.17026520
Si      12.58146917      10.31702316       6.72925715
Si      15.05606771      10.88300683      13.06292849
Si      14.75851504      12.96508748      11.49772659
Si      14.78403158       8.41116036       9.41175448
Si      15.01914799       8.50810843      11.98805294
Si      14.47002879      10.76655837      15.59981609
Si       6.95078703      14.38932293       8.81523036
Si       7.22248008      11.94202992       7.99869072
Si       9.51601794      14.81684488       8.88702671
Si       9.13764630      11.03570453       6.43712400
Si       9.68140769       8.52481903       6.89374157
Si      12.03550426       7.87314405       6.05985725
Si       6.98159607      13.27364816      11.13804115
Si       5.12448254      11.59189311      11.75116879
Si       9.36220569       7.69289621       9.37020409
Si       6.85556113       7.78965218      10.22403025
Si       6.46048916      10.38156262       9.94201042
Si       8.64738303      13.71721187      13.12388357
Si      10.18092456      15.73993360      13.51531822
Si      10.78787237      15.40040874      11.05876287
Si       8.25261069      11.82320285      14.82103503
Si      12.31429291      14.25960956      13.82518168
Si      12.27504000      12.10132827      15.30105772
Si      10.18255812      11.13891650      16.51683692
Si       6.78434806      10.31020337      13.27208144
Si       7.13273418       7.74110180      12.88536573
Si       9.71370621       7.90721001      13.40086968
Si      10.59655767       8.62811994      15.79617872
Si      11.00774076       5.77468939       9.86661561
Si      11.68074267       6.98092502      12.01137434
Si      12.71132794       7.12452569       8.45142419
Si      13.82397797       6.74134375      13.43327723
Si      13.03904842       8.72142664      14.89986073
Si       8.64070137       9.44397827      11.37626826
Si      12.44125078       8.83818191      10.83262538
Si      13.04234770      12.39016703       9.32732653
Si       9.74209065      12.11035059       8.99627845
Si      11.03953931       9.88325364       8.87555365
Si      10.33801395      10.51755014      13.84178849
Si      12.39168116      10.51639234      12.81931313
Si      11.83819473      12.84657475      11.57730822
Si       9.35691075      11.87047631      11.23969387
49
Properties=species:S:1:pos:R:3 config_type=qcd gap_pre_relax_energy=-235.42630310096567 gap_pred_energy=-237.57351994374605 gap_fmax_final=0.0009314818443777482 gap_converged=1 pbc="F F F"
Si      10.41493579      10.92394149       6.34982622
Si      13.96369632      13.27817400       6.98464212
Si      11.80114684      13.82529353       7.99352058
Si       7.55197779      13.50614271       8.58618212
Si      12.65289497      11.29882890       7.28391995
Si       9.73496274       9.42582243       8.04127868
Si       9.76940842      12.32397995       8.09710845
Si      11.58311399       7.74259168       8.57879764
Si      13.34803174       9.55769022       8.65059737
Si       7.78169705       9.17468543       9.66908614
Si       7.08141525      11.60817239      10.27031262
Si      16.94839898      11.67772097      10.02958876
Si      12.19202504      15.36062739       9.73645981
Si      14.85066934      13.14671196       9.42709064
Si       8.85865525      14.59810655      10.55508192
Si       9.82359951      10.95181526      10.39954911
Si      11.23975544       9.22380245      10.83119477
Si      12.97959470      11.46995016      10.07386275
Si      14.51372239      15.53891561      10.26594293
Si      15.15036421       8.40310758      12.04790984
Si      10.41319498      16.67298385      10.90199885
Si      11.10848739       6.43969972      10.83383944
Si      11.19284895      13.15232921      10.16973503
Si      15.25200763       9.82868951      10.25683382
Si      16.46032952      11.52117631      12.52895588
Si      13.89651905      10.84399250      12.42264206
Si       7.36566129      14.54956186      12.72887899
Si      11.21010398       9.94066515      13.05937934
Si       8.96952483       7.78522804      11.54835683
Si      12.90790480      13.90883826      11.67671240
Si      16.59164750       9.36444679      13.94922234
Si       8.87166050      12.35709653      12.28590712
Si      12.79540662       7.55586763      12.41794285
Si       6.12913604      12.24585245      12.59868072
Si      14.77670506      15.32459857      12.58075385
Si      11.30374214      15.57870715      13.09408615
Si      14.95032533      13.08825580      13.31467102
Si       8.94781221       8.87648645      13.95711657
Si       9.41853594      14.18044142      14.34660712
Si      11.39142237      12.47314168      13.74696715
Si      13.38043067      15.94906976      14.57757979
Si      14.25209530       9.92444616      14.99158273
Si       7.73827571      11.13120432      14.34259977
Si      12.43552291       8.18208602      14.61409957
Si      13.37071853      13.41874930      15.01459955
Si      10.96340142      11.02369131      15.99939462
Si       8.81048582      12.50315616      16.25669164
Si      10.39829133       8.47552770      16.08150126
Si      13.39324335      11.60343672      16.76621801
50
Properties=species:S:1:pos:R:3 config_type=qcd gap_pre_relax_energy=-240.63405653074219 gap_pred_energy=-243.17134552408137 gap_fmax_final=0.0009611541793468559 gap_converged=1 pbc="F F F"
Si      14.82702912       6.98383682      12.86967689
Si      12.84950652      10.56439523      12.45359022
Si      11.42813180       8.06924794      10.82861961
Si      16.32044024       8.73944579       8.87541391
Si      12.67557724      16.23939946       8.90177126
Si      15.44631950      11.37007712      12.53849643
Si      10.99780683      16.05688277      10.88552299
Si      12.77778315       8.34391313      13.79150537
Si      12.09875746       9.33499827      16.15974622
Si      10.45075488      10.92280359      13.51285640
Si       7.27296887      14.45687533       8.63114516
Si      11.59789846      10.30645708       8.60078291
Si      11.52199426      16.90370637      13.30403908
Si      14.16812265       7.29496331       8.55544145
Si      12.23670467      12.39553190      10.15445759
Si      11.03016429       5.31435166      10.80080375
Si       6.60520163      11.21648375      11.81574823
Si       6.72915002      12.69795975      13.98941023
Si      14.93660292      10.90621336       8.47359714
Si       9.41085595      12.21442640      10.18581686
Si      13.72477416      12.91885848      13.85095167
Si       9.43244223      10.95181764       7.15213013
Si      12.03393101      11.86747349      15.50533283
Si      10.02679933       6.84540394       8.86372014
Si      15.52820907       8.97290921      11.36237904
Si      11.88723526      13.77820928      11.99938720
Si      11.44565558       9.96572683       5.79531010
Si       9.45332180      13.44736077       7.69163998
Si       9.44167232       9.65659216      10.73216432
Si      13.49396885       6.16371023      10.80255559
Si      10.88301980       6.65448679      13.07123998
Si      11.88593131       7.91257840       7.36779839
Si      13.07989906      11.75053915       6.82725479
Si       7.81793687       8.25815398       9.20482609
Si      13.16120186       9.43158180      10.02239146
Si       9.53668615       9.49438377      15.69352906
Si       7.71787351      15.01539017      13.19704568
Si      10.36455259      13.64845898      16.36473147
Si      14.96780265      12.67571719      10.34289538
Si       6.82660946      11.96059745       9.31377066
Si       8.67073017      14.88680067      10.77251208
Si       7.05234874      10.07073381       7.52985630
Si      13.71850413      15.48889340      13.14369162
Si       7.03647879       8.67427698      11.72305449
Si      14.17869816      15.11713343      10.63423953
Si       8.94679519      12.63844246      12.39307854
Si       9.11002911       8.50239052      13.30589739
Si       8.61377547      11.93751804      15.62603948
Si      10.20882759      14.71592956      13.98591976
Si      11.99776931      13.89121233       8.02146521
50
Properties=species:S:1:pos:R:3 config_type=qcd gap_pre_relax_energy=-237.63436792380284 gap_pred_energy=-241.39408757709643 gap_fmax_final=0.0009578705209676218 gap_converged=1 pbc="F F F"
Si      13.01478072      17.31327006      19.73386490
Si      14.01503436      11.17708257      10.58235434
Si      17.27865206      18.61747933      16.52078139
Si      14.42780791      15.57334074       9.41499192
Si      14.77163474      16.12020939      21.22313911
Si      13.98803185      18.34617355      17.51039249
Si      14.98425973      18.92635446      13.96240176
Si      14.65065338      12.48860570      15.66423740
Si      16.41593420      14.75788714      10.70201834
Si      12.76735952      14.59745993      11.17620354
Si      13.53580978      13.97422527      13.79326800
Si      20.03419181      15.58948108      15.17547570
Si      16.56115199      19.22881186      11.83778596
Si      11.68311736      12.29688434      10.80644124
Si      13.94314392      12.77741780      18.28932319
Si      18.84709363      15.49663641      17.57020542
Si      11.70566166      11.94161071      13.37787827
Si      16.40642462      16.72748899      14.70134699
Si      18.22757417      17.74491850      18.71143651
Si      12.84938774      18.59339329      12.32242925
Si      18.98567130      17.92457291      14.74939680
Si      17.45773554      12.59254246      13.06575397
Si      15.26558690      20.17632954      16.24035767
Si      11.12605839      13.57066226      15.34862110
Si      11.18553889      15.95413109      18.49787293
Si      17.12862835      11.29466770      17.54171879
Si      16.93021244      13.82544865      16.46407505
Si      14.88365036      10.36358121      18.45034778
Si      15.16318360       9.03569900      14.41988556
Si      16.72875341      16.52524586      12.14018837
Si      14.68463580      17.76114222      10.72086782
Si      15.81744056      17.07718487      19.04997305
Si      10.13536672      15.83158470      14.69611494
Si      18.60237760      13.49857973      10.98758123
Si      17.83761993      14.38176299      14.44471587
Si      11.38372883      13.36392904      17.99821162
Si      11.34960463      16.42804432      12.44956091
Si      13.86922494      10.68500873      13.00143187
Si      15.18099823      13.00802651      12.01311389
Si      15.61225475      14.36457624      19.48902925
Si      13.71205344      10.09985205      16.20289509
Si      12.95646085      15.13359232      16.69185806
Si      18.95256227      18.07500589      12.14026730
Si      16.81759863      10.93371190      14.92592631
Si      12.27747226      17.26293527      16.00644689
Si      19.34955168      15.47207407      12.46584633
Si      15.19647953      15.70261775      16.89362863
Si       9.85445606      17.35627655      16.76128297
Si      17.97760365      13.39343820      18.95253144
Si      13.46978533      16.61904482      14.11452277
51
Properties=species:S:1:pos:R:3 config_type=qcd gap_pre_relax_energy=-245.5915622973339 gap_pred_energy=-247.7991140656418 gap_fmax_final=0.000732381268565229 gap_converged=1 pbc="F F F"
Si      10.44192091       6.83604454      13.31203004
Si      12.77138755       7.77703047      13.84263345
Si      14.52713089       7.55129128      11.96495750
Si       9.91970091       7.29475090      10.77268335
Si      11.34208128       6.26344735       8.84179237
Si      13.65438537       7.17772281       9.55474026
Si       8.73445247       9.73290650       7.41258107
Si      11.10219877       8.59559417       7.78192856
Si      13.62257467      11.12091871      14.57245699
Si      15.19704147      10.80416052      12.94738956
Si      12.77170056       9.17958834      15.98354253
Si      16.59372234       9.06781649      11.99021120
Si      15.11883518       8.53256976       7.88949128
Si      15.81600456      10.17304459       9.81771976
Si       9.73811898      12.34330607      15.22352375
Si      11.00022073      14.55000118      15.82507163
Si      10.37054830       9.76997963      15.22712246
Si      13.14687953      13.67226043      14.68223621
Si      14.83812463      14.97161616      13.28335429
Si      10.05564660      15.44110410      13.58232149
Si      11.26700310      17.02757282      12.00954742
Si      12.93770665      15.32622109      11.86744349
Si      15.33716877      12.90802526      11.84619807
Si       7.63700961       8.78975499      12.84139239
Si       6.15111936      10.90353098      12.63506237
Si       8.69444253       7.77818725      14.98359721
Si       7.87422207      12.73192618      13.46455927
Si       7.52463878      15.24204801      13.05627378
Si       7.27153799       9.26190787       9.49988082
Si       7.34444246       7.12225777      10.89841035
Si       8.24085137      14.69145602      10.71466164
Si       7.53748509      12.62005081       9.92328267
Si       5.55322382      11.09731560      10.11201989
Si      10.24703417      15.74186229      10.11897916
Si      11.32838302      15.70493362       8.03245840
Si      16.72051681      12.57354301       9.75661598
Si      14.47724138      13.13918506       9.20808239
Si      12.96427595      14.91292996       9.57789045
Si      13.16302319       9.75538186       6.66305406
Si      12.95687414      11.97288022       7.92691333
Si       8.89102749      12.18605909       8.04678968
Si      10.89162392      13.38382748       7.80313243
Si      10.96444792      12.00596976       9.74564652
Si      12.69647821      13.03222956      11.19251848
Si       9.97862644       9.89544185       9.91553302
Si      13.02499080       9.89045779      12.03170732
Si      13.17741067       9.82415262       9.39471905
Si      11.49242984      12.17715300      13.16410303
Si      10.35665242      13.53847860      11.67384889
Si       8.67566923      11.06504139      11.46692161
Si      10.51115712       9.49645419      12.57235908
51
Properties=species:S:1:pos:R:3 config_type=qcd gap_pre_relax_energy=-243.48267481069843 gap_pred_energy=-246.35332099469974 gap_fmax_final=0.0009805658191877728 gap_converged=1 pbc="F F F"
Si      12.31475856      10.12691551      13.97935732
Si       7.71672575      11.34396537       9.11695958
Si      13.73737301      16.10424556      11.16450117
Si      13.64135610      12.01777836       6.88843554
Si      15.37296838      13.76035480      10.45303857
Si       8.10856719      11.26529048      12.70218628
Si       6.74350151       9.87382698      10.99233534
Si      15.87230119      11.35612166      13.53847799
Si      10.55926871      12.19339098      13.81847533
Si      14.04573879       8.37674664      16.38989254
Si      10.59549978      15.77760424      10.99622581
Si      12.47863190      13.95399068      12.01637338
Si       8.81904394       8.39400824      10.48416268
Si      12.03631461       9.75713011      11.61380459
Si      15.53265299      14.60740074      12.99422786
Si       9.21898876       9.96905578      14.61129885
Si      14.31193111       8.23340635      11.52830609
Si       9.27399276      15.27807192      14.93998931
Si       8.58532108      13.79764939       9.11899087
Si       9.92346291      14.54098135       7.00200025
Si      15.84227811       9.45639474       9.83716570
Si      11.98772832      17.31229802       9.85744885
Si      12.48621296       6.54554538      10.68816472
Si      11.82125193      15.39627635       8.50383415
Si      12.98367897      14.34097026      15.07050478
Si       8.08730514      15.45790392      11.00060069
Si      10.75611800       7.83397730      12.01693604
Si      11.15303871      13.24590217       9.95274945
Si      13.72496254      13.72704748       8.75404375
Si       8.43538754      13.85559791      12.98359206
Si      16.16271590      15.91661665      11.13617082
Si      14.81486361       9.05742430      13.98656459
Si      11.24409927      15.97826562      13.49426657
Si      10.69967206      13.61384380      15.78378515
Si       9.99686615      11.00504772      10.80127188
Si      13.64577606      10.29577479       8.82421737
Si      10.92627511      11.42316744      16.37808989
Si       9.58742254       7.88627432       8.09006049
Si      13.47085945      12.19779654      10.73029072
Si      13.40777573      10.86011570      16.60059621
Si      11.91607633       8.37273897       8.97172715
Si      13.19457133      12.18403342      13.37057179
Si      11.12155992      12.26328028       7.32020106
Si      11.60018450       8.22928943      15.64359797
Si       9.88399987       7.62764333      14.15680917
Si      13.88357568      16.46465349      13.78733134
Si      14.65421397      12.79611709      15.53234809
Si      15.77161241      11.57200394      11.19462136
Si      16.81954209      13.23239081      14.60931634
Si       9.79516221       9.46573722      16.99156582
Si       9.79431457      10.21543649       8.14001666
52
Properties=species:S:1:pos:R:3 config_type=qcd gap_pre_relax_energy=-250.5143446646315 gap_pred_energy=-253.17322598457383 gap_fmax_final=0.0008611802493853608 gap_converged=1 pbc="F F F"
Si      12.16516007      12.48667372      13.64705689
Si       7.76787267       8.22084600       9.33986694
Si       9.45429057      15.26443508       7.63690229
Si       8.72797145      10.77726542       7.18043953
Si       9.75066839      10.06237611       9.60914595
Si       8.77645023      10.37050845      13.92336731
Si       7.09790574      11.98537446      12.78446502
Si       7.46792859      16.22090169      11.46999214
Si       9.44827828      11.42546758      11.46398542
Si      12.57000818       9.21842009      12.32640022
Si      12.96482935      11.72286334      11.33938928
Si      12.46668772      12.54047890       6.10018352
Si       6.47998342      10.28585923       8.40741229
Si      14.58756381      12.48900576      14.82550104
Si       8.19761228       6.90739622      11.60592787
Si      11.80339806       8.09463216       9.91085801
Si       9.68419401      15.26866220      14.97558965
Si      13.81314856       6.49458734       9.07028760
Si      11.88735904      10.74692421       9.11438693
Si      10.06200022       8.87329630      11.89163019
Si      10.40040165      13.31926058      10.35299259
Si      15.27793536       8.69254893      12.79069424
Si       7.92304502      14.41299507      13.24291386
Si       8.00692738      14.47070524       9.63816297
Si       7.21822932      12.02916669      10.16503448
Si      15.37307251      12.94206595      12.43578563
Si      14.73528564      15.32065211      11.76904173
Si      13.77075962       6.90843287      11.64712429
Si      15.72485496      10.56482001       8.56422837
Si      13.19181566      14.17168882      10.05219523
Si      11.37556515       5.60034875       8.72116800
Si       9.91308039       8.92466593       5.80882721
Si       9.91740378       7.61582202       8.00723934
Si      10.54452301      14.18845784      12.47749564
Si      10.75951792      11.03199736      15.41686952
Si      13.92654983      12.41469151       8.22578229
Si      13.78074017       8.93867461       8.17109353
Si      12.10958478       8.98433922      16.21988834
Si      11.21285680      15.82899403       9.47550066
Si      15.42917201      10.69366610      11.12957243
Si      13.86156111       9.97075452      14.63296576
Si       8.58931030       7.81739198      14.05592038
Si      11.20969238       7.64950087      14.17390184
Si      12.18054489       5.48591007      13.09731346
Si      10.35611301      12.81193051       7.62327107
Si      11.12087679      17.18642989      13.98143730
Si      12.86219706      15.25202326      13.59345641
Si      10.01179913      16.71685096      11.64321717
Si      11.21170263      13.52714970      16.13825390
Si      13.57690669      14.56713609      16.01225318
Si      10.57841428       5.96535624      11.14696793
Si      12.15291017      10.01625800       6.44330316
52
Properties=species:S:1:pos:R:3 config_type=qcd gap_pre_relax_energy=-248.6877883820738 gap_pred_energy=-251.489885904169 gap_fmax_final=0.000949836453252214 gap_converged=1 pbc="F F F"
Si      15.39216362      15.25554512       9.85368410
Si      12.43646308      17.19804409       9.83868803
Si      14.84154311      15.27449911       7.37734768
Si      15.82462171      11.83737551       8.46545027
Si      14.08481832      13.47704611      11.42988559
Si      11.31003982      15.42187427      11.54612580
Si      13.89737278      13.11787282       7.93237481
Si      14.53496618      17.21699581      11.27954404
Si       8.56394133      16.22222426       8.78234034
Si       9.94536337      17.54192337      10.54064308
Si      15.57523031      11.17536183      14.84991930
Si      10.27415044      12.44760420      12.69663203
Si       9.91608191      12.54131679       6.85188569
Si       8.06269772      14.58703378      10.70392218
Si      10.30212918      14.59809432      14.28602413
Si      14.49878197       9.34831733      11.01622172
Si      12.22337607      11.62360881       7.31425318
Si      14.73942766       9.74515575       8.71293113
Si      12.60189175      11.43183219      13.06315965
Si       8.93300604      16.17523149      12.63209084
Si       6.98585368      12.24865830      10.27886831
Si       8.23319727       8.38857788      15.45747811
Si      10.47388397      14.66665427       8.12842932
Si       9.26380802      12.61771263      15.67480368
Si      10.19519422       8.71133720      17.13378691
Si       9.21734488      11.69634228       9.14575537
Si      12.71119334      15.21098671      14.94195345
Si       7.54520083      10.85088492      14.76078218
Si      13.34720147      15.51556131      12.68834217
Si       8.74820482       8.64191268      11.30336525
Si      12.65228494      15.63057192       8.08768440
Si      13.26200878      11.83591844      17.46641135
Si      10.40375835       9.65263881       9.98110973
Si      10.82674075      11.23504872      17.22621464
Si      10.46328178      13.44006332      10.17206895
Si       8.14410906      10.94910480      12.21115304
Si      10.21665261      10.16674386      14.75724254
Si      12.43846368      10.40892766      10.92489474
Si      13.42876919      12.79082026      15.12385708
Si       9.86813028       8.00746513      13.46181224
Si      12.51925461      12.47031917       9.75296642
Si      12.35301938       9.43003625      14.17348163
Si      12.12990431       9.25856061       8.50093498
Si      16.64444408      13.03023135      10.54423316
Si      13.41653848       9.52512223       6.62949603
Si      13.74057172       9.79874392      16.41137169
Si      15.78144056       8.54125778      15.03554380
Si      12.29452534       7.43889077      16.29427427
Si      14.25874616       7.83189359      13.05477045
Si      15.49921821      11.33847594      12.24305459
Si      12.03881277       6.63376747      13.83723638
Si      14.72043007       7.58006679      17.20375346
53
Properties=species:S:1:pos:R:3 config_type=qcd gap_pre_relax_energy=-255.43105913625686 gap_pred_energy=-258.2525070860313 gap_fmax_final=0.0008377083265407826 gap_converged=1 pbc="F F F"
Si       8.20507933      14.02213639       9.34797046
Si       7.91728878      10.12059524       7.40560145
Si       7.29389075      10.23498540      14.42744537
Si       7.59739799       6.79759749      10.02238058
Si       9.17012140       7.23799775      11.92230203
Si      10.30258187      15.34424476      10.10707594
Si      10.78889938      11.70262186      16.95407321
Si       9.62486596      17.15516534      11.85853244
Si      12.36027278       9.84271955      16.13400552
Si       7.21308471      10.99656105      11.95714509
Si      13.84216504      14.70928963       9.55043183
Si      15.61418882      13.93797713      13.23802925
Si       9.72183862       6.88608870       8.53534845
Si      12.61450130      11.29933384       6.28058124
Si       9.20277638       8.71520088      13.67670181
Si      14.55509285      11.27141035       7.98664483
Si      12.52165344      13.61578060      16.56013852
Si      11.98031678       8.73558058       5.92869478
Si       8.92401428      12.19066711      15.05301688
Si      11.94305651      15.71787274       8.11185950
Si       7.43759185       9.36537963       9.86093588
Si      13.82101577      15.40020195      12.04960765
Si      11.31856435       7.88766484      14.88665059
Si      15.79691247      12.29488225      11.17790919
Si       8.28853324      15.21928453      12.96677018
Si      13.14243282       6.68211460      13.50190296
Si       9.39997584       8.19210170       6.30473603
Si       8.45497974      14.73671267      15.49351178
Si      13.96287290       9.11739247      13.12430462
Si      13.11434017       7.79494626       8.09202338
Si      11.30312877      13.34621212       7.27660248
Si      14.19328761      12.46351743      14.88129549
Si      10.96482458      14.93611327      14.98731658
Si      15.92165802      13.31963513       8.81839628
Si       6.88099197      13.56253323      11.48843080
Si      15.43220204       8.88473386       8.65573024
Si      11.97356674       5.63919289       9.03191846
Si      11.60761305       6.64586281      11.41344442
Si      11.80357271      16.66005372      13.21707551
Si      14.80112008      10.03765643      15.43587910
Si       8.92382599      12.48521383       7.79299694
Si      15.66638304       9.68774432      11.20257234
Si      12.53113300      12.37927982       9.62026320
Si      11.51972528      10.11483288      13.16897120
Si      11.27590439      14.15573802      12.34151359
Si      11.60603776      12.11357320      14.42203267
Si      10.04448935      12.21812068      10.27244935
Si      10.58748916      10.16003362       7.76080065
Si      13.28167326       9.87170938      10.05806499
Si      11.21158596       8.85220953       9.82427738
Si      13.34647811      12.69062572      12.28943319
Si       9.38911970      12.76713220      12.44076276
Si       9.73030333       9.91018859      11.20986090
53
Properties=species:S:1:pos:R:3 config_type=qcd gap_pre_relax_energy=-253.267067628419 gap_pred_energy=-256.8984914588939 gap_fmax_final=0.000971578379752635 gap_converged=1 pbc="F F F"
Si      12.91566737      14.24127975      14.31839557
Si       8.17028321      11.61511018      15.07686486
Si       8.77351852      15.64045737      15.09012638
Si      13.86837233      12.04761214      15.11036508
Si      10.65863031      14.01355465      14.77356302
Si      12.32241861      10.85052881      16.85237778
Si      10.40431880      11.88140180      15.59940858
Si       9.41564696      16.40091483      12.70776765
Si      13.63421951      16.53022444      14.05541380
Si      15.50236733      15.64210324      12.53820543
Si      11.96515006       8.68276505      15.47473864
Si      15.88723363       9.73651198      13.47889115
Si       7.28988529       9.39151600      15.91621615
Si       7.31018484      13.85561248      13.84923257
Si      16.74878051      13.30968089      12.91930908
Si       9.38877256       8.21436242      14.96616959
Si      11.95653423      16.69467985      12.10046507
Si      16.42938960      11.75863824      14.98152180
Si      12.63191122      13.92423990      12.00518006
Si      15.09383117      10.84590104      11.01490792
Si      10.34118141      10.31343306      13.63447550
Si       9.72618432      13.59792693      12.45758131
Si      13.27508344      17.16108729       9.86307818
Si      12.95497778      10.25975131      13.46579769
Si       7.65514831      14.96386700      11.48298078
Si      15.82413565      16.97956564      10.34540284
Si      14.10561637       7.88421792      14.10890198
Si      17.39559452       9.34469954      11.35794058
Si      13.26360381      15.24066205       7.96542467
Si       9.49161735       8.74877945      11.47866902
Si      14.67454974      13.42140763      11.14836190
Si      17.61762852      11.92377757      10.84189151
Si       8.04001215       7.27768447      12.99268053
Si      15.59093465      14.73334679       9.10229049
Si       9.39940744      11.52108432      11.38117171
Si      11.48421499      15.01199234       9.94386615
Si      11.85793217      11.69896783      10.88040075
Si       7.05867501      14.09427138       9.38061990
Si       9.34563991      13.63125867       9.67272834
Si      13.77557955       6.93644764      11.66632937
Si      13.16597722       9.60007534      11.28054016
Si       6.35858041       9.10380029      13.56299814
Si      17.17287653      12.78606090       8.41231892
Si       7.02387013      11.39433669      12.66544642
Si      15.40161750       8.22939051      10.06822827
Si      11.51659272       7.49943041      10.42628958
Si      12.77995568      12.69797904       8.54889048
Si      10.43096322      11.38365245       8.55035444
Si       7.01651400      11.83041547      10.40306750
Si       8.40003846       9.96028779       9.38315315
Si      12.13164574       9.32209775       8.70480301
Si      14.52054177       8.95489905       7.73906566
Si      14.99933463      11.37959155       8.41847205
54
Properties=species:S:1:pos:R:3 config_type=qcd gap_pre_relax_energy=-260.05015104268193 gap_pred_energy=-262.13253645717566 gap_fmax_final=0.0009255947747768173 gap_converged=1 pbc="F F F"
Si       9.16105578       8.53067335      13.94822613
Si       8.07395026      12.16445410      14.78411678
Si      16.20092974      12.01465527      13.66032702
Si      11.56433402      10.71483547       8.81719015
Si      11.19887753      14.28661458       7.87874919
Si       5.69622460       9.26884794       9.95553240
Si       8.61806929       7.04799167       8.62639842
Si       9.40247649      14.25729479      11.99807420
Si      10.13584876       8.96034000      10.13371896
Si      16.99800369      12.77859292       9.35220800
Si      12.59978470      15.65432839      15.33386008
Si       6.50557702      10.74568384      13.51413744
Si      12.97604870      10.51165986       6.51514720
Si      10.34185530      14.74898361      15.59488591
Si      15.55765603      14.24185492       7.66703243
Si      10.33590958      12.77892387      14.05206208
Si      12.42724542       7.34581840      11.11101653
Si      10.20843657      11.47317755      11.29145902
Si      10.61563556       9.01307342      15.98154125
Si      13.95125200      13.18849285      12.59118661
Si       6.89396667       7.78592056      11.62345866
Si      14.27856492      15.59807603       9.51563740
Si      10.80565208      13.17950703      17.48950171
Si      11.92589766      16.56213633       8.94749908
Si      10.96338099       7.77908803       7.76622649
Si       9.35555402      10.87724384       7.38087921
Si       6.62604912       8.27751745      14.10876931
Si      13.37897187      15.36828208      12.95718731
Si      12.69226155       9.53613994      14.57379496
Si      12.02167444      11.41231670      12.71643370
Si      11.54603105      15.39871580      11.19755081
Si      12.03201644      12.97734920      10.04583302
Si      10.01945082      11.45492813      15.99200169
Si      13.34017149      13.02073072       7.08792925
Si       8.82917011      10.64422662      12.95944183
Si      12.69512213      13.39513095      16.08760132
Si       9.93713261       7.34498237      11.83002837
Si       6.95328308      10.94660848      11.04856044
Si      14.12066551       7.92921578      13.10099573
Si      13.38878431       9.79737465      11.24402920
Si       8.23998705       5.77236304      10.81224719
Si      13.91576144       9.21220691       8.57208378
Si      15.87889307       9.78272598      12.37096198
Si       8.76955552      13.39104543       7.54765332
Si      16.40499425      13.79287888      11.69076495
Si      15.46645234      16.21477343      11.73017589
Si      14.33764813      12.86545475       9.74750667
Si       8.25582367      12.94759227      10.05430015
Si      13.16083947       6.76598427       8.69260353
Si      10.75720438       9.39846741       5.73119477
Si      13.95351327      11.76852030      14.93523812
Si      15.77122762      10.51895615       9.87318151
Si       8.36140629      14.54796711      14.31720411
Si       7.76553161       9.42108660       8.85646475
54
Properties=species:S:1:pos:R:3 config_type=qcd gap_pre_relax_energy=-259.6515981265251 gap_pred_energy=-260.7052176645269 gap_fmax_final=0.0008902588718167858 gap_converged=1 pbc="F F F"
Si      14.06439596       9.98349285       7.04997521
Si      11.58143397      14.36084142       7.45614795
Si      13.94772107      14.61153343       7.27794871
Si      10.37917959      12.28719304       6.65887421
Si      11.83655655      10.37060819       7.56287043
Si      14.20332625      12.20370682       7.86931328
Si      10.41345019       8.49210470       8.61402283
Si      14.54879147       9.18482620       9.35098304
Si      11.54204316      12.66741407       9.04590269
Si      15.58951077      11.88925024       9.72610734
Si      10.81725226      15.61215766       9.30727350
Si      13.52046849       7.83470800      11.08526319
Si       8.72979282      11.97975083       8.48727148
Si      14.00781890      15.14451135       9.69233982
Si      12.19907720       9.80662134      10.09508875
Si      11.05565914       7.49479048      10.63973494
Si      16.65373070       9.84823764      10.14419364
Si       8.66589905       9.86497286       9.48470005
Si      12.53664157      16.90325740      10.28967456
Si       8.01564677      13.47389206      10.19792963
Si       8.62527772      15.78080472      10.23412625
Si      15.60813772      13.91673457      10.94688387
Si       9.78070706      11.82428397      10.66417653
Si      13.45100092      12.92948094      10.45870527
Si      15.86968113       9.84079199      12.36705921
Si      11.34699242      10.73869589      12.09893095
Si       7.27064004       9.51040230      11.36139505
Si       7.70064398      11.86119587      11.91993866
Si       9.21852825      16.43792228      12.56227425
Si      10.14295294      14.21196311      11.28158673
Si       9.43368414       8.79605261      12.06210082
Si      11.58960166      15.99958464      12.25877534
Si      13.20634665       9.23654630      12.97106700
Si      14.98657714       7.60026645      13.12608527
Si      12.64729037      12.60054726      12.63783729
Si       7.13097419      12.91790737      13.96044264
Si      14.49545571      11.50650461      13.66442273
Si      15.83147973      13.45043231      13.29766587
Si      17.13238517      11.39041880      13.93220078
Si       9.03694570      14.22583664      13.53268382
Si      10.12803041       9.93340557      13.97384440
Si      12.58407232      14.58700328      13.86048187
Si       8.99522416      11.82369113      14.94845102
Si      14.04442885       8.93743453      15.14700846
Si      11.76189063       9.54520502      15.69184148
Si      12.12276078      11.87529350      15.77721766
Si      10.71724613      13.88880111      15.22221946
Si      14.69079498      14.75523862      14.94276252
Si      15.49888000      10.88843711      15.76387542
Si      14.22132731      12.82859077      16.28946444
Si       9.75166968      12.18023475      17.19048579
Si      11.33787999      10.58718433      17.95908794
Si      12.50579117      12.77661867      17.95786023
Si      10.58761433      14.36392762      17.66273494
55
Properties=species:S:1:pos:R:3 config_type=qcd gap_pre_relax_energy=-265.58495671623336 gap_pred_energy=-268.0803716206981 gap_fmax_final=0.00096020424762038 gap_converged=1 pbc="F F F"
Si       7.35956225       8.66598215      13.80681979
Si      11.67441628       6.79511830      10.12596373
Si       6.93407955       9.70253731      11.45965866
Si       9.53061419       9.81545229      12.44752668
Si      10.42247941      13.42073857      15.58802893
Si       6.96804582      13.06405732      13.71786195
Si       8.81908910      15.30546143       9.44990873
Si       7.06672105      13.41468074       9.01042118
Si      10.02267586      11.62463327      10.75080449
Si      12.00341840       8.19560273      12.43520863
Si       8.16134630      10.99622158      14.59435948
Si       7.40035728      12.29894926      11.32591272
Si       9.53348416      16.70944728      13.90554009
Si      12.82709235      12.26869537      11.29552293
Si      13.65450703      10.11323437      12.55673499
Si      11.26607272      14.91497017       8.59810339
Si      10.96253054       9.26415394       9.40280332
Si       8.83123292      14.46781693      13.88338513
Si      12.71674756      11.24400196       8.83558980
Si      12.20168061      13.13500063      13.30008431
Si       9.30013974       5.98069660      10.87463066
Si      14.15364885       8.92358519       8.61993528
Si       9.88070681      14.11335639      11.61896920
Si      10.90724309      11.07808608      14.20321808
Si       8.46918339       8.24686075       9.94930036
Si      11.96975077      15.87238080      13.83351830
Si      12.94730133      16.87116363       8.38880813
Si      12.38090867      14.79107333      11.10019950
Si      16.38120429       9.71796676      12.59399226
Si       9.66268787      11.19408978      16.71322243
Si      13.95090066       7.13678273      14.14497879
Si      13.55934613      17.70418829      12.90894072
Si      14.21063559      13.19560074      14.97654457
Si      11.72737741       9.57331366      16.18813580
Si      11.16122426      12.72381289       7.22745737
Si      15.67039811      12.13088770      11.80126631
Si      15.80135605       8.76624977      14.95353931
Si      15.05129696       8.26938675      10.92423529
Si       9.50400169       7.21109527      13.17317164
Si       8.98376428      11.80517833       8.26607728
Si       9.57319011      16.96468472      11.37039542
Si      11.39831107       8.91269002       6.76322686
Si      14.98581975      12.70079058       9.34959533
Si      13.93864304      10.56126848      15.16458676
Si      12.73279222      11.03319050       6.01706760
Si      14.63695008      15.26074098       9.50873385
Si      12.79820655       6.93358323       7.70086248
Si       8.90431660       9.28045825       7.56571254
Si      14.82559876      15.66029120      12.04041174
Si      12.06172102      17.48434144      10.78510593
Si      16.16766241      14.00867584      13.48314304
Si      11.47144953       7.27729299      14.96694505
Si      13.78259117       6.20032461      11.70660091
Si      15.01669899      11.01390331       7.30248156
Si      12.53316939      14.84160284      16.18110072
55
Properties=species:S:1:pos:R:3 config_type=qcd gap_pre_relax_energy=-264.1498452564765 gap_pred_energy=-265.97832320900375 gap_fmax_final=0.0008592595061013159 gap_converged=1 pbc="F F F"
Si      10.43181298       9.98505169       6.56725493
Si       9.04977329       7.89847027       6.72564843
Si      12.66414807       9.88244320       7.71418587
Si       8.95543437      12.03738826       6.69044757
Si      13.21993597      13.91111727       7.30807454
Si      13.19002097       7.69256654       8.41472853
Si      10.79216538       7.68358343       8.35573506
Si      13.91769647      11.77243484       8.52611634
Si      16.22894250      10.94053628       9.18536238
Si      10.77304444      13.37662892       7.92901443
Si      11.08356177      10.88179006       9.20441033
Si       8.37370385      11.04986048       8.99529528
Si      13.62787390      15.24309076       9.46318351
Si       7.49606422       8.68986379       8.63792777
Si      11.48924128      10.09857569      11.37324831
Si       9.59681362       8.72653506      10.04357348
Si      15.19172187      10.13692524      11.17632498
Si      16.74777740      12.92092754      10.37407031
Si      11.64574959      16.85803998      10.07900477
Si       9.67285423      15.32971249       9.30809168
Si      13.55905802      11.91289239      11.24292510
Si      16.29712595      15.36426642       9.86090844
Si      10.53569308      13.07277739      10.66368745
Si      14.77396239      13.93456319      11.43264605
Si       7.93141456      12.57639174      11.07527065
Si       7.63600930      15.11580002      10.89129957
Si      13.44106385       8.57776364      10.65679070
Si      11.09730217      17.07613576      12.66953165
Si      11.82873250      14.66029689      11.66206335
Si       9.31143577      15.25576224      12.80010975
Si       9.82370062       8.32028394      12.33673639
Si      16.71320007      15.67918928      12.41820952
Si      10.03121025      12.51027243      12.97331847
Si      12.43046860       8.02986520      12.68269324
Si      16.99885512      13.23789016      12.65773493
Si       7.86896612      11.55080776      13.40798165
Si      15.05326995      10.65770353      13.45491344
Si       8.55070680       9.34575374      14.00219617
Si      10.81389001       6.45597744      13.42015895
Si      12.95536787      13.18765971      13.35526488
Si      12.52175205      15.56717857      14.11224474
Si      14.77722939      14.90412181      13.67659491
Si       9.47318741      14.11086995      14.81545221
Si      13.24388486       9.43598311      14.34256830
Si      11.36714216      11.13274530      14.28333320
Si      16.90725772      11.66753686      14.48604253
Si       7.69606923      12.65007634      15.55261167
Si      10.44573923       7.90714778      15.31275876
Si       8.32883854       8.53744282      16.21006333
Si      14.86399199      12.86022229      14.82526866
Si      11.39251323      14.85602599      16.06499131
Si      12.58872266      12.83493240      15.85776446
Si       9.23118380      10.79210943      16.04859577
Si      12.44181466       8.71218576      16.45126620
Si      11.43730650      10.91022954      16.74070776
