3
Properties=species:S:1:pos:R:3 config_type=qcd gap_pre_relax_energy=-7.938750032765791 gap_pred_energy=-7.956501586456989 gap_fmax_final=0.0002819407690314814 gap_converged=1 pbc="F F F"
Sn      13.55839434      14.26952386      15.19860079
Sn      16.37356193      14.13141866      15.10072320
Sn      15.06804371      16.59905748      14.70067601
4
Properties=species:S:1:pos:R:3 config_type=qcd gap_pre_relax_energy=-11.393519435555781 gap_pred_energy=-11.430814217344498 gap_fmax_final=0.0009409707201094499 gap_converged=1 pbc="F F F"
Sn       9.52036678       9.24154801       7.95446202
Sn       7.09744462       7.36141485       8.67522931
Sn       9.45749165       6.45973929       7.37154951
Sn       7.13974591      10.15234680       9.21380812
5
Properties=species:S:1:pos:R:3 config_type=qcd gap_pre_relax_energy=-15.129385822006233 gap_pred_energy=-16.109425575892452 gap_fmax_final=0.00021847398878129857 gap_converged=1 pbc="F F F"
Sn       8.86150007       9.37457972       7.06449882
Sn       7.14919070       7.07881642       6.33380945
Sn       9.07109559       6.68503175       8.54466175
Sn       6.56829456       8.44124187       8.89170581
Sn       9.18471101       9.25512217      10.00011608
6
Properties=species:S:1:pos:R:3 config_type=qcd gap_pre_relax_energy=-19.476502434469115 gap_pred_energy=-19.697863420829766 gap_fmax_final=0.00087525167230622 gap_converged=1 pbc="F F F"
Sn       8.92343194      10.18450688       9.42122086
Sn       9.39654177       7.02433873       9.83771269
Sn       9.91289562       8.40156812       7.23498651
Sn       7.67791114       6.41682894       7.18014201
Sn       7.20474204       9.57701264       6.76355722
Sn       6.68845753       8.19972472       9.36636074
7
Properties=species:S:1:pos:R:3 config_type=qcd gap_pre_relax_energy=-23.80370232681914 gap_pred_energy=-23.924029747452852 gap_fmax_final=0.0009843222547470615 gap_converged=1 pbc="F F F"
Sn       9.96326752       7.61153545       9.12633165
Sn       7.03301021       6.85678072       8.59182731
Sn       8.71448960       7.90414765       6.33414380
Sn      10.43945844      10.11498014       7.40951050
Sn       7.71923265       8.42043347      11.06284461
Sn       9.82438739      10.43435879      10.33199090
Sn       7.52899036       9.88059997       8.36618740
8
Properties=species:S:1:pos:R:3 config_type=qcd gap_pre_relax_energy=-26.793206252127007 gap_pred_energy=-27.380259213965118 gap_fmax_final=0.0006674714637697179 gap_converged=1 pbc="F F F"
Sn       7.22567543       9.85047677       8.92097407
Sn       8.62929944       9.72832404      11.64547682
Sn       9.97509621      10.70592635       7.86424449
Sn      12.31845253       8.98844036       8.83922525
Sn       8.58567651      12.34800628      10.05094351
Sn      11.32168237       8.26460446      11.64042877
Sn       9.50546957       7.82284385       9.20843775
Sn      11.34173604      11.19446600      10.73335746
9
Properties=species:S:1:pos:R:3 config_type=qcd gap_pre_relax_energy=-30.949697498119562 gap_pred_energy=-31.039031785720013 gap_fmax_final=0.0006314649069606937 gap_converged=1 pbc="F F F"
Sn       7.77141298      10.99924916       8.12061924
Sn       9.86635707       9.96154742      10.30594997
Sn      10.77282155      11.50067579       7.84607331
Sn       8.38528724       7.76116683      11.79125018
Sn      12.24490769       8.99574933       8.67716730
Sn       6.91300489      10.26580769      10.95959212
Sn       9.70302831       8.76157290       6.97971115
Sn      10.18950250       6.88511330       9.48650909
Sn       7.26628027       7.98172007       8.94573012
10
Properties=species:S:1:pos:R:3 config_type=qcd gap_pre_relax_energy=-34.41335854762717 gap_pred_energy=-34.62569354690912 gap_fmax_final=0.00037792389499181444 gap_converged=1 pbc="F F F"
Sn       6.51718289      10.05944850       8.04553406
Sn       9.00473739       8.47309319       7.65010718
Sn       7.58963825       9.13787281      10.66498273
Sn       8.90508330      11.66249652       8.81291215
Sn      11.27972356      10.47403355       7.31646544
Sn       9.15436573      11.47248970      11.84480763
Sn      11.85864722       8.11998357       9.19555176
Sn       9.30411862       6.68220976      10.09831477
Sn      10.53841807       8.74024855      12.00841065
Sn      11.76561817      11.09565703      10.28044681
10
Properties=species:S:1:pos:R:3 config_type=qcd gap_pre_relax_energy=-34.07619644003218 gap_pred_energy=-34.550440710695185 gap_fmax_final=0.0007860906853864614 gap_converged=1 pbc="F F F"
Sn       6.84615099      10.08517874      10.34985219
Sn       8.53306269      12.28028655       9.19589958
Sn       8.52159250       9.74156880       7.50152966
Sn       6.68953158       7.60142330       8.67573977
Sn      11.26397087      11.11113622       8.78299854
Sn       9.75151678      10.51044838      11.47264971
Sn      11.34441725       8.68253248       7.02487151
Sn      11.49590648       8.27806029      10.12564027
Sn       9.51444401       6.67037656       8.28935422
Sn       8.60784459       7.60742640      11.14990224
11
Properties=species:S:1:pos:R:3 config_type=qcd gap_pre_relax_energy=-37.80125519037413 gap_pred_energy=-38.04602675457512 gap_fmax_final=0.0009811945582698536 gap_converged=1 pbc="F F F"
Sn       6.67977687       6.58733695       9.42370655
Sn       7.51952677       8.78454385       7.58680311
Sn      10.55393202       9.38346953       7.32680673
Sn      12.33916833       8.24990221       9.54823739
Sn       9.57726524       7.09878715       9.36844356
Sn       8.33785545      11.50069413       8.84649911
Sn      11.44380002      11.09321428      10.09280248
Sn       7.52389463       9.06070430      10.77654019
Sn      10.84021510      12.34118971       7.47414810
Sn      10.43282861       8.69727767      11.95686706
Sn       8.99451608      11.44565933      11.84192483
11
Properties=species:S:1:pos:R:3 config_type=qcd gap_pre_relax_energy=-37.906278470379284 gap_pred_energy=-38.28001309240796 gap_fmax_final=0.0009870699169600029 gap_converged=1 pbc="F F F"
Sn      10.22558889       9.38726439       6.64733858
Sn       8.87222592      11.28031507       8.55156007
Sn      12.15544085      10.45475139       8.69105589
Sn       9.83322380       8.27476991       9.29263949
Sn      11.09306918      13.27266629       9.22199439
Sn      12.27725163      11.82261997      11.63814857
Sn      12.23848860       8.69396251      11.30768463
Sn       9.17664030      12.60239291      11.50675556
Sn       7.75926129       9.82073469      11.11763390
Sn       9.51144303       7.47343742      12.12257410
Sn      10.15559885      10.21531779      13.20084714
12
Properties=species:S:1:pos:R:3 config_type=qcd gap_pre_relax_energy=-41.45061053274704 gap_pred_energy=-41.57333141514548 gap_fmax_final=0.000905589800772241 gap_converged=1 pbc="F F F"
Sn      10.21988783      11.29832005       7.22676643
Sn      10.45858289       9.75961438      10.24499062
Sn       8.23910917       7.20468985       9.96111898
Sn       8.51292478      12.50009741       9.75626588
Sn      11.34646155       6.97515600       9.98517745
Sn       7.61121849       9.83123872       8.28961886
Sn      10.05065293       8.02572131       7.35340423
Sn       9.76858754      11.56704392      12.45103862
Sn      12.60277364       9.57161273       8.25102335
Sn      11.62749903      12.40956090       9.77488479
Sn       7.28886679       9.97004864      11.44621080
Sn       9.59487478       8.20833549      12.58093941
12
Properties=species:S:1:pos:R:3 config_type=qcd gap_pre_relax_energy=-40.958208636258526 gap_pred_energy=-41.400691264014746 gap_fmax_final=0.0008420116207335255 gap_converged=1 pbc="F F F"
Sn       9.93789951       5.52630849      12.25490285
Sn      11.42452862       7.84337492      11.14523853
Sn       8.40985947       8.06852879      12.13812260
Sn       9.11401630       6.26109283       9.58797564
Sn      10.68679880       8.70563259       8.20281542
Sn       8.30688299       7.30629109       6.90202013
Sn       7.37233897       8.95361834       9.29493000
Sn      10.72420011      11.85770951       8.10810724
Sn       9.81286914      10.48141603      10.75150984
Sn       8.41351432      10.27657114       6.54989052
Sn       8.60678066      13.15572966       6.48270510
Sn       7.70945772      12.08287323       9.10092874
13
Properties=species:S:1:pos:R:3 config_type=qcd gap_pre_relax_energy=-45.209524800648275 gap_pred_energy=-45.39664004595122 gap_fmax_final=0.0008455897729241586 gap_converged=1 pbc="F F F"
Sn      17.35317333      17.11985865      12.57781421
Sn      13.34601169      13.84775172      13.15794131
Sn      17.61906451      17.74477790      15.51006721
Sn      16.40799472      14.24228276      12.23295764
Sn      18.46104849      14.95346317      14.53806565
Sn      15.12338331      16.26332134      14.39713268
Sn      15.89741727      13.11990085      15.11863035
Sn      12.18386114      16.55060800      14.19510259
Sn      13.28386102      11.66884233      15.36312296
Sn      13.30078030      16.47371612      17.10796272
Sn      11.66157814      14.13952249      15.90516601
Sn      16.32737954      15.45255609      17.10485009
Sn      14.03444656      13.42339856      17.79118660
13
Properties=species:S:1:pos:R:3 config_type=qcd gap_pre_relax_energy=-45.0887787677705 gap_pred_energy=-45.28611892464128 gap_fmax_final=0.0009009063636958408 gap_converged=1 pbc="F F F"
Sn      10.40782394       7.20327471       7.90729824
Sn       8.01413387       8.88733045       9.25140224
Sn      12.89572481       9.03353116       8.30553976
Sn       9.32864304       6.49990650      10.70048688
Sn      12.30902730       6.74702316      10.29813838
Sn       7.99974838      10.27411059      12.00982765
Sn       7.40472425      11.91052674       9.30522978
Sn      10.75735956       9.26313013      10.77163439
Sn       8.03651866      13.29000035      11.95416294
Sn      10.22301365      10.75779232       7.94881561
Sn      12.54107402      11.62333066       9.96667997
Sn      10.11090809      13.37987053       9.77888341
Sn      10.70526729      11.86413955      12.53586763
14
Properties=species:S:1:pos:R:3 config_type=qcd gap_pre_relax_energy=-48.8809409903021 gap_pred_energy=-49.082775022857994 gap_fmax_final=0.0009210038911281067 gap_converged=1 pbc="F F F"
Sn      10.19345483       9.07746823       7.12992503
Sn      11.06678737      11.95884582       7.46767368
Sn       8.09337714      11.23352752       8.07817225
Sn      12.85090354       9.55774450       8.56046344
Sn       7.78143029       8.19703312       8.64716966
Sn      10.52464228       7.64160211       9.97393621
Sn      12.89320933      12.50983562       9.83497638
Sn       9.79495088      12.66764252      10.35019810
Sn       8.47294254       9.92051266      10.98544906
Sn      11.61581353      10.17230735      11.28161531
Sn      11.74431407      13.09646550      12.76904946
Sn       9.89967148       8.41556332      13.32669010
Sn       9.24022743      11.43642877      13.65408549
Sn      12.08383912      10.37058679      14.19615968
14
Properties=species:S:1:pos:R:3 config_type=qcd gap_pre_relax_energy=-48.82790227442508 gap_pred_energy=-49.075018739424145 gap_fmax_final=0.0009865190108490005 gap_converged=1 pbc="F F F"
Sn      13.69824972       9.08531991       9.02255861
Sn      12.67579825      11.96637909       8.84747636
Sn      11.41768430      12.68369343      11.96877326
Sn      12.93161114      10.37986724       6.29245731
Sn       8.38508555      13.30982218      11.89835971
Sn       9.31188877      11.62812931      14.19757195
Sn      10.23176045      11.76018689       7.01427629
Sn       7.30489348      10.39913232      12.18884821
Sn       9.38152497      11.34181370       9.90431331
Sn      10.85794123       8.88591179       7.88213166
Sn      12.07042463      10.47114921      14.03547416
Sn       9.61138691       8.62287016      13.52641988
Sn       8.95735877       8.37778410      10.49279784
Sn      11.66193368       9.58548255      11.22608333
15
Properties=species:S:1:pos:R:3 config_type=qcd gap_pre_relax_energy=-52.65771781428714 gap_pred_energy=-53.171326850498815 gap_fmax_final=0.0008440739219446509 gap_converged=1 pbc="F F F"
Sn       7.65087688       9.44580349       8.35559770
Sn       8.02857025      11.40221131      12.71915733
Sn      10.59114204       7.78429064       8.14498277
Sn       9.56359847       9.04307091      11.05328494
Sn      10.52652648      11.01037290       8.97345062
Sn      12.75326394       9.88734465       7.38029784
Sn      11.04490833      11.55425421      11.92121070
Sn      13.39512344       7.93523156       9.58632089
Sn      11.10425246       6.51887891      10.94107068
Sn       6.50559932      11.82888622      10.07951616
Sn      12.53950088       8.85256399      12.39629716
Sn       6.61168725       9.05799999      11.26289562
Sn      13.56632318      10.94989565      10.17907088
Sn       9.05508573      13.49954733      10.50177874
Sn       8.26024136      12.42634826       7.70176798
15
Properties=species:S:1:pos:R:3 config_type=qcd gap_pre_relax_energy=-52.63153066793694 gap_pred_energy=-52.78488717301184 gap_fmax_final=0.000916058160656522 gap_converged=1 pbc="F F F"
Sn      16.48130263      15.55326608      11.74986668
Sn      14.00767174      13.69563219      12.15553672
Sn      16.74257036      12.22210388      17.00783693
Sn      13.22772461      17.74761018      14.72442285
Sn      13.85381565      13.05804696      17.86076081
Sn      16.33467781      14.83894284      18.57738408
Sn      14.45064017      11.63962460      15.08657638
Sn      16.06886727      16.40288743      15.81519562
Sn      15.96086196      18.21760988      13.33888798
Sn      13.73528460      16.22396861      17.84356415
Sn      16.53586367      13.78281636      14.27076708
Sn      18.48835657      14.65317900      16.44294081
Sn      13.76870503      16.91739504      11.62130535
Sn      13.65409940      14.57499412      15.25283776
Sn      11.68955854      15.47192284      13.25211679
16
Properties=species:S:1:pos:R:3 config_type=qcd gap_pre_relax_energy=-55.88615703133121 gap_pred_energy=-56.4543532114605 gap_fmax_final=0.0007912608388880979 gap_converged=1 pbc="F F F"
Sn      12.83483221      11.24759110      11.41900656
Sn      11.07908294       9.35333807      13.51115496
Sn      13.05219107       8.20761617      11.53956606
Sn      10.42818993       6.76384133      11.76561043
Sn      13.90312126       9.62585076       9.00086803
Sn       9.89121331      10.86518438      11.21818346
Sn      11.96005587       7.17837579       8.90649679
Sn       7.95494751       8.84572166      12.24727664
Sn       9.17492585       8.32508277       9.44866549
Sn      11.08574249      10.42145386       8.55727655
Sn       9.66759627      13.37853872       9.64198119
Sn       6.35043257       9.50742600       9.47757052
Sn       7.12812044      12.01166382      11.29421407
Sn       9.82794934      12.36771933       6.71424554
Sn       8.27990477       9.65435585       6.84156938
Sn       7.24816705      12.11271329       8.28278721
16
Properties=species:S:1:pos:R:3 config_type=qcd gap_pre_relax_energy=-55.71936438985233 gap_pred_energy=-56.39212294368076 gap_fmax_final=0.0009141593752625571 gap_converged=1 pbc="F F F"
Sn      13.73193994       9.94678432       9.53023332
Sn      11.20842820       7.36352932      11.26462453
Sn      11.52886058      10.51217952      11.86438931
Sn      14.33275381      11.42553852      12.18114201
Sn      14.12573278      13.03603187       9.67527142
Sn      10.41740636       8.75901534      13.95686420
Sn       8.78315434       7.22102348       9.31903165
Sn      12.13492222      13.64498075      12.04278546
Sn      10.59287674       9.60316326       9.03162862
Sn       8.18545694       7.87030057      12.17014869
Sn      11.66953299      14.64514062       9.10831338
Sn      12.06775754      11.93057909       7.66187233
Sn       9.97915932      12.38178322      10.11262267
Sn       7.50402280       9.92208283       9.94947785
Sn       8.36221789      10.84153000      12.98578221
Sn       7.17673906      12.69729882      10.94677388
17
Properties=species:S:1:pos:R:3 config_type=qcd gap_pre_relax_energy=-58.74518898025557 gap_pred_energy=-59.296791922325596 gap_fmax_final=0.0008334618955099265 gap_converged=1 pbc="F F F"
Sn      11.21305928      10.76129893       6.96831788
Sn       8.57377301       9.18440448       7.33329892
Sn      13.29921952       9.87640821       9.33993125
Sn       8.68812941      12.26546988       8.42332723
Sn      11.25014662       7.79822188       7.86464478
Sn      12.12992596      13.20145794       8.74322259
Sn       7.64304737      12.21165034      11.53211743
Sn      10.66825159      11.01438820      10.37121327
Sn       8.98078854       7.65963133      10.11672698
Sn       6.76488803       9.91960718       9.64507942
Sn      12.08651046       7.16206337      10.70240859
Sn      10.23176004      13.97395891      11.15876641
Sn       7.61155894       9.27566450      12.51477830
Sn      12.86526004       9.50567442      12.56986249
Sn      12.99998067      12.53871234      11.71635304
Sn      10.25748569       7.90497307      13.04110715
Sn      10.14655155      11.15675175      13.36918099
18
Properties=species:S:1:pos:R:3 config_type=qcd gap_pre_relax_energy=-63.18799950733816 gap_pred_energy=-63.494519345187285 gap_fmax_final=0.0009114085353735196 gap_converged=1 pbc="F F F"
Sn      12.81415443      10.66213561      14.36557068
Sn      12.26322273      13.48729014      13.34727498
Sn      10.02593950      11.88099783      14.80214686
Sn      10.40485853       8.77040270      14.15971197
Sn      14.34152341       9.07635170       9.58209569
Sn      12.91587509       8.43465430      12.22713282
Sn      13.49528450      11.41238465      11.43401416
Sn      10.09721289      12.46446365      11.58954931
Sn       8.11035606      10.45839381      12.74562232
Sn       7.13305987      12.39262516      10.46856912
Sn       9.35899668      13.90941223       9.04724945
Sn      10.40044415       9.47096081      11.01938847
Sn      14.07576611      11.89738243       8.43768922
Sn      11.13636133      11.49928862       8.79998745
Sn      12.79579651       9.49968727       7.00206979
Sn       8.17794998      11.39704619       7.75332481
Sn       7.40782233       9.30829014       9.92657788
Sn       9.88456509       8.81742195       8.13121419
18
Properties=species:S:1:pos:R:3 config_type=qcd gap_pre_relax_energy=-63.29378739386041 gap_pred_energy=-63.778029234630054 gap_fmax_final=0.0009658915865545213 gap_converged=1 pbc="F F F"
Sn      18.50591444      15.55195404      15.90584760
Sn      15.26911760      17.85789976      12.49271429
Sn      15.21057489      11.81359289      14.10021031
Sn      15.88859306      16.78010066      15.32892273
Sn      17.64696381      13.76552262      13.38127277
Sn      14.12243857      19.26573853      15.20018388
Sn      17.37885406      12.83901169      16.28641222
Sn      16.20816081      15.03043437      18.05294586
Sn      13.15288255      15.92833427      11.21245987
Sn      14.72085139      14.79075934      13.40902447
Sn      12.28004030      18.00325882      13.19270308
Sn      16.23926969      10.05713808      16.41250609
Sn      13.53086708      15.03393112      16.14024221
Sn      14.46544047      12.40788079      17.15336816
Sn      14.15981017      17.58517001      17.77681551
Sn      11.61549763      17.40462669      16.05593137
Sn      18.07955125      10.80394770      14.12496437
Sn      11.52517222      15.08069862      13.77347519
19
Properties=species:S:1:pos:R:3 config_type=qcd gap_pre_relax_energy=-66.97370517657606 gap_pred_energy=-67.47244311191287 gap_fmax_final=0.0009409061838312845 gap_converged=1 pbc="F F F"
Sn      10.25668829      11.96433458      14.73910325
Sn      13.13308033      11.78639720      13.60817140
Sn      11.39706525       9.14831271      13.90562138
Sn      11.00295429      13.74026228      12.33182924
Sn       8.04724628      12.72987785      12.70483806
Sn       8.30249789       9.78585960      13.79860706
Sn       9.58208928       8.80419808      11.19847925
Sn       9.65431349      11.76576228      10.28938300
Sn      12.24581795      10.38415443      11.09190647
Sn      12.25579034       7.22985262      11.30668206
Sn      13.78007314      13.23098969      10.90122851
Sn       6.91884780      10.39560569      11.08640926
Sn      10.54569895       7.29777562       8.71560088
Sn      11.37212676      14.31736311       9.27269320
Sn      11.27361796       9.57163291       6.77941542
Sn       9.93871626      12.30848011       7.33805930
Sn      12.88413939      11.70798469       8.31175588
Sn      13.38885372       8.64968233       8.84864389
Sn       8.47669603       9.63778763       8.22788587
20
Properties=species:S:1:pos:R:3 config_type=qcd gap_pre_relax_energy=-70.91790959601707 gap_pred_energy=-71.14781586514744 gap_fmax_final=0.000811967743486597 gap_converged=1 pbc="F F F"
Sn       8.17290216      10.85518204      13.57909840
Sn      10.64619353      12.72059964      14.06714343
Sn      11.05480460       9.67676406      13.97360191
Sn      13.19180651      11.88294409      12.56426775
Sn      11.12302425       7.10296000      12.17887784
Sn      13.68828086       8.85144041      12.62306135
Sn       7.10582396      11.39673919      10.67776992
Sn       8.45330599      13.67565897      12.23693405
Sn      11.43384276      14.22161295      11.42860201
Sn       9.62611735       9.59563747      11.18071005
Sn       9.24278101      13.60282970       9.26845230
Sn      10.32228207       7.30558604       9.15099602
Sn      13.28149078       7.53480976       9.94517168
Sn      14.38392324      10.46954944      10.02827402
Sn      10.76199672      12.04683091       7.00571123
Sn       9.54664226       9.16123212       6.82808272
Sn       7.76043620      11.43316434       7.67595939
Sn      12.45924145       9.51176924       7.74167598
Sn       7.50113277       8.68052146       9.15621872
Sn      11.49962536      11.52982202       9.94504508
20
Properties=species:S:1:pos:R:3 config_type=qcd gap_pre_relax_energy=-70.24333177988885 gap_pred_energy=-70.83747871048439 gap_fmax_final=0.0009022336175354826 gap_converged=1 pbc="F F F"
Sn      12.64973381      11.91717052       7.21934246
Sn      11.17067670       9.46282458       8.39688492
Sn      14.36911268       9.76354356       8.27811768
Sn       9.84020052      12.32562617       8.07715627
Sn      14.93940237      12.95590460       8.80092286
Sn      12.11107994      14.40337056       8.94327214
Sn      10.61609975      11.77300545      10.85162882
Sn       8.44139972      10.56976966      12.65362640
Sn      10.34083861       8.38903026      11.54788418
Sn      13.06387164       9.82396255      10.91996815
Sn       8.71183845      13.59797373      12.69844969
Sn      10.59931703      14.67853128      14.99067046
Sn      13.51151660      12.68504066      11.40752088
Sn      10.91087670       9.89557953      14.35720770
Sn      11.39777676      14.84223429      12.00332506
Sn      13.55259240      14.02192387      14.12040575
Sn      12.90675366       7.95957630      13.22325348
Sn       8.96565899      12.03177054      15.42524586
Sn      13.92345269      10.82697822      14.00940947
Sn      12.02967016      12.12805282      16.12757692
21
Properties=species:S:1:pos:R:3 config_type=qcd gap_pre_relax_energy=-73.17350040789121 gap_pred_energy=-74.53849157276838 gap_fmax_final=0.0009338579708220882 gap_converged=1 pbc="F F F"
Sn      12.64056215      10.56832164      13.60333942
Sn      12.47350152      12.71085739      17.29685373
Sn      13.61551887      10.07720443      16.35288267
Sn      10.54641817      10.59963364      16.27262863
Sn      10.01466139      13.69128613      15.73788200
Sn      12.76704859      15.13035460      15.53922124
Sn      14.76299411      12.74178879      15.18421584
Sn      10.78288314       9.11721436      11.60058398
Sn       9.77263517      11.49783781      13.31728432
Sn       8.67621373      11.20952762      10.05239666
Sn      12.01997151      13.54025959      13.16656956
Sn      14.74183021      12.35333331      12.09225545
Sn      13.91377035       9.55156499      10.92125939
Sn      11.67184517      11.20035188       9.58502402
Sn      12.57103754      12.81074978       6.86863305
Sn       9.49067315      13.94344951      11.42437186
Sn      10.22286393      10.81189984       7.02060881
Sn      13.18720473       9.82526817       7.43273385
Sn       9.85591848      13.64131315       8.36993161
Sn      12.56319759      14.05744292      10.22219236
Sn      14.79135592      12.00244589       9.02123697
22
Properties=species:S:1:pos:R:3 config_type=qcd gap_pre_relax_energy=-76.64172621442908 gap_pred_energy=-77.05108443671877 gap_fmax_final=0.000965691811336388 gap_converged=1 pbc="F F F"
Sn       9.78493653       9.78466726       7.00434565
Sn       9.18557857      12.89436770       7.57677340
Sn       7.89006015      10.68975422       9.51397264
Sn      12.29606869      12.29580590       7.00548404
Sn      14.19061024      11.38979322       9.51402817
Sn      10.68933616       7.88970883       9.51394191
Sn      12.89453521       9.18541032       7.57686933
Sn       8.37879004      13.70113595      10.48527074
Sn      11.04032847      11.03986952       9.49121845
Sn      11.38935640      14.19033880       9.51406154
Sn      13.70083872       8.37909371      10.48585575
Sn      13.70086168      13.70120455      11.59444853
Sn      10.68938643      14.19037056      12.56614666
Sn       8.37875699       8.37908809      11.59472446
Sn       7.89014781      11.39035213      12.56617648
Sn      11.04025104      11.04015129      12.58887061
Sn      14.19068724      10.69036922      12.56604011
Sn      11.38935584       7.88971309      12.56607549
Sn      12.89454717      12.89469446      14.50318351
Sn       9.78502662      12.29541612      15.07585504
Sn       9.18561283       9.18574715      14.50335233
Sn      12.29620958       9.78423026      15.07458755
23
Properties=species:S:1:pos:R:3 config_type=qcd gap_pre_relax_energy=-80.24202316261962 gap_pred_energy=-81.27915302340425 gap_fmax_final=0.0008844519343746705 gap_converged=1 pbc="F F F"
Sn      18.97211186      15.86249741      15.86496533
Sn      18.36054062      13.00596787      16.79552784
Sn      20.18608244      13.37316001      14.46326121
Sn      16.67121663      14.52220277      12.44004712
Sn      17.29507166      11.98993494      14.05238614
Sn      16.08763519      14.50851110      15.53183467
Sn      19.47201974      15.90636346      12.71071300
Sn      19.12473387      12.98385239      11.71519757
Sn      13.15547100      12.72618292      13.86014493
Sn      13.92874628      15.86325009      13.69951783
Sn      16.85527344      17.11558988      14.02854711
Sn      14.02347838      14.16711618      11.12003842
Sn      11.02000467      13.65862566      11.47557363
Sn       6.31129346      13.27964603      13.72101797
Sn      11.09992795      14.95396986      14.53334467
Sn      13.21540418      11.14796638      11.21454236
Sn      10.37313531      11.08681767      10.00076317
Sn       8.56280208      15.16931857      12.71957840
Sn      10.87416040      12.11255340      15.89597926
Sn      10.72324294      10.56631796      13.05125067
Sn       8.26441765      12.13076600      11.80564749
Sn       8.44862943      14.02869313      15.69971792
Sn       8.13581828      11.00191375      14.76162073
23
Properties=species:S:1:pos:R:3 config_type=qcd gap_pre_relax_energy=-79.89615524101667 gap_pred_energy=-81.1618099539912 gap_fmax_final=0.0008105481022351594 gap_converged=1 pbc="F F F"
Sn       7.53540778      13.05739551      12.99948922
Sn      10.78949210      12.02329033      14.52436275
Sn       7.54332128      10.15814600      13.99357060
Sn      11.48406859      14.56843331      12.99950593
Sn      11.48406161      14.56880837       9.95029030
Sn       5.93059127      10.89775292      11.47450734
Sn      13.16524921       9.99014839      14.36194673
Sn       7.53531477      13.05785592       9.95011114
Sn      14.05957623      13.02949660      14.12102444
Sn      10.10530209      12.21843501      11.47461126
Sn      16.08448205      10.11784430      13.04350834
Sn      10.43727167       9.42202653      12.96332740
Sn      13.29482108       8.50155339      11.47408018
Sn      13.84056836      11.49332713      11.47448254
Sn      16.58280222      12.81573328      11.47489254
Sn      10.43725027       9.42242629       9.98510673
Sn       7.54327061      10.15889782       8.95518114
Sn       7.80572612       8.40823990      11.47411033
Sn      14.15603525      14.84005431      11.47491001
Sn      16.08450917      10.11866424       9.90486152
Sn      14.05959344      13.03010564       8.82836594
Sn      13.16523676       9.99084503       8.58661157
Sn      10.78961026      12.02408198       8.42470424
24
Properties=species:S:1:pos:R:3 config_type=qcd gap_pre_relax_energy=-83.46073499499418 gap_pred_energy=-84.5453427191763 gap_fmax_final=0.0008131638334909334 gap_converged=1 pbc="F F F"
Sn      12.42144338       9.40528669      15.87382719
Sn      14.28897998      11.83160827      15.21328471
Sn      10.94419336      12.32069896      14.97871955
Sn       9.63346796       9.41465207      14.40278277
Sn      14.91143546       9.00498580      14.01632386
Sn      11.97048459       7.65946194      13.00512196
Sn       8.40628769      11.64670813      12.45706572
Sn      12.43089202      10.63235279      12.98129560
Sn      10.19944805      13.97594612      11.82291115
Sn      13.10503477      13.92453570      13.17495594
Sn      15.05018337      11.66008082      11.91585422
Sn       9.00817994       8.91285835      11.29938153
Sn      12.60759754      13.58853515      10.02646631
Sn      14.26173836       8.67001362      10.94983430
Sn      10.17683719      11.49444193       9.77376757
Sn       6.61842958      10.73717781       9.71181343
Sn       7.32126720      13.74664787       9.97223347
Sn       8.38464738       8.91658729       7.92726000
Sn      13.20510114      10.87465271       8.87706120
Sn      11.39867967       8.52821961       9.51595092
Sn       9.83270277      14.91274181       8.57518389
Sn       8.46155933      12.15040759       7.33310048
Sn      11.57585087      13.06209000       6.79874852
Sn      10.90382173      10.04757232       6.51531904
25
Properties=species:S:1:pos:R:3 config_type=qcd gap_pre_relax_energy=-87.23054083287396 gap_pred_energy=-88.21459291415061 gap_fmax_final=0.0009719854335324751 gap_converged=1 pbc="F F F"
Sn      12.82662721       7.10848014      10.23311157
Sn      10.24733667       5.89056799      11.80627938
Sn      14.26342925      10.01204816      10.62641852
Sn      14.65098100       8.60318099       7.87549037
Sn      13.88552865      10.33317600      13.64748466
Sn       8.93718793       8.11338269      13.75429678
Sn      11.75597450       9.65540749       8.84600550
Sn       7.82800954       7.56423059      10.95359495
Sn      11.74165604       8.54393566      12.65799925
Sn      11.77675550      12.36342062      12.80649838
Sn       9.36939853      12.29889303      14.79676675
Sn       8.73815748       9.86875882       9.04532882
Sn       9.53096385      10.52327786      11.95844426
Sn       6.96933205      10.84981504      13.57969203
Sn      10.02492505       7.04143438       8.86874881
Sn      12.64849843      12.51761541       9.84578918
Sn      10.24139615      14.92251117      13.50045444
Sn      10.56784369      12.24885450       7.60127720
Sn      13.08361897      10.66195222       6.25246990
Sn      15.42265634      11.62018277       8.18160519
Sn       6.96417951      11.76501450      10.67295566
Sn       7.29899593      14.02438869      13.15844703
Sn       9.67715804      13.87777839      10.63286434
Sn      13.34523836      13.58441568       7.10512595
Sn       6.84713050      14.65025642      10.23583026
25
Properties=species:S:1:pos:R:3 config_type=qcd gap_pre_relax_energy=-87.71581972168094 gap_pred_energy=-89.09299047585867 gap_fmax_final=0.0009586513153920754 gap_converged=1 pbc="F F F"
Sn      11.71724076      14.44643236       7.42808995
Sn      11.31693722      11.43763307       8.36921987
Sn      14.21302448      12.85619675       8.02504188
Sn      10.49142387      16.50511818       9.31659927
Sn       9.19124584      13.61798781       8.83233717
Sn      13.68179082      15.54567833       9.55381226
Sn      12.92457037      12.58189386      10.69302880
Sn      14.96738180      10.40227517      11.64758877
Sn      15.78288617      13.38531127      11.05658564
Sn      11.85892084       9.75831592      11.25320953
Sn       8.46379778      15.20512049      11.30088332
Sn       9.96641151      12.33130434      11.54109195
Sn      11.56065331      15.00529814      11.73831903
Sn      14.43487729      13.16757876      13.91430261
Sn       9.60550044      14.32352644      14.00160622
Sn      15.78632862      10.31206332      14.70263722
Sn      12.52611230      15.61808635      14.46560415
Sn      12.78041374      10.54035038      13.98353413
Sn      13.91018685      14.56847430      16.94856732
Sn      13.60812868       9.06285597      16.48037003
Sn      16.03033497      10.35749978      17.83928691
Sn      16.53439303      12.97293396      16.12108481
Sn      11.68385195      12.82117843      15.47477910
Sn      13.11282794      11.70271598      17.95394412
Sn      15.52246713      13.14587836      19.03018364
26
Properties=species:S:1:pos:R:3 config_type=qcd gap_pre_relax_energy=-90.04826308919176 gap_pred_energy=-91.55320889466175 gap_fmax_final=0.0009356887448422882 gap_converged=1 pbc="F F F"
Sn       7.90596006       8.76351159      14.90272952
Sn       9.17568743      14.77060425       9.69644714
Sn      14.38473181      14.03317400      10.13933372
Sn      10.85276036      14.32366516       6.99349551
Sn       8.94361735      11.56419998      15.79424740
Sn      11.20153931       9.56260345      10.48485304
Sn      11.14924982       9.29868413      15.20777802
Sn      16.11631715      12.55342834      12.45978679
Sn       7.08496669       9.07987901      11.65932664
Sn       9.38423225      10.95840268      12.80451266
Sn      14.16722716      10.67434387      14.37570519
Sn       8.13016693      12.91007368       7.25873406
Sn      16.12839289      11.48450562       9.57366886
Sn      11.64252787      14.16198125      11.58384245
Sn      10.56389316      11.33380488       6.26821705
Sn      13.22074292       8.17715506      12.76814891
Sn       6.50291269      11.26820385      13.84008090
Sn       8.73856342       9.99278331       8.64105611
Sn      13.34365296      11.52394662      11.57042236
Sn      10.69162502      12.25687614       9.25451052
Sn       7.59331440      12.12009863      10.58096586
Sn      14.03076096       9.18941885       9.49311546
Sn      11.59074999      12.46535896      14.21214508
Sn       9.91225283       7.90831640      12.62642802
Sn      13.40002183      12.15125161       7.77045743
Sn      16.13112807       9.46072399      12.02698664
27
Properties=species:S:1:pos:R:3 config_type=qcd gap_pre_relax_energy=-94.39886666805259 gap_pred_energy=-96.68442305818085 gap_fmax_final=0.0009482310430308796 gap_converged=1 pbc="F F F"
Sn      15.88490305      14.41382400      15.10345834
Sn      13.03047551       8.24121848      14.69777947
Sn       9.79974433       8.97847961      14.66864033
Sn      12.86395157      15.13741369      15.52094082
Sn      14.82135138      16.98425241      14.04318244
Sn      11.99787754      10.78711376      13.43452092
Sn      11.44784060       7.77812290       9.75658035
Sn       9.87503329      12.22675973      14.97317973
Sn       8.21337785      11.36359087      10.20884191
Sn      11.42966151      14.51125704      12.84363630
Sn      11.27883681      16.68905996      10.53432603
Sn      16.37871142      15.13410275      12.08407646
Sn      14.97106387      10.10160646      12.87472746
Sn      14.03739505      13.01466059      13.30137981
Sn      13.07093686      12.32174022       8.62961816
Sn      11.03669154       6.88182132      12.73775106
Sn      13.80401096       7.46394123      11.80246912
Sn       7.72954698      10.81641760      13.25247533
Sn       8.95053382       8.64393304      11.47889344
Sn      11.94832334      17.43654064      13.41384167
Sn       8.66152012      13.54578587      12.43758389
Sn      14.24290000      17.37859551      11.11822929
Sn      11.23122554      10.71760713      10.61862328
Sn      14.01021476       9.60515109       9.70128371
Sn      10.46562391      13.56005635       9.88784736
Sn      13.55651542      14.47892241      10.68518304
Sn      15.61794283      12.14423519      10.54714017
28
Properties=species:S:1:pos:R:3 config_type=qcd gap_pre_relax_energy=-97.62535331993246 gap_pred_energy=-98.6056869626184 gap_fmax_final=0.0009717329765029499 gap_converged=1 pbc="F F F"
Sn      14.08297133      16.34871465      12.48071831
Sn      10.97386268      10.79974285      12.78740137
Sn       7.87306687       9.16586593      12.21924962
Sn      11.81483620      13.74010482      12.35493403
Sn      13.75413474       8.57691692       7.55073488
Sn      12.85867663       7.97374496      13.77731198
Sn      12.80034941      11.57965956       7.54747418
Sn      10.50046462       7.54661855      11.77976946
Sn      11.17306123      17.04940614      11.56841108
Sn      12.96245239      15.17870572       9.78932615
Sn      13.87722949       7.78436840      10.77038240
Sn      14.03355433      13.72744538      14.62616167
Sn      12.65729926      10.69362616      15.43209131
Sn       8.68466699       9.03394614       9.15224447
Sn      10.80468077      13.31879904      15.25343486
Sn      14.54369296      10.68490436       9.95026122
Sn      14.63066253      10.50541723      13.05772963
Sn       8.26507689      11.74704543      14.04968572
Sn       8.02757221      12.08281603      10.98422863
Sn      11.71264140      16.21594877      14.56261369
Sn       9.92081035      14.44605922      10.11042089
Sn      14.70790560      13.29870426      11.60722213
Sn       9.85341657      11.81220571       8.47913654
Sn       8.96087134      14.95004778      13.03661577
Sn      11.61523783       9.84494432       9.99855979
Sn       9.86139753       8.85245182      14.82623354
Sn      10.85084370       9.27235899       6.64802571
Sn      11.31656282       6.88742954       8.71761966
29
Properties=species:S:1:pos:R:3 config_type=qcd gap_pre_relax_energy=-100.48189426524505 gap_pred_energy=-102.49719788079811 gap_fmax_final=0.0009794361673090728 gap_converged=1 pbc="F F F"
Sn      10.74712348      13.92628174       6.64541887
Sn      11.63024660      13.78393738      12.77224735
Sn      12.74085402      10.09500264      10.40076152
Sn      13.09601560       8.04264367      13.03123203
Sn      13.89487382       6.88888305      10.18022196
Sn      15.52742894       9.21799028      11.40995123
Sn      10.55121738      12.02574988       9.32963979
Sn       8.38437874      12.02279872       7.11666456
Sn      10.74300205       7.87215933      10.97890109
Sn      13.30097420      16.45251361      12.63344913
Sn      14.74962070       9.33446187       8.35743583
Sn      10.18819443      10.37480836      16.68520732
Sn      12.57084098      12.53168358      16.03157748
Sn      14.39091466      13.80012194      11.20768161
Sn       8.74635547      12.73881643      12.59934997
Sn       9.28039193       8.22242663      14.50465854
Sn      11.82772238      15.49646365      15.25581483
Sn      13.36720703      12.47262199       8.22045084
Sn       8.78640073      14.38996649       9.11387634
Sn      13.73534847      11.40249126      13.00019516
Sn      11.90815510       8.06806716       7.94847042
Sn      14.66968819      14.45601391      14.49264675
Sn       7.53362963      10.76765378      15.10929126
Sn      11.84069526      14.86856054       9.75143209
Sn       8.35021762       9.83075588      11.91757212
Sn       9.44195734      13.25846819      15.75072045
Sn      10.84241620      10.66591106      13.68702028
Sn       9.16050469       9.35950772       8.54785190
Sn      11.19408048      10.83369538       6.52071541
30
Properties=species:S:1:pos:R:3 config_type=qcd gap_pre_relax_energy=-104.79204485068892 gap_pred_energy=-106.40078724353208 gap_fmax_final=0.0006436381044198754 gap_converged=1 pbc="F F F"
Sn      13.01461947      12.58361554      11.22402632
Sn      13.19927290      12.92503016      14.55188757
Sn      13.54711687       8.77995593      11.50888410
Sn      10.81277993      11.34354749      12.64629618
Sn       9.31716381      13.89955008      11.96394446
Sn      13.53513752      15.35511742      12.40290020
Sn      15.73704359      12.57598967      12.58910064
Sn      11.27241330       7.29340312      10.03585383
Sn       8.79457288       9.63981362      11.04527169
Sn       7.27776294      12.55778657       9.90654376
Sn       7.35392614      15.97198221      10.05892495
Sn      10.66778986      16.61467991      11.00479678
Sn      15.28922453      11.23462188       9.77760873
Sn      12.93989894      15.03460782       9.36580508
Sn       9.96599259      14.12136316       9.03604077
Sn       9.98186949      11.01442315       8.72339405
Sn      13.43983709       8.79329700       8.47503027
Sn      12.74105139      12.07095775       8.20506752
Sn       9.99898951      12.67323302      15.34243131
Sn       6.28619123      14.20959360      12.41383825
Sn       7.66985477      11.56512692      13.17829247
Sn      16.21836629       8.32627957       9.89022780
Sn      14.29603222       5.93543007      10.00316650
Sn      11.89963716      10.15521258      15.27476549
Sn      10.69690809       8.33540320      13.04218062
Sn      12.61343078       5.98706740      12.57147262
Sn      10.95842276      15.37273574      14.05623526
Sn       8.21323250      16.58543832      13.04130287
Sn      14.69982338      10.03999627      13.99103808
Sn      15.60734823       7.05045094      12.71938199
31
Properties=species:S:1:pos:R:3 config_type=qcd gap_pre_relax_energy=-108.53004899731854 gap_pred_energy=-109.88590458659353 gap_fmax_final=0.0007522077759049388 gap_converged=1 pbc="F F F"
Sn       6.37272149      12.80749151      13.97290673
Sn       7.57500315      12.33147304      10.96920648
Sn       9.87391505      10.11442363      10.00232117
Sn       9.98709403      13.42312489       8.80090784
Sn       8.17040652      10.15828573      13.11266842
Sn       8.24037282      14.93233647      12.47799370
Sn      11.66339602      11.02287030       7.56664940
Sn       8.34033111      11.59288653      15.99636677
Sn      10.88718349       8.17094463      12.24382583
Sn       8.19020332      14.61009251      15.56773674
Sn      13.12421979      13.76647129       7.56761577
Sn      12.91279863       9.34042023      10.17218424
Sn      10.21607168      12.53913700      12.49396712
Sn      12.39338455      12.39387264      10.51661528
Sn      11.87425159      15.44722529      10.17373816
Sn      10.90081119      10.37901673      14.57339659
Sn      11.22025567      15.34774087      13.25194200
Sn      14.80041907      11.36566171       8.80089016
Sn      11.07386429      13.29434015      15.62985205
Sn      13.56601494       9.43806929      13.25049996
Sn      14.91323221      14.67361706      10.00401709
Sn      16.54619403       9.85412037      12.47762353
Sn      14.57029303      12.24715851      12.49414963
Sn      13.89941000      16.61576371      12.24661344
Sn      13.71207674      11.49015303      15.62945819
Sn      13.88503095      14.40611795      14.57480474
Sn      17.21175700      12.45577107      10.97021031
Sn      16.59602255      10.17481533      15.56749186
Sn      16.61577569      14.62792495      13.11452971
Sn      18.41359096      11.97838317      13.97381967
Sn      16.44538347      13.19177539      15.99748241
32
Properties=species:S:1:pos:R:3 config_type=qcd gap_pre_relax_energy=-110.7190448141039 gap_pred_energy=-113.2054136661301 gap_fmax_final=0.0009136406806348687 gap_converged=1 pbc="F F F"
Sn      15.72074424      11.92319052      10.64225424
Sn      13.33899272       9.36197607      14.61939187
Sn      11.38427132      13.21970429       6.99792209
Sn      10.93627355      13.73612566      13.79218146
Sn      13.14920639      11.03178708      12.05213123
Sn      13.34943967      12.43808992      15.14497010
Sn       8.82441189      14.61092683      11.32008641
Sn      13.98831264      14.05783506      12.29965409
Sn      11.44145698      16.25496072      11.51293470
Sn      15.73787692       8.96860250      11.91270285
Sn       9.98447247       8.31116091      14.17216443
Sn      14.55414322       9.51166216       9.07543649
Sn      14.27156838      12.28015416       7.84412820
Sn       9.57801739       7.40985184      10.89025395
Sn       9.32493313      11.24892982      13.17043678
Sn      16.05845951      11.38860995      13.79811141
Sn       8.28163658      12.83108080      15.64724587
Sn      11.17449739       9.87727646      10.01130987
Sn       6.38707479      11.71399529      13.51820904
Sn       8.17193132       9.92414732       9.36901806
Sn      10.62844893      10.79493844      16.01327581
Sn      12.13851735      10.11328276       7.10794833
Sn       9.19619009      11.01042171       6.40678339
Sn       8.76414668      12.95426205       8.76136828
Sn      11.36740217      13.05679587      10.42178402
Sn      10.22209186      15.85462256       8.63246994
Sn      12.48244403       7.13742645       8.76746406
Sn       7.45083164       9.81500602      15.69416796
Sn       9.73869788       8.05486249       7.40023976
Sn       7.30557749       8.91881073      12.55103136
Sn      13.32375754      14.97373382       9.11932949
Sn      12.41502084       7.90661671      12.02444145
33
Properties=species:S:1:pos:R:3 config_type=qcd gap_pre_relax_energy=-115.05500066868171 gap_pred_energy=-116.96170243396404 gap_fmax_final=0.0009271400748646415 gap_converged=1 pbc="F F F"
Sn      15.63794654      12.10890981      14.44367681
Sn      10.14888009       9.91376782      10.98732719
Sn      13.33735398       6.12316308       8.96890333
Sn       9.94836322      12.03424970      16.96220854
Sn       9.75816383      12.57763432       6.76768246
Sn      12.17172821      10.70667552       6.45066595
Sn      11.81730295       7.44326462       6.49122518
Sn      12.65745835       7.48707474      11.73533419
Sn       8.58109564      14.98287415      11.22732395
Sn       7.58647803      15.99630446      14.39028591
Sn      13.25552006      10.78258573      16.03562743
Sn      10.00660507      15.11662008      16.39149680
Sn      12.22509808       8.27989826      14.65042591
Sn      12.53963582      12.11379410      11.21251194
Sn       9.52879305       9.72333550       7.86393792
Sn      12.39622058      13.59927341       7.81760327
Sn       9.45703212      13.41027516      13.57293473
Sn      14.74565755       9.33846903      13.29164934
Sn       8.14908221      10.87468806      14.66943094
Sn      14.79285451       8.11204991       7.10501485
Sn      14.19392549      11.15991667       8.73796397
Sn      15.58918837      11.70308063      11.41374495
Sn       9.96020289      12.63524750       9.77173732
Sn      12.16981970       8.91864728       9.11357594
Sn      11.81526269      15.05146047      10.65542889
Sn      14.17600547      14.32660441      12.65160278
Sn       6.46258035      13.26456064      13.27008500
Sn      15.28652537       8.34630671      10.27445289
Sn      10.60567370      16.26491992      13.39541039
Sn      12.32113840      13.50824494      14.90615340
Sn       7.27605519      13.47007540      16.23527158
Sn      11.14803419      10.90680568      13.67327479
Sn      14.95280981      14.41771377       9.56452297
34
Properties=species:S:1:pos:R:3 config_type=qcd gap_pre_relax_energy=-118.45240911473213 gap_pred_energy=-120.8501900285786 gap_fmax_final=0.0008370884861890863 gap_converged=1 pbc="F F F"
Sn      12.22330188      12.69562157      15.93858961
Sn      16.22284077      12.91142818      13.24999115
Sn       9.62498506       7.88568709      15.49080136
Sn      12.34864523       9.70926057      15.30599330
Sn      14.38086330       8.89625298      10.70789484
Sn      11.99982280      12.40131428       8.97439077
Sn      14.29956526      11.91684891      10.97689401
Sn       9.62663248      17.08136138      10.30084369
Sn       8.34782590      12.77173878      13.22647940
Sn      13.16333471      13.59371961      13.25223922
Sn      12.53967926       9.32697023       8.13302132
Sn       7.71360932       7.20190960      10.51772015
Sn      14.91147281      10.08111472      13.43729853
Sn       9.16501143       8.52450145       8.20567108
Sn      15.87524327      10.59523956       8.58254035
Sn       9.44829394      11.16980380      15.69800264
Sn      10.89874535       6.90436630      10.16228107
Sn      17.29649568      10.32423443      11.41991547
Sn      11.20842269       8.32246074      12.84333720
Sn       7.98548793       8.85600508      13.10145471
Sn      12.17922059      16.32422022      12.31243249
Sn       9.65069270      14.29499495      15.60064815
Sn       9.13914253      16.03134039      13.18751291
Sn      10.72672400      10.07169922      10.39220583
Sn      17.26440208      13.17319260      10.18800332
Sn      15.10086743      15.31520510      11.05462250
Sn      14.74857587      13.64998098       8.35900468
Sn      11.02850990      11.40474611      13.11298628
Sn       7.70900408      14.58786250      10.74754267
Sn      12.50562847      16.01340795       9.21120930
Sn       9.84486387      14.47793952       8.42500433
Sn       7.73955892      10.30744036      10.38184995
Sn       9.21130022       6.02320375      12.85650200
Sn      10.60973045      13.89342728      11.38361590
35
Properties=species:S:1:pos:R:3 config_type=qcd gap_pre_relax_energy=-121.9218246482357 gap_pred_energy=-124.15682642708983 gap_fmax_final=0.0009486797878785697 gap_converged=1 pbc="F F F"
Sn      12.43852969      11.25666739      14.73164178
Sn      13.17472665      11.57489930      17.90965823
Sn      13.13767728       8.75213709      16.18506191
Sn      10.48274506      10.30457708      16.81181684
Sn      10.93185402      13.37985211      16.27938361
Sn      13.96725687      13.94226108      15.74017502
Sn      15.39004518      11.10150793      15.48671857
Sn      11.99271085       8.94768592      12.86237582
Sn      11.09623986      12.96893406      12.86575072
Sn      11.67581909      15.76808704      12.12129720
Sn      16.04670057      13.47294440      13.52942704
Sn      15.48950324      10.72281667      12.33418465
Sn      13.31840415      12.28657835      10.98779493
Sn      12.63059314       6.20373313      13.74640181
Sn       9.63017889       6.97997849      13.48271711
Sn       9.22642779      10.15943633      13.77436467
Sn       9.10581020      15.17399499      13.80174643
Sn       9.67305230      18.08352137      12.81123554
Sn      12.76623075      18.64778366      12.57984489
Sn      14.39231681      16.11428867      13.44089752
Sn      14.07568194       7.40888048      11.27243448
Sn      11.13518661       6.23125871      10.94667175
Sn       9.39430433       8.92794445      10.90797966
Sn       8.28493884      12.85391132      11.95996559
Sn       8.82912294      15.95125810      10.69548818
Sn      10.88429814      18.47749388      10.01754582
Sn      13.95618539      16.86769488      10.13953626
Sn      16.74185540      15.66354410      11.48043126
Sn      17.58766120      12.64280501      10.95692284
Sn      12.27994983       9.56591101       9.87443337
Sn      10.42782557      12.11091985       9.92774991
Sn      11.40754176      15.23035463       9.17392293
Sn      15.31443326      13.96704712       9.33887908
Sn      15.46587013      10.84137167       9.22596262
Sn      12.92967199      12.69926945       7.88093170
36
Properties=species:S:1:pos:R:3 config_type=qcd gap_pre_relax_energy=-126.07465369393152 gap_pred_energy=-128.33203153647906 gap_fmax_final=0.0008978851622609106 gap_converged=1 pbc="F F F"
Sn      17.37442764      14.29276102      11.05772120
Sn      14.69057784      15.30349971      12.21478326
Sn      14.62054713      13.62814417       9.64025304
Sn      17.03381339      14.46516334      14.29372384
Sn      16.82170076      11.34732438       9.83052303
Sn      19.60985745      13.01883999      13.03105756
Sn      14.13738041      13.32946698      14.63916669
Sn      14.14228774      10.68610415      16.28642340
Sn      16.66103899      11.85507588      12.83399143
Sn      11.65007010      11.88540500      17.64328985
Sn      10.38050712      15.12749695      11.75077450
Sn      11.98890801      14.71730731      16.53329632
Sn      13.77420456      10.82624691      10.19766525
Sn      18.39868691      11.46319779      15.29517684
Sn      16.41589650       9.19459712      14.65022167
Sn      12.68770460      13.08703513      11.94286407
Sn       9.18903100      13.82005203      17.96740024
Sn      11.29624013       9.92460818      15.28635133
Sn      10.31313626      12.78526846      14.81364809
Sn      11.35199650      15.28094855       8.57876476
Sn       9.21846872      15.50099399      15.31798843
Sn      13.63252067      10.50995365      13.28546078
Sn       8.71617350      10.79469012      17.30776883
Sn      18.87562079       9.89588562      12.58726082
Sn      10.42061295      12.71946847       9.89756046
Sn      11.26321068       9.95647700       8.82348730
Sn      11.80250656      12.56672999       7.18086258
Sn       8.27183164      15.55883030       9.35406115
Sn      15.73889299       8.87476399      11.57482088
Sn       7.91044746      13.27975538      11.57707927
Sn       7.33309362      13.00982540      15.52309545
Sn       8.47036339      10.51019891      14.05406566
Sn       8.42844535      10.50954274      10.30347963
Sn       9.07476485      14.11210657       6.70025555
Sn       8.96207790      11.00033308       7.01416448
Sn       6.96017009      12.77911595       8.62870660
37
Properties=species:S:1:pos:R:3 config_type=qcd gap_pre_relax_energy=-129.43136270764586 gap_pred_energy=-131.14265816854146 gap_fmax_final=0.0008815448744562559 gap_converged=1 pbc="F F F"
Sn      12.39596429      12.28793611      14.57877995
Sn      11.08933659      13.29059090      17.25793323
Sn      14.58596803       9.85424836      14.22891651
Sn       9.46782604      11.30192612      15.45962226
Sn       9.62459834      14.55207370      14.08630767
Sn       7.23385753      16.04778741      15.20660437
Sn      12.39687417      15.66270157      15.19657385
Sn      18.69215883      12.29534069      14.36763016
Sn      12.54026955      10.20909260      12.04481267
Sn      12.22972011       7.07786384      10.43020165
Sn       9.53889717      11.61880623      12.22000937
Sn       7.36208975      13.94808615      11.42069511
Sn      12.42880352      14.09433509      12.15351484
Sn      11.55239665      16.98694818      12.22302150
Sn      16.57274355      14.72747457      14.31727431
Sn      17.99502784      14.63217038       9.82432228
Sn      16.07275122      12.06978969      12.88687737
Sn      17.23073772       9.26029245       9.97201054
Sn      12.00592368      12.31384259       9.70988822
Sn       8.86026748      12.33787158       9.25263323
Sn       7.98406632      13.56200810      17.15553406
Sn       9.79808715      16.13823879      17.22716917
Sn      12.63566646       7.37606556      13.52739081
Sn      17.61062004       9.29991315      13.10445320
Sn      15.13504172       7.82656300      11.70882097
Sn       6.81360996      12.91928586      14.36456073
Sn       9.97881168       8.50176669      12.24979714
Sn       9.95453222      17.91896086      14.70574413
Sn       8.30622345      16.86628553      12.19825713
Sn      19.27062941      14.64586119      12.62015652
Sn      17.21864306      16.72735634      11.99442217
Sn      18.78414013      11.79245556      11.26868783
Sn      10.41470286       9.47312013       9.28928791
Sn      14.06155380       9.71924759       9.43389726
Sn      10.10077979      15.04382442      10.24879566
Sn      15.20430120      14.61461161      11.45725825
Sn      16.04975255      12.20263133       9.80551187
38
Properties=species:S:1:pos:R:3 config_type=qcd gap_pre_relax_energy=-132.39091881324492 gap_pred_energy=-136.35354561834174 gap_fmax_final=0.0009756421508689006 gap_converged=1 pbc="F F F"
Sn      14.72510274      15.94871385      10.76757865
Sn       9.89555387      12.10310231      15.20674173
Sn      15.00000880      12.79235268      15.20751195
Sn      11.79744862      14.93998061       9.68802870
Sn      12.21719426      13.98185169      14.55707423
Sn       9.35981169      15.94316518      11.30308298
Sn      11.63534208      15.35162647       6.69028639
Sn      13.95467836      12.81737021      10.33824665
Sn      15.93016090      13.64222345      12.40980392
Sn      15.21346231      11.59853104       7.85166989
Sn      10.61147496      14.68347045      17.04369421
Sn      10.07444668       9.01179333      14.12790864
Sn      10.94088720      12.07891765      10.33828713
Sn      10.17092333       8.94734872      10.76709254
Sn      12.44715756      12.44743768      18.58108838
Sn       8.96548683      11.25344365      12.40936148
Sn      15.53591953       8.95170180      11.30284526
Sn      14.28349745      10.21168800      17.04401364
Sn      15.44233769      12.79858494      18.20504619
Sn       9.68230875      13.29710613       7.85138691
Sn      12.44792863      12.44751024       6.31426809
Sn      13.26044407       9.54339494       6.69131206
Sn      12.66575806       8.77287058      12.48571023
Sn       7.83706741      13.39794280      10.59115265
Sn      17.05800107      11.49750034      10.59143587
Sn      16.85459201      10.91924296      13.59262624
Sn      13.09845376       9.95621684       9.68858201
Sn      12.22989911      16.12261134      12.48594619
Sn       9.81736002      16.35083448      14.30414403
Sn      11.25467183       9.83102371      17.20901935
Sn       8.04011067      13.97612515      13.59257925
Sn      12.67857212      10.91363540      14.55705957
Sn      15.07803182       8.54401099      14.30418586
Sn      14.82105169      15.88374597      14.12838464
Sn      13.64006279      15.06399903      17.20966133
Sn       9.45206838      12.09630794      18.20399909
Sn      10.48028809      10.35074098       7.68623738
Sn      14.41537624      14.54481785       7.68588804
39
Properties=species:S:1:pos:R:3 config_type=qcd gap_pre_relax_energy=-136.0321024218477 gap_pred_energy=-139.30832622717438 gap_fmax_final=0.0008193107479714344 gap_converged=1 pbc="F F F"
Sn      13.16806419      11.22621689      15.51834080
Sn      11.23065943      12.17830928      17.82651866
Sn      12.95322849       8.26287138      14.67669555
Sn      10.94167845      10.00628939      11.31512971
Sn       8.59196369      10.47697373      13.19964535
Sn      10.18545545      12.30883644      14.89929353
Sn       8.43347768      16.02394850      15.21522158
Sn      12.49681527      13.66730703      13.70258589
Sn      16.86340770      12.07920766      13.89231057
Sn      12.68568425       7.52409429      11.62732548
Sn       9.79790078       7.15988985      10.47037533
Sn       8.18457211      12.64463895      10.83802828
Sn       7.74269681      11.33055710       7.96726420
Sn      10.88221815      13.99054343      11.16797899
Sn      10.61566271      17.11728402      10.66873436
Sn      14.78558117      12.85161116      11.85209943
Sn      15.76615728      14.89094331       9.57769444
Sn      14.68585953       9.85437196      12.68402038
Sn      17.10261736       9.86539325       9.33260242
Sn      11.90796192      11.97328990       9.10050669
Sn      10.43651538      11.65291189       6.49884850
Sn      10.59871308       9.59377973      16.18218905
Sn       8.49649687      13.55134004      17.08214280
Sn      11.18362830      14.99973669      16.33758297
Sn      10.08541698       7.77497749      13.56340490
Sn      17.88343011       9.66299592      12.36037380
Sn      16.14123351       7.51220721      11.11226224
Sn       7.28420481      13.25661508      14.11080420
Sn       7.72763281       9.50278919      10.40713966
Sn      11.00898119      16.74247560      13.73810273
Sn       8.40571568      15.50929867      12.18490026
Sn      17.06752707      14.86875391      12.48966008
Sn      13.71812452      15.91295307      11.73573259
Sn      17.88641582      12.39870800      10.89126896
Sn      10.15418521       9.40328094       8.44609495
Sn      14.11083685       9.04774437       9.32641662
Sn       9.45160566      13.90739256       8.20983508
Sn      12.50003470      15.36615258       8.92494193
Sn      14.91627986      11.98195037       8.94456784
40
Properties=species:S:1:pos:R:3 config_type=qcd gap_pre_relax_energy=-139.54133007432608 gap_pred_energy=-142.79392510851486 gap_fmax_final=0.0009694592031787325 gap_converged=1 pbc="F F F"
Sn      12.02385163      10.77870114      13.73466765
Sn      11.61700875      11.80348467      16.70765468
Sn      13.01402289       7.03990554      14.14390247
Sn       9.32772736       9.16221648      13.37892533
Sn      10.36393142      13.30308040      14.29947689
Sn       7.09421269      14.27129530      15.08745085
Sn      12.26319596      15.68673175      13.35648048
Sn      16.71278183      13.13974009      13.86174556
Sn      11.17576584       9.35463260      11.02906549
Sn      11.08473415       6.70585481       9.27138757
Sn       9.44847775      12.91952226      10.65162302
Sn       7.56088135      12.79420763       8.28889994
Sn      10.79940794      15.91828852      10.60196424
Sn      12.85231615      15.72973485       8.23644428
Sn      14.19824391      13.78962841      12.00510060
Sn      15.39430199      14.25424759       9.05723230
Sn      14.93779691      10.84716526      13.16423501
Sn      15.52232670       9.39945500      10.61140614
Sn      12.39358008      12.78385296       9.75197320
Sn       9.60444435      11.33085105       6.41207704
Sn      11.05712184       8.71635347      15.81927932
Sn      14.11639176       9.41693872      15.69722547
Sn       8.43325740      11.71292464      16.20302503
Sn       9.48230380      14.45817014      17.07241113
Sn      13.86561274      13.78231262      15.17104600
Sn      10.68972008       6.36799374      12.33826092
Sn      15.79143920       7.81972294      13.24175388
Sn      13.44350907       7.32388311      11.15820191
Sn       7.88461831      11.86023969      13.10389629
Sn       8.45159051       7.74237679      10.72586045
Sn       9.46481058      16.27494309      14.55803997
Sn       7.84073177      15.07197682      12.10899882
Sn      16.87224308      15.24683179      11.54435295
Sn      14.09215774      16.82356306      11.00543147
Sn      17.04732024      12.13949813      10.79048894
Sn       8.94007287      10.28499300       9.18916237
Sn      11.80283057       9.74841866       7.94890079
Sn      10.11513531      14.25927727       7.76708703
Sn      12.43442458      12.68963010       6.55447801
Sn      14.72742969      11.18908666       8.29211728
41
Properties=species:S:1:pos:R:3 config_type=qcd gap_pre_relax_energy=-143.87140362469614 gap_pred_energy=-146.68879083255146 gap_fmax_final=0.0009374857014392606 gap_converged=1 pbc="F F F"
Sn      11.80616910      11.96273620      14.98648638
Sn      12.95395757      12.08453159      17.95831111
Sn      12.76981462       9.33790078      16.09489165
Sn       9.77946504       9.58530950      15.20559881
Sn      10.93651922      14.21815265      16.85415752
Sn      13.96626546      14.42878432      16.04237617
Sn      15.12319577      11.44456448      15.78722434
Sn      11.12445805      10.08169354      11.80527729
Sn       9.32603855      12.73456796      12.40907878
Sn      11.05094180      15.22852444      11.95476169
Sn      13.93592730      12.74355023      12.99857645
Sn      15.45700080      10.25490622      12.09201612
Sn      12.59437907      12.22254417      10.15917922
Sn       8.69728219      12.53181012      15.39744271
Sn      11.31790456      16.44468438      14.79026529
Sn      16.28192626       7.42105582      12.89360876
Sn      13.33943067       8.43243594      13.15286056
Sn       8.87373131       8.14897072      12.63142298
Sn       7.07454118      10.43356994      13.73145704
Sn       7.11499024      14.68510747      13.69892237
Sn       8.76701166      17.12452713      12.92872088
Sn      11.64893747      18.53952011      12.47901109
Sn      13.91404043      15.79360464      13.23325888
Sn      17.02151661      12.64494079      13.53294557
Sn      18.33264442       9.90284760      12.96600218
Sn      14.55868295       7.62431181      10.16493128
Sn      11.56427429       7.12920841      11.06066655
Sn       8.25730791      10.48061533      10.66812087
Sn       6.22308823      12.60985025      11.61039054
Sn       8.15997585      14.92731021      10.70161121
Sn       9.93830974      17.46237445      10.06140995
Sn      13.39156883      16.66727738      10.28462219
Sn      15.98640416      14.58411654      11.36751031
Sn      17.64941209      11.67760622      10.47055179
Sn      17.76683547       8.42645415      10.31456825
Sn      12.03263910       9.47202180       8.90710724
Sn       9.99267146      12.25427105       8.44053570
Sn      11.71599631      14.73018153       8.64529942
Sn      14.72746589      13.93455792       8.67794579
Sn      15.00984610      10.55805737       9.05674765
Sn      12.82758389      12.04109644       6.79427897
42
Properties=species:S:1:pos:R:3 config_type=qcd gap_pre_relax_energy=-146.3646013388659 gap_pred_energy=-149.84299224755907 gap_fmax_final=0.0009729013389789729 gap_converged=1 pbc="F F F"
Sn      13.00778988      11.31673614      12.48771915
Sn      12.56471959      11.80298103      15.61962746
Sn      13.04314079       7.90562004      13.88784781
Sn      10.19099215      11.08328414      13.67604544
Sn       7.98678004       9.48150573      15.68859680
Sn       9.50669003      14.85488594      14.78924266
Sn       7.54081479      15.03936613      12.06975064
Sn      12.54255096      14.66087024      14.68777181
Sn      14.60753628      16.59638063      16.51820839
Sn      15.83337963      12.60889459      12.77028214
Sn      12.14053621       8.74279984      11.03724744
Sn      12.74368342      10.23378911       7.13751562
Sn       8.95547803      12.44022725      11.35611545
Sn       7.91817279      10.71816460       8.97896683
Sn      10.58112694      15.12688723      11.72833402
Sn       8.53638930      15.84160825       9.05717717
Sn      13.45084483      14.00196262      11.33108804
Sn      13.68355515      12.79628174       8.49827070
Sn      14.96401248       9.83482031      10.73797259
Sn      17.16615224       8.02349846       9.44584887
Sn      10.83670907      11.74180455       9.01150870
Sn      11.68618450      12.86859375       5.75838968
Sn      11.04938410       8.96350734      16.11853774
Sn      14.96571673      10.30403574      14.65447044
Sn       9.49748762      12.15576109      16.46829274
Sn      11.45207009      16.60740487      16.72485076
Sn      13.10963785      14.07488130      17.68677772
Sn      10.07153788       8.09903989      13.29691666
Sn      17.07774614       8.71637739      12.60477357
Sn      14.80594990       6.80998009      11.53591909
Sn       7.33818254      12.44640314      14.23575307
Sn       7.56774277       9.73179050      12.46557568
Sn      12.89191321      17.59838678      14.17765609
Sn       6.63260968      13.44409045       9.45741371
Sn      15.65312883      13.58142270      15.79668728
Sn      15.18822313      15.62012034      13.39685739
Sn      17.66822012      11.14499119      10.70671713
Sn       9.78869132      10.43492766       6.40553750
Sn      13.96281853       7.84274141       8.58926485
Sn       8.77726759      13.36318523       7.17156551
Sn      11.27401214      14.81405661       8.28410026
Sn      15.75838229      10.54389554       7.96676691
43
Properties=species:S:1:pos:R:3 config_type=qcd gap_pre_relax_energy=-150.38224008084262 gap_pred_energy=-153.81801431339642 gap_fmax_final=0.0009242118591820703 gap_converged=1 pbc="F F F"
Sn      12.11864415      11.23585753      11.79319178
Sn      13.05335785      12.10018662      15.77687667
Sn      13.70683218       8.94450823      13.14248146
Sn      14.36410398       6.49239674      15.46533011
Sn      10.43719963      11.57379255      14.27193525
Sn       7.92579556       9.55938765      14.13519674
Sn       9.56065998      14.51992065      14.63884823
Sn       6.81995381      14.44602711      13.09656679
Sn      13.77920402      14.28366201      13.72774583
Sn      14.42980552      17.08360365      15.49414533
Sn      15.91665072      12.27176953      14.46532165
Sn      10.32684537       8.88162927      12.60625321
Sn      11.01880601       9.06524752       9.70227228
Sn       8.49946258      12.49233982      11.07652176
Sn       7.22341770      11.76734100       8.32848750
Sn       9.42545562      15.41358089      11.70025384
Sn      10.40459417      16.26661306       8.89558289
Sn      12.33546968      14.90540548      11.15658270
Sn      15.18287592      14.47145577      10.14384009
Sn      13.86711608       8.19383550      10.13698282
Sn      16.17384161       9.72702037       9.10989171
Sn      11.75262488      11.85757104       8.93696807
Sn      12.21051984      12.02956649       5.70289622
Sn      11.91838418       8.79333270      15.81734821
Sn      14.94553752       9.69094739      15.86467717
Sn       7.55739462      12.32081131      15.28298869
Sn      12.13706044      15.03352792      16.29808280
Sn      15.45583073      14.49714106      16.82077959
Sn      11.76893829       6.48157532      13.62667267
Sn      16.49234223       8.02933452      13.79791256
Sn      14.54468090       6.14502057      12.28333147
Sn       5.98811475      11.47028876      12.67375584
Sn       7.70565309       9.57893783      10.80677481
Sn      11.60242070      16.84441770      13.76123256
Sn       7.56692519      14.81465747       9.11777945
Sn      16.62872782      15.28096649      14.04464613
Sn      14.65419567      16.95221989      12.16271883
Sn      15.10131614      11.58248869      11.36273674
Sn       9.80147904      10.34040069       7.10913575
Sn      13.46771060       9.48897054       7.34166310
Sn       9.73565423      13.48572146       7.32412640
Sn      12.92658458      14.65618170       8.01280224
Sn      14.70821848      12.17074555       8.22706810
44
Properties=species:S:1:pos:R:3 config_type=qcd gap_pre_relax_energy=-152.92304554834314 gap_pred_energy=-157.08734280620104 gap_fmax_final=0.0009670386304147666 gap_converged=1 pbc="F F F"
Sn      16.56995126      13.52104185      15.38506399
Sn      13.28631377      17.34666672      13.22152870
Sn      15.04722595      10.88054486      14.55449628
Sn      11.04712795       9.03525161      14.49242075
Sn      16.92452263       8.31540720      14.35358150
Sn      17.57927766       8.91043690      11.28624119
Sn       8.11971109      15.49935269      13.33109470
Sn       8.40419542      16.57955594      10.45697163
Sn      10.13082235      18.45298872      12.43799908
Sn      10.78175328      10.89723447      16.90421964
Sn       6.27215918      10.67280753      11.57755223
Sn      10.94598111      15.49464340      12.03482253
Sn      16.85817953      10.22677978      16.94032999
Sn      12.62842433      12.95495981      12.44446207
Sn       6.64807363      13.87962099      10.96717950
Sn       8.82081045      12.02966172       9.69955751
Sn      12.15728124      10.07103389      11.84183844
Sn      13.98247551      12.25823673      17.14483409
Sn      10.49499468      14.90202402       8.95640360
Sn      17.28172284      10.09625773       8.33350140
Sn      14.46884707      11.59850458       8.25677840
Sn      11.88216998      12.19901426       9.68019609
Sn      11.74375692      13.21437404      15.24198109
Sn      13.91448889       8.21048949      13.56434344
Sn      19.12855718      11.54185147      10.31081980
Sn      16.62040543      16.94051622      14.01245944
Sn      11.22766748      14.11150926      18.12757021
Sn      14.61880042       9.00551280      10.32224570
Sn      16.79709488      13.70912011       9.02046626
Sn      14.85470700      14.63865432      13.12867091
Sn      16.01459635      11.58009815      11.06680976
Sn      17.99330758      11.13589544      13.59176592
Sn      13.86603953      15.39121562      15.94472179
Sn       8.72404443      13.36459367      15.79189011
Sn      12.46093430      17.35471696      10.10724545
Sn      13.67182292      14.58254942       8.93414006
Sn       5.83458550      12.72229127      13.83319692
Sn      13.54225001       9.13767032      16.67876027
Sn       9.21802333       9.47443897      11.89541908
Sn      17.71988017      14.18295825      12.15534394
Sn      15.49565524      16.35482405      10.73820478
Sn       8.05775596      10.31759843      14.77514562
Sn      10.76365738      16.12241185      15.13304798
Sn       8.77642760      12.46116384      12.70115754
45
Properties=species:S:1:pos:R:3 config_type=qcd gap_pre_relax_energy=-157.6536368493068 gap_pred_energy=-161.49320567130172 gap_fmax_final=0.0009552580025370585 gap_converged=1 pbc="F F F"
Sn      10.43824927      14.19004313      16.69801176
Sn      17.09111409       7.40898545      12.90786565
Sn      10.77394614      17.25708936      16.82422072
Sn      12.43516057      14.52938671       6.03844176
Sn       9.34202257       8.96255603      13.71952327
Sn      14.98407240      17.22043738      13.77549556
Sn      12.35580714       8.17860620      15.54466347
Sn      15.72759098      15.47014406      16.34037936
Sn      15.62850495       8.91412952      10.44913624
Sn      13.73105522      13.66093490      17.88256496
Sn      15.18649761      15.38697220      11.05312119
Sn      15.56980147       9.27630886      15.83810622
Sn      10.06062829      16.95334799      11.51427606
Sn      12.89041568      15.99892996       8.92027000
Sn       9.13886416       9.95803523       8.82316485
Sn      14.92683055       6.27995017      14.78437926
Sn       8.48465149      13.22988879      14.27842498
Sn      15.25569268      12.48498241      15.37707362
Sn      14.62775432      13.52309156       8.06499965
Sn      14.48216339       6.25299628      11.65217026
Sn      16.71361919      14.62158304      13.59757710
Sn       7.88716587      10.60725512      11.49727182
Sn      11.40021393      13.38531159       9.20428131
Sn       8.89230695      16.38991813      14.69790447
Sn      10.79453700      10.12898323      11.33370856
Sn      12.85658132      15.56865748      15.45408593
Sn       7.47869454      15.41843157      12.15136766
Sn      11.76579519      13.01710555      14.10086279
Sn      12.53685145      15.53924001      12.42768794
Sn       8.81968472       7.52022011      10.85272547
Sn      13.13372415      10.86204982      16.91231967
Sn       9.72828328      12.88527334       6.64514225
Sn      10.04742419      13.90018057      11.77989558
Sn      12.34643426      11.33700297       7.09585920
Sn      11.49093527      18.16072960      13.97475618
Sn      11.62015020       7.32455485      12.34658549
Sn      16.75276757      10.58211705      13.00835140
Sn      16.29426558      12.03941228      10.28767992
Sn      14.29507772      12.82667997      12.49274884
Sn      10.30760184      10.95752154      15.84105979
Sn      13.36516921      11.06635848       9.98859296
Sn       8.29180771      13.57219636       9.32339866
Sn      14.16339343       8.87842665      13.15779467
Sn      11.57599163       8.19405623       9.19866042
Sn      10.02477885      15.79399632       7.85747113
46
Properties=species:S:1:pos:R:3 config_type=qcd gap_pre_relax_energy=-160.88631344099161 gap_pred_energy=-165.31246257478074 gap_fmax_final=0.0009906366249264628 gap_converged=1 pbc="F F F"
Sn      10.55040818      19.10832175      13.53748358
Sn      14.31249774      14.28386804      11.88097794
Sn      16.80186541      13.76664202      10.22821817
Sn       9.70153906      15.83423867       9.62516927
Sn      14.28670427      10.48854582      12.93098279
Sn       9.43373332      12.61688790      13.29512539
Sn      10.67537397      16.03903809      12.46560109
Sn      15.01920363      11.48756917       9.11971573
Sn      11.57346566      16.12653361      15.33596070
Sn       8.11488323       9.87106411      13.05349273
Sn      11.46146666       6.37315500      14.86310497
Sn      10.82188050      11.59777758       9.45686778
Sn      13.71148701       8.52746010      15.10595207
Sn       8.77638365      12.95321768      16.16582394
Sn      12.81656532       9.51163786       8.15025696
Sn       7.88910345      14.91180262      12.05960342
Sn      16.76067449       9.06452068      14.44650319
Sn       7.99111735      11.98658362      10.56796595
Sn      14.67559582      14.90274246      14.84074026
Sn       8.22927669       9.96259618      16.45901964
Sn       8.93708647       9.09750122      10.04912908
Sn      10.16035671       7.52379347      12.30322114
Sn      15.77406137      13.69828440       7.18841597
Sn      16.74077614       9.94584764      11.30616975
Sn      14.77836806      16.03694281       9.49240525
Sn       8.58525039      16.87515994      14.48296537
Sn       8.50013121      18.16172141      11.50613212
Sn      12.24391926      14.27405764       9.73408495
Sn      10.22736753       7.77280393      17.40292199
Sn      16.52474948      12.60562118      13.32576215
Sn      13.49411655      17.15920643      12.77651078
Sn      11.14805900      11.07056001      17.11430355
Sn      14.60683354      11.51398619      15.79249339
Sn      12.79198270      12.62126560       7.24513983
Sn      14.83200488       7.63141823      12.33026171
Sn      17.58160377      11.12325585       7.31524380
Sn      10.94184654      14.16038785      17.79083130
Sn      12.14182653      12.30108440      12.11034134
Sn      11.93611869      13.14714411      15.05389231
Sn      11.52144829      18.24033828      10.60132684
Sn      12.20325134       9.36058108      11.09417107
Sn      16.57028323      16.39324233      12.12300830
Sn      14.91492676      10.55792293       5.97445048
Sn       8.40101935       7.04857550      15.05931439
Sn      10.69839011       9.31292236      14.68467824
Sn      15.92346668       8.73464226       8.33672931
47
Properties=species:S:1:pos:R:3 config_type=qcd gap_pre_relax_energy=-165.09447995233643 gap_pred_energy=-167.94070065473204 gap_fmax_final=0.0009635833009003643 gap_converged=1 pbc="F F F"
Sn      14.27933273      12.23244711      15.45389020
Sn      12.00479678      12.28357942      17.46328785
Sn      13.13508812       9.25194459      15.70235231
Sn      10.41337565      10.36206173      14.58925794
Sn      11.17162706      13.37263892      14.34389257
Sn      12.67113507      15.90917746      15.07965650
Sn      17.07175853      10.18673346      14.37241020
Sn      13.09875522      10.86098032      13.02217500
Sn       9.25532602      12.44128518      11.15433236
Sn      12.58606434      14.66022712      11.80514882
Sn      15.54098811      14.45835779      12.40262298
Sn      15.74628737      10.51703091      11.65063873
Sn      12.78146699      12.65170015       9.50982988
Sn      10.69062457       9.50912569      17.69455298
Sn      10.60162310      15.06639438      17.14763443
Sn      10.59307904       7.34078134      15.43775966
Sn       7.96072391       9.10550831      15.86334234
Sn       8.96082122      12.16355331      16.61799677
Sn       8.52779979      14.80468399      14.78832092
Sn       9.94668692      17.52749141      15.23128325
Sn      15.57026217      15.02856397      15.34682612
Sn      16.52523233       7.70197502      12.54241596
Sn      13.45156013       7.69854970      12.99441231
Sn       9.17677337       8.25479063      12.74088703
Sn       7.24365143      10.68308818      12.59797589
Sn       6.84540427      13.90001485      12.47064440
Sn       8.45977438      16.92809739      12.47595073
Sn      11.74630979      17.69250064      12.75273366
Sn      14.85638936      17.41008364      13.41211620
Sn      17.85594066      12.57529098      12.52618738
Sn      18.97909322       9.68896932      11.92145067
Sn      14.13377680       7.92608647       9.80824048
Sn      11.57909396       9.19408330      11.08619531
Sn       8.59225327       9.80244915       9.84771204
Sn       6.16230012      12.25849700       9.80270046
Sn       8.06100999      14.94116418       9.84907623
Sn      10.65870074      16.42393139      10.27633278
Sn      14.92259989      16.52911391      10.25387603
Sn      17.61403736      14.97592881      10.19830250
Sn      17.78199717      11.86656190       9.52535596
Sn      17.24797876       8.41598987       9.55792305
Sn      12.07781116       9.95312469       8.23044768
Sn       8.76806698      12.45252840       8.18119590
Sn      12.68390431      15.44320526       8.20382358
Sn      15.41998773      13.88929532       8.40577422
Sn      15.01892618      10.80314725       8.73277567
Sn      11.44438625      12.77184855       6.84286442
48
Properties=species:S:1:pos:R:3 config_type=qcd gap_pre_relax_energy=-168.75628295474615 gap_pred_energy=-172.04509010555336 gap_fmax_final=0.0009332828782867296 gap_converged=1 pbc="F F F"
Sn       9.86037941       8.65386326      11.84529621
Sn      19.17691088      12.72437086      12.61414015
Sn       9.91193405      16.86069543      13.56561920
Sn       6.60402841      12.53069011      11.71981566
Sn      11.32955909      16.08689312       8.53715824
Sn      15.87727445      12.28991372      17.68522134
Sn       8.67842278      10.54028556       9.55576572
Sn      13.78165696      10.12450523      17.36530356
Sn      13.91214051      14.67928023      16.00684815
Sn      15.85025880      10.46045879      10.90838607
Sn      12.52766933      13.25885134       8.32247908
Sn      18.16661588      12.25163437      15.45783964
Sn      11.17436904      17.88181237      11.02385270
Sn       6.65903129       9.31209423      11.67110657
Sn      16.42316343      15.49367400       9.16523019
Sn      11.32165488       9.62332455      15.55563630
Sn      14.02452261       8.45828534      14.64047944
Sn       9.67035928      13.42324747       9.43618271
Sn       7.13155505      15.37726047      13.36493753
Sn      17.78278804      15.71308878      11.93157218
Sn      16.73247690      12.17729883       8.43047399
Sn       8.33122360       8.54285859      14.73451573
Sn      12.54019670      17.34698024      15.20385723
Sn      13.86798209      10.40857456       8.49159669
Sn      17.77568792       9.99389255      13.28893199
Sn      11.14675431       8.62413179       8.92153068
Sn      13.91809971      17.80015271       9.52618845
Sn      11.63027741      11.26188101      10.45678459
Sn      13.40992419       8.57324044      11.19883925
Sn      11.47267218      12.69441877      15.59089086
Sn      15.30227645      11.27117911      14.73248987
Sn      16.76417478       9.29013694      16.53441317
Sn       8.67287281      16.15426251      10.60502037
Sn      12.81847572      13.04936799      18.32643334
Sn      19.14906936      13.78586383       9.69401058
Sn      15.94047489      13.37474397      11.18442605
Sn       8.62147475      11.38798615      16.18309969
Sn      12.70604312      10.99327181      13.22470873
Sn      16.16681174      14.13303107      14.00704343
Sn       8.88636772      14.42735554      15.78199929
Sn       6.06310034      10.82526602      14.32513545
Sn       8.82284558      11.13892495      13.10454025
Sn      18.87246386      10.73117677      10.22972227
Sn      14.26292301      17.25530289      12.55612392
Sn       9.62419138      13.89276353      12.44611498
Sn      12.32163996      14.93016688      13.30700348
Sn      11.16416963      15.64499137      17.41885793
Sn      13.58478125      14.98029543      10.55612258
49
Properties=species:S:1:pos:R:3 config_type=qcd gap_pre_relax_energy=-172.1614791116263 gap_pred_energy=-176.08413790914574 gap_fmax_final=0.0009537310265650711 gap_converged=1 pbc="F F F"
Sn      11.24733572      14.57124155      17.39112161
Sn      11.59437841      17.40075838       9.45693276
Sn       9.86215703       8.60226609      15.10149259
Sn      15.35369329      17.17450627      16.41406656
Sn      10.27121211      12.34723572      11.27430372
Sn      12.67055008       7.93324677      16.12946969
Sn      19.37666709      11.44207916      13.70582980
Sn      13.67048159       9.87057152       9.41351765
Sn      11.48626713       7.73788228      10.10292345
Sn      12.62451264      18.76557388      12.17578318
Sn      11.60387578      15.91044092      12.23111951
Sn      14.66464164      13.60209027       7.54946856
Sn       7.62485336      10.45695199      14.10262970
Sn      17.52279126      13.83330376      14.26479980
Sn      11.75318583       6.84556300      13.17077244
Sn      11.67376876      10.89554922      15.99133842
Sn      14.15411389      16.66069381       7.47652485
Sn      12.42461325      12.34500860      13.50283243
Sn      19.65120026      14.07261934      11.96827268
Sn      16.00005489      14.19308322      16.85759710
Sn      12.14902896      12.38651774       8.97723320
Sn       9.12127014      15.15186058      10.57796158
Sn       8.99403480      15.79630458      13.83713562
Sn      13.45228780      14.95392152       9.96534310
Sn       9.74946766       9.38059062      12.12898851
Sn      17.22137608      13.62768731       9.86691390
Sn      14.86997446      17.78741015      10.28188749
Sn      14.44948774      16.84203879      13.57473944
Sn      14.82404672       8.24962505      13.93255413
Sn      13.77377325      15.92282711      18.69243769
Sn      14.60879958      10.35894198      16.12465699
Sn      13.51653537      12.58343396      17.92301025
Sn      12.78198026       9.62425786      12.23231838
Sn       7.35138916      13.00093978      12.21819657
Sn      15.13889490      13.30711621      12.33998974
Sn      17.97519662       9.05971131      12.25681714
Sn      12.18333782      17.21072356      16.27903943
Sn      14.46823386       7.28226995      11.01309752
Sn      16.88186869      15.79878984      12.01398342
Sn       8.76179173      11.18188786      16.85854746
Sn      11.64083450      14.91160072       7.38304034
Sn      19.22960098      11.34964935      10.54785068
Sn       8.36890631      14.52993419      16.63319237
Sn      16.13337943      10.91348906      10.76326089
Sn      13.46339740      14.60353790      15.36490485
Sn       6.07208844      14.55595426      14.57639096
Sn       9.56714890      12.81978803      14.42745396
Sn      16.34186105      11.04206704      13.84394613
Sn       6.60623942      16.03304403      12.01089784
50
Properties=species:S:1:pos:R:3 config_type=qcd gap_pre_relax_energy=-175.65143229594491 gap_pred_energy=-179.75404780089656 gap_fmax_final=0.0009070730466636427 gap_converged=1 pbc="F F F"
Sn       9.90041274       9.99678039       8.26612454
Sn      14.04484641      14.66152282      11.36514136
Sn      11.08847054      14.99159693      10.74716125
Sn      14.74463722      12.64024984      15.99364895
Sn       5.98954145      11.24493041      12.29394913
Sn      12.48669509       7.34452063      14.44227595
Sn       6.74023931      14.42013361      11.52183233
Sn      11.26886417      14.43294107      17.99466722
Sn      10.67204125      17.89412180       9.69597263
Sn      18.01377485      13.74389855      12.13354442
Sn      11.49612891      16.76346388      15.98849941
Sn      13.26275391      13.62355278       7.33095286
Sn       7.84431024      10.20513376      14.99867883
Sn      18.30734234      10.80854252      10.99872932
Sn      19.17910181      11.43260688      13.97336405
Sn      15.88851576      14.37504646       8.73645133
Sn      16.91063084      10.99304771       8.25704316
Sn      12.35514910       9.92286833      12.78718974
Sn      15.94627343      15.90894156      13.31505957
Sn      10.46659173      13.03842132       8.50632001
Sn      14.35158357      17.79290495      15.15778994
Sn      16.86001452       8.21086233       9.90776803
Sn      14.04576212      15.42491334      17.25005118
Sn      12.18313401      11.11120014      10.00685006
Sn      12.06274112      11.96738979      14.87804101
Sn      10.70160143       9.13020807      16.57324947
Sn      10.39542747      15.11665644      13.76325853
Sn       7.84683805      11.94329031       9.80005302
Sn       8.73926853      15.15956689      16.44056836
Sn      14.25555322       9.39863434       8.68229671
Sn       8.79579523      16.80160948      11.84187818
Sn      17.44017031      13.77361567      15.06002267
Sn       8.42616560      15.33000275       9.08175610
Sn       8.00821600      13.22259319      14.07251459
Sn      16.00558057      11.67985392      13.14851751
Sn       9.21785873      11.07969055      12.39451440
Sn      11.40194261       8.09884604      10.15786901
Sn      13.89449742       9.47822239      16.18657896
Sn      16.84422591      10.03673890      15.72460495
Sn      12.50574010      11.55084350      18.09574636
Sn      16.94592709       8.80025098      12.94903708
Sn      15.64660863      17.08787258      10.47395465
Sn      13.30980123      14.76905028      14.34831316
Sn      12.57804615      18.08469282      12.39928981
Sn       9.77433548       8.29633050      13.31169566
Sn      15.01500498      12.01660333      10.33591913
Sn      14.31250120       7.86200285      11.57259635
Sn       8.01621460       8.89980277      10.58395345
Sn       9.66176796      12.17199053      16.63273360
Sn      13.16249384      16.27257798       8.83311083
51
Properties=species:S:1:pos:R:3 config_type=qcd gap_pre_relax_energy=-178.2320141991952 gap_pred_energy=-183.18616450770304 gap_fmax_final=0.0008722117673375827 gap_converged=1 pbc="F F F"
Sn      10.47329977      11.82110663       9.34734923
Sn       9.80683184      10.84536826      12.19879707
Sn      13.09067908      12.16241000       7.48025351
Sn      13.25428725      11.43660674      10.48582612
Sn       9.84573312      14.66390972      10.30704050
Sn      10.70584544      14.26442990       7.39559262
Sn       7.80331559      13.43531317       8.24093809
Sn      13.61456001      15.29458305       7.52087387
Sn      10.30633461      17.08470172       8.42471745
Sn       7.12635872      13.94845979      11.32231284
Sn      13.51138289      15.53888554      10.58441683
Sn       9.63395906      17.50687596      11.41902913
Sn       9.24351412      11.26079053      15.60101338
Sn      12.61462983      11.67164094      15.43314856
Sn      10.68874997      13.47541016      13.84378804
Sn      10.51762574      13.65308719      17.26462906
Sn       7.65277083      14.11313622      14.32107214
Sn      12.33768619      15.57840609      15.55494889
Sn       9.59857468      16.39338368      14.21075768
Sn      14.54039728      12.17412823      13.09992699
Sn      15.27161855      13.43753113       9.33742683
Sn      11.90265017      18.26475974      13.41140513
Sn      12.41191903      18.36249574      10.33091754
Sn      12.97001416       8.53136287       9.92654742
Sn      11.81824175       9.17769409      13.60049207
Sn       6.90136434      11.41416046      13.01176631
Sn       7.61241608      10.89761691      10.05582085
Sn      15.79802110       9.52941310       9.86316433
Sn      15.66065850       9.22637332      13.17071370
Sn      15.24168223      17.65035755       9.15288232
Sn      14.92220214      17.97829320      12.26716434
Sn      10.05899978       7.95442099       9.82205394
Sn       9.13249529       7.83687543      12.75304835
Sn      17.35074155      11.43531790      11.89857020
Sn      16.56610174      15.56637129      11.12885931
Sn      15.12748494       6.81237031      11.35575197
Sn      11.84869388       6.45982155      11.87820307
Sn      18.19964665       8.07813222      11.74066420
Sn      16.98759322      13.79478100      13.91972594
Sn      18.45477364       9.88497294      14.36915885
Sn      14.33905513      15.17129894      13.39408279
Sn      15.58028866      11.99316918      16.01868930
Sn      13.52799322      13.31841614      17.87110760
Sn      11.46483208      10.92428507      18.20070742
Sn      12.77874346       8.77866918      16.44831523
Sn      11.07601335       6.58379695      14.96223278
Sn      17.65765267       6.99918705      14.62095177
Sn      14.27683264       6.73678978      14.49042491
Sn       6.85906485      16.79611622      12.62320573
Sn       7.35147726      16.44675979       9.42264143
Sn      15.84909282       9.00065728      16.26177326
52
Properties=species:S:1:pos:R:3 config_type=qcd gap_pre_relax_energy=-182.40626556474592 gap_pred_energy=-186.18321997427398 gap_fmax_final=0.0009655238252868877 gap_converged=1 pbc="F F F"
Sn      14.86286973      14.63027767      17.46337608
Sn      17.35741341      14.62910935      12.24205444
Sn      13.24095667      10.70850406       6.91582339
Sn       7.62925960      15.68766083      10.47399903
Sn      15.30221125       6.89674164      10.77347723
Sn       8.31863015      14.19968959      13.34426583
Sn      11.20218886      10.95335588      13.70365347
Sn      15.20311888      15.66581522      14.32206323
Sn      14.19350090      15.87320489       8.23653577
Sn      10.26359105      13.74240505      11.11732799
Sn      12.52325221      13.21236482       8.59684604
Sn       6.73820695      10.24499991      11.72110498
Sn      17.42151534      13.65206288      15.85619481
Sn      15.52078423      13.01998963       7.64370693
Sn       9.32946949      10.90421690      10.34313565
Sn      12.20001320       7.67928266      11.50248950
Sn      10.91036116      10.15945542      16.94484157
Sn       9.09571708       8.21751489      12.15361492
Sn      17.66973857       8.83586522      11.56748919
Sn       8.09794404       9.68387940      14.76767393
Sn      14.77442158       9.57776223      12.58881862
Sn      17.23602717      15.45173237       8.96011112
Sn       6.04372825      12.31211093      13.76146117
Sn      13.92254837      11.55214046      18.03567403
Sn       5.50208036      15.26449972      12.72275818
Sn       9.92382236      15.67587397      15.36790776
Sn       9.64969097      10.87749216       7.31831289
Sn      12.81397157      16.82143675      16.13141969
Sn      17.45272819      11.36735666      13.56220638
Sn      14.24797103       6.66253339      13.82433891
Sn      16.96033520       8.26381068      14.64380437
Sn      10.20029544       8.26160263       8.99395079
Sn      13.28771936       7.69260079       8.32282860
Sn      15.44169289       9.88627922       9.22848282
Sn      13.21180759      17.76381892      13.00118132
Sn       8.28592191      13.31455772       8.60431006
Sn       6.61371976      10.71587111       8.64212484
Sn      12.36138543      10.49675784       9.94087621
Sn      15.24763599      16.76390515      10.96538700
Sn      13.93584701       9.18451139      15.79914205
Sn      16.77563170      10.66082163      16.77130286
Sn      17.39095407      12.23880261      10.17751313
Sn      14.74742391      13.81988555      10.61495121
Sn      10.73460069      16.90543659      11.51336204
Sn       8.87596315      12.47409653      15.85407655
Sn      14.60553735      12.43219945      15.02138524
Sn       8.18982728      17.24564735      13.23398202
Sn      11.88425491      13.55109816      16.51246062
Sn      10.78701800      15.71816555       8.70202019
Sn       5.70571898      13.05555856      10.50389454
Sn      11.01107796       7.75597988      14.73280373
Sn      12.29217090      14.83353030      13.45174919
53
Properties=species:S:1:pos:R:3 config_type=qcd gap_pre_relax_energy=-186.095258642658 gap_pred_energy=-190.45436664327377 gap_fmax_final=0.0009810035528139468 gap_converged=1 pbc="F F F"
Sn      16.51191707      12.09678370      13.00698281
Sn      14.29517518      10.14976368      13.80697555
Sn      11.68682478      12.24944609      18.07505866
Sn       9.80779557      14.50614174       7.43348340
Sn      13.74266236      13.16715003      15.99914032
Sn      12.46332892      17.68134385      13.98363329
Sn      17.17923977       8.79716604      12.31664724
Sn      14.38420479       8.96289793      10.95205900
Sn       9.15078661      10.89928014      15.73462927
Sn       5.59851378      13.03630427      11.04900526
Sn      10.25233725      17.58107260      11.76055541
Sn       7.33181676      14.82315251      13.01932355
Sn      13.29329295      11.69443182      10.24904949
Sn      15.04217456      15.72119474      16.81079390
Sn      10.62945427       8.84653310      11.10979881
Sn      11.32150367      10.55785212      13.47773124
Sn      14.77748503      14.55531689      12.62013025
Sn      14.49002776       8.45434552      16.30910050
Sn      14.54621843       7.08524703      13.49943849
Sn      13.12896766      18.90321629      11.24697664
Sn      12.02071750      15.27404865      17.44092511
Sn      16.65354943      11.24723433      10.07917316
Sn       6.96144299      11.83903997      13.60979964
Sn      14.21623495      13.89286515      19.30692552
Sn      15.52460506      17.14663909      14.16720233
Sn      14.66118559      11.76971073       7.37242513
Sn       9.16387357       8.31131451      13.83939554
Sn       7.90589901      12.29549843       8.74334269
Sn      11.36327951      11.91282439       7.89779558
Sn      13.97495699      17.22516483       8.53279285
Sn      11.23599718      18.56127917       8.99193451
Sn       7.88177465      15.15385165      10.02499857
Sn       9.72099209       6.04785086      11.85910500
Sn       8.96267028      12.77501257      11.62670885
Sn       7.36722412      10.22469562      11.00663797
Sn      16.67741255      13.08240389      17.04026734
Sn      17.46124847      14.86601451      14.30547098
Sn      11.52181260      15.60605240       9.64492945
Sn       9.46264200       9.51370031       8.43138938
Sn      12.72411464       9.18682070       8.27255287
Sn      14.51707706      11.02746745      17.93048537
Sn      11.77303586      14.97505438      12.57707516
Sn      15.71669098      17.06317907      11.04749404
Sn      11.43726002       8.77239700      15.95090953
Sn      14.76964615      14.24310071       9.47939323
Sn      17.63103031      14.32673662      10.76329049
Sn      10.97526361      13.18886122      14.97278110
Sn      18.83939939      12.31971427      14.96230752
Sn       9.81452274      16.01169261      14.68943127
Sn      12.65560358       6.38922091      11.17566031
Sn      16.93506478      10.07879268      15.52925956
Sn      11.55823064       6.20781861      14.23404226
Sn      13.00808621      14.42157435       6.75985635
54
Properties=species:S:1:pos:R:3 config_type=qcd gap_pre_relax_energy=-191.90642857462 gap_pred_energy=-195.0333367039736 gap_fmax_final=0.0006542710180275693 gap_converged=1 pbc="F F F"
Sn       6.33425524      14.87248936      12.82752156
Sn       8.59918458      12.10541516      16.23489452
Sn      10.93039422       9.40083753       8.52407745
Sn      17.13664047      11.85711262      16.50609444
Sn      17.69131860       9.14159516      15.00078197
Sn      10.66157489      12.66595615       7.57419919
Sn      12.03022732      11.88025381      15.01534571
Sn      16.06802713       6.33360769      15.72935232
Sn      10.91655442      18.58352707      11.59622336
Sn      13.50308143       9.95057735      10.64702773
Sn      10.82538067      14.34135241      17.12981827
Sn      17.15796605      14.61039425      11.03057582
Sn      12.79692802      12.94690375       9.81180643
Sn      14.00178973      10.48580116       7.69733694
Sn       8.03840262      17.51900981      12.19332951
Sn      11.84435133       7.44577479      11.16599991
Sn      13.89677479      15.42632398      16.30306795
Sn      16.45069778      15.45929433      14.11860433
Sn      14.16557823      12.16121093      17.25295391
Sn       9.43504870      15.57393494       7.71099807
Sn       7.13583013      15.68555069       9.82638349
Sn      16.22797598      12.72174058       8.59226345
Sn      11.16855667      11.37295326      17.89763455
Sn      14.92686588      12.84288234      14.38066299
Sn      12.98280333      17.38138595      13.66114629
Sn      10.07759449      17.81877859      14.58083812
Sn      10.15176873      15.77753904      10.67064895
Sn       7.66919180      10.21675649      13.79657596
Sn      16.78874823       7.30813687      12.63383955
Sn      11.32407802      14.87658143      14.18012770
Sn       9.90029115      11.98427441      10.44648802
Sn      11.72312057      17.47449825       8.75701592
Sn       6.86256111      12.20813480      11.17538478
Sn      15.95590716      11.79300577      11.54319366
Sn      13.91059160       6.24362771      13.23093458
Sn      13.10402286       7.35266131      16.07014106
Sn      14.67537939       9.04961573      14.15651061
Sn      11.13762984      10.06694645      12.67453441
Sn      16.42893383       9.49965377       9.62478712
Sn      14.33707610      15.54615052       9.25399306
Sn      17.96459535      12.61902333      13.65176869
Sn      13.65860341      13.45419825       6.92951881
Sn       8.87124842      13.03414781      13.28396386
Sn      15.49570352      17.18492437      11.74626800
Sn      15.39209659       9.25322294      17.11616290
Sn       8.39822274      15.32750611      15.20236385
Sn      18.49289687       9.95465904      11.99964100
Sn       8.75911432      18.49354575       9.09781185
Sn       7.69051465      12.97003962       8.32105880
Sn      14.74956621       7.00837862      10.24632267
Sn       9.33145749       7.64222938      13.08088466
Sn      13.68952597      14.76021063      12.15261700
Sn      10.49007979       9.28100877      15.57315669
Sn       8.37646904       9.36785659      10.70854507
55
Properties=species:S:1:pos:R:3 config_type=qcd gap_pre_relax_energy=-192.4692594140314 gap_pred_energy=-197.5789006299646 gap_fmax_final=0.0006962156618015098 gap_converged=1 pbc="F F F"
Sn      12.08924509       9.32070761       7.95978878
Sn      16.73252470      11.06088159       8.94598224
Sn      16.10782192      12.41197006      15.63628709
Sn      12.85852471      17.10531680      10.10284627
Sn      15.84457542       7.69155852      13.41759036
Sn       9.84023255      14.00501863       7.45646658
Sn       9.71193339      11.30399797      13.55190781
Sn      14.52093445      16.85272804      16.58306014
Sn      16.42797741      15.33930956      14.60336098
Sn      11.99389295      10.83093077      18.41453565
Sn      12.83622370      18.65960026      14.70689896
Sn      11.86646978      12.26648038      11.70622240
Sn       9.72448893      14.22337512      10.49488444
Sn      13.40121181       8.27734603      15.15134909
Sn      15.03360235      10.09897969      17.50417228
Sn      13.10604883      11.54843771      15.64222471
Sn      10.07379715      18.28334335      15.82762334
Sn      15.17757595      15.66639055      11.70483311
Sn      12.03568135      12.01273678       6.48274390
Sn      15.94046842      12.84661198      12.52284961
Sn      15.47009008      13.34365037       7.18470661
Sn      14.03292155      10.44858635      12.97403022
Sn      16.90884826      10.07606590      11.91065052
Sn      13.26991256      19.68060687      11.92057230
Sn      17.24139269      13.89647542       9.91631135
Sn      11.59955303      16.05725755      17.44355924
Sn      15.70692422      18.51116405      10.48347517
Sn       8.10478032      13.37560714      15.17701459
Sn      10.25259686       8.75948113      12.04877270
Sn      10.57330697       8.97593721      15.21228123
Sn      13.09381493       7.81436593      11.92701843
Sn      14.65683691       8.87564452       9.50373487
Sn      10.72725722      17.88166162      12.58735350
Sn       7.51260931      12.31189702       9.21805575
Sn      11.34061154      13.73937777      19.63134258
Sn      13.16002193      14.55525912      15.18605826
Sn      18.79528944      14.71625027      12.45999407
Sn      14.19423108      13.59634980      18.68188542
Sn       7.56851347       9.97274325      11.47386474
Sn      14.75851385      10.13126251       6.45897814
Sn       6.17202563      10.77701841      14.21211188
Sn      18.61477424      11.90441109      13.69708841
Sn      12.22796357      15.13863082      12.40691012
Sn      15.65666672      16.10107060       8.61783958
Sn      12.78591950      14.55316331       8.30354081
Sn      17.33930609       9.63790920      15.26243436
Sn       8.33825259      10.45215710      16.46827270
Sn      13.67513637      11.77629284       9.32571458
Sn      10.12016875      15.58497681      14.62613312
Sn      10.72239296      13.04050368      16.77829862
Sn       7.80918155       7.98847959      14.02898229
Sn      15.54853280      18.08471258      13.57150985
Sn      10.40388300      11.44409412       9.20698853
Sn      11.09390377       6.37111769      13.82187371
Sn       7.53335572      12.95281725      12.18973432
