3
Properties=species:S:1:pos:R:3 config_type=qcd gap_pre_relax_energy=-22.330774804380614 gap_pred_energy=-22.45502299754293 gap_fmax_final=0.0009439159252370767 gap_converged=1 pbc="F F F"
Ta       7.04032903       7.59429205       8.85611744
Ta       9.03109956       7.18230708       7.68434635
Ta       7.97587243       9.27070189       7.50683723
4
Properties=species:S:1:pos:R:3 config_type=qcd gap_pre_relax_energy=-32.60732734792819 gap_pred_energy=-32.79981752348132 gap_fmax_final=0.0008659707912876351 gap_converged=1 pbc="F F F"
Ta       8.47281227       9.84524044      10.01335825
Ta       7.90306429       7.86187966       8.71511498
Ta      10.22477958       8.29974859       9.31646474
Ta       9.10833126       9.70211871       7.66404942
5
Properties=species:S:1:pos:R:3 config_type=qcd gap_pre_relax_energy=-42.34763364902152 gap_pred_energy=-42.45505150240628 gap_fmax_final=0.0008054998017970121 gap_converged=1 pbc="F F F"
Ta       7.73901226       7.67529775       7.35717134
Ta       7.30324900       5.31338908       7.98717444
Ta       6.17544806       8.16529286       5.49144649
Ta       7.13697207       5.87747433       5.57478366
Ta       5.34200504       6.66523244       7.28611053
6
Properties=species:S:1:pos:R:3 config_type=qcd gap_pre_relax_energy=-52.15503812786148 gap_pred_energy=-52.64431285274802 gap_fmax_final=0.0004512032066772904 gap_converged=1 pbc="F F F"
Ta      13.48569627      15.01761163      13.93012542
Ta      15.74754714      13.69089465      13.92037677
Ta      15.76560183      16.31305708      13.93800023
Ta      14.23438701      13.68693613      16.06201807
Ta      16.51430258      14.98237231      16.06987195
Ta      14.25246519      16.30912822      16.07960755
7
Properties=species:S:1:pos:R:3 config_type=qcd gap_pre_relax_energy=-62.89926691642981 gap_pred_energy=-63.1028011313137 gap_fmax_final=0.0009000300829380316 gap_converged=1 pbc="F F F"
Ta      13.67307594      13.28499018      15.00228364
Ta      15.67947174      13.62902401      16.53640064
Ta      15.40021081      16.90723901      14.04917919
Ta      15.88364116      14.31495037      13.99786281
Ta      16.74698528      15.86747888      15.94720947
Ta      14.11618079      15.68502209      16.00211991
Ta      13.50043430      15.31129546      13.46494434
8
Properties=species:S:1:pos:R:3 config_type=qcd gap_pre_relax_energy=-72.69862161243248 gap_pred_energy=-72.88645382723706 gap_fmax_final=0.0008735863323368779 gap_converged=1 pbc="F F F"
Ta      13.32339141      14.06223780      16.23535058
Ta      15.53496485      15.28966026      13.32651058
Ta      15.99073587      17.12892413      15.01754412
Ta      15.41061003      13.07087029      15.00349224
Ta      13.36127480      14.06605526      13.71204933
Ta      13.56065196      16.34834962      14.98022770
Ta      15.48392689      15.28556486      16.68964754
Ta      17.33444418      14.74833779      15.03517791
9
Properties=species:S:1:pos:R:3 config_type=qcd gap_pre_relax_energy=-83.14889273243973 gap_pred_energy=-83.25601114494215 gap_fmax_final=0.00042198150668525114 gap_converged=1 pbc="F F F"
Ta      13.69748497      14.06802945      12.95619096
Ta      13.51956692      13.84974418      15.52043978
Ta      15.72108995      13.09312943      14.20536448
Ta      15.88490499      14.30045783      16.58530197
Ta      12.68973493      16.00661330      14.37415002
Ta      14.07225553      16.26495994      16.52536968
Ta      15.27876476      15.86588612      14.01430027
Ta      16.56422268      16.74489230      16.11841401
Ta      17.57197528      14.80628747      14.70046883
10
Properties=species:S:1:pos:R:3 config_type=qcd gap_pre_relax_energy=-93.62969248910775 gap_pred_energy=-93.74231196337715 gap_fmax_final=0.000582027613594326 gap_converged=1 pbc="F F F"
Ta       9.39771912       8.39279598       6.94337273
Ta       7.69970212       6.93184609       5.27881591
Ta       8.77393902       6.69566519       9.06912410
Ta       7.07587288       5.23477150       7.40459734
Ta       9.49914768       5.82445080       6.75456525
Ta       5.37891387       9.05362325       8.12346036
Ta       7.08230134       9.26432165       6.20090712
Ta       6.20013445       6.86423857       9.20725894
Ta       5.44055700       7.03124664       6.52704876
Ta       7.84196281       9.09729063       8.88109978
11
Properties=species:S:1:pos:R:3 config_type=qcd gap_pre_relax_energy=-102.77849599658853 gap_pred_energy=-103.82312642146348 gap_fmax_final=0.0007580436404548577 gap_converged=1 pbc="F F F"
Ta      13.14410058      13.33023352      16.61735353
Ta      15.08342611      15.07030969      16.14143257
Ta      17.48840438      14.36003299      15.24210257
Ta      15.41953036      12.50466160      15.50758140
Ta      16.54677402      16.39126725      13.74624718
Ta      14.63617513      17.54227681      15.25454392
Ta      17.05562135      16.83808586      16.11540396
Ta      15.78553095      13.88686748      13.34228130
Ta      12.56729413      15.68691608      15.52003685
Ta      13.30040642      13.47994123      14.16282259
Ta      13.97273657      15.90940748      13.35019414
11
Properties=species:S:1:pos:R:3 config_type=qcd gap_pre_relax_energy=-103.18020725198448 gap_pred_energy=-103.31144316427498 gap_fmax_final=0.0008564482355508358 gap_converged=1 pbc="F F F"
Ta      11.74737429      10.50283036      10.23711814
Ta       7.66962846       9.27653741       8.38182616
Ta       7.72830089      11.67718334       9.11178877
Ta       8.62928473       7.65036486      10.30291160
Ta       9.76667133       8.04944104       7.89397882
Ta      11.20534034       7.80017192      10.23199147
Ta      11.99629434       9.17976605       8.11886591
Ta       9.99070437       9.33668660      11.91345538
Ta       9.65031473      11.72990822      10.72499982
Ta       7.61798748       9.89926240      11.06656388
Ta       9.99553376      10.89528252       8.01393475
12
Properties=species:S:1:pos:R:3 config_type=qcd gap_pre_relax_energy=-114.6799764808245 gap_pred_energy=-114.71327358026004 gap_fmax_final=0.000986358015381978 gap_converged=1 pbc="F F F"
Ta      17.16512282      15.59486714      16.11556549
Ta      12.83487303      14.40513244      13.88443307
Ta      13.45872399      16.90146378      14.45771769
Ta      13.92230354      12.85264483      15.71630439
Ta      15.06840553      13.10842072      13.35593379
Ta      16.07769610      17.14735704      14.28369528
Ta      16.54127410      13.09853705      15.54228140
Ta      17.07243235      14.80308944      13.60279540
Ta      15.21832002      14.38927035      17.42183708
Ta      14.93159584      16.89157917      16.64406552
Ta      12.92757117      15.19690971      16.39720369
Ta      14.78168151      15.61072833      12.57816717
12
Properties=species:S:1:pos:R:3 config_type=qcd gap_pre_relax_energy=-113.27467586244789 gap_pred_energy=-113.56610985599413 gap_fmax_final=0.0008350395986812209 gap_converged=1 pbc="F F F"
Ta      12.06866011      11.93228472       9.29983984
Ta       7.42611342      10.91527273      10.05627618
Ta       8.23906187       8.59759886      10.91312125
Ta      11.20385487       9.96930391       7.82829919
Ta      12.57335151       9.54680541      10.20663379
Ta      10.47099647       8.00471007       9.52250383
Ta       8.52517974       9.38218487       8.26493436
Ta      10.74117324       8.69915704      12.11306742
Ta       9.97737494      10.84488940      10.31100470
Ta       8.89320845      10.46314449      12.60386094
Ta       9.38863758      11.82327904       8.01429397
Ta      11.76248148      11.09146315      12.13625824
13
Properties=species:S:1:pos:R:3 config_type=qcd gap_pre_relax_energy=-123.88846170223609 gap_pred_energy=-123.98946543379837 gap_fmax_final=0.0008682378605444662 gap_converged=1 pbc="F F F"
Ta       9.03722442      11.72958765       8.62782384
Ta       8.28785642       9.10704562       9.38285268
Ta      10.70629938       9.96298861       7.58494341
Ta       7.52691650       7.22508960      11.07350495
Ta       7.07091589       6.61605431       8.59401757
Ta       6.58576972       8.63390710       7.10502211
Ta       9.20015553       7.66000902       7.12409500
Ta      11.18687635       7.96468096       9.05947738
Ta       9.38787977       6.19930117       9.50193111
Ta       8.40930591      10.26919926       6.49930613
Ta       9.93772597       7.98544236      11.39017174
Ta       6.64241707      10.90292964       8.35982582
Ta      10.56471007      10.28781771      10.24108126
13
Properties=species:S:1:pos:R:3 config_type=qcd gap_pre_relax_energy=-123.99790477206854 gap_pred_energy=-124.21791937846812 gap_fmax_final=0.000716383320402615 gap_converged=1 pbc="F F F"
Ta      14.09858610      14.47767173      12.65585827
Ta      13.19705266      12.84099178      14.69254805
Ta      12.35887334      15.21871496      14.59873835
Ta      16.68786395      15.40831704      13.37137379
Ta      17.63747028      15.44432566      16.12977317
Ta      15.36145269      15.82243018      17.68326601
Ta      15.21209812      14.36606738      15.47843832
Ta      13.56332748      16.87777407      16.26272062
Ta      15.63565699      12.68718108      13.36370857
Ta      13.06426645      14.39812840      17.00123257
Ta      17.70460495      13.39838553      14.63892717
Ta      14.35778169      16.79699967      13.67341716
Ta      16.12096531      17.26301251      15.44999795
14
Properties=species:S:1:pos:R:3 config_type=qcd gap_pre_relax_energy=-135.05248943652703 gap_pred_energy=-135.2065129704685 gap_fmax_final=0.0006760085302728502 gap_converged=1 pbc="F F F"
Ta      15.10957213      17.48147385      13.41712648
Ta      13.17575514      15.69383497      13.05086094
Ta      15.62210370      15.20989592      12.12876069
Ta      15.66395764      15.23841850      14.84374902
Ta      13.18952847      17.07031497      15.20982326
Ta      15.64691486      17.68794988      16.01555701
Ta      16.67187755      13.14472957      13.43869236
Ta      16.69687070      15.62284902      17.32543874
Ta      14.04361017      13.28500321      13.06290575
Ta      17.20931530      13.35121636      16.03709204
Ta      14.07121608      16.03803162      17.38078376
Ta      13.03502253      14.29437925      15.46247798
Ta      14.93911041      13.62920459      17.39283706
Ta      14.92514533      12.25269829      15.23389490
14
Properties=species:S:1:pos:R:3 config_type=qcd gap_pre_relax_energy=-134.61429000014414 gap_pred_energy=-134.8063634242944 gap_fmax_final=0.0009077651139692228 gap_converged=1 pbc="F F F"
Ta      15.36513576      15.20078396      14.79878499
Ta      17.72920363      13.92007223      14.92422333
Ta      12.43248676      15.08235308      14.22102473
Ta      15.72698714      17.79211735      14.97346208
Ta      13.32224066      17.25283620      15.35839442
Ta      15.83331169      12.33194230      14.46315872
Ta      13.55856704      12.88484153      15.45081836
Ta      15.09061638      16.58740229      17.36079662
Ta      17.35366233      16.07203670      16.38981547
Ta      15.75929964      13.77541028      16.99305058
Ta      13.19490857      14.96859478      16.86961903
Ta      14.31450241      16.36441178      12.82054659
Ta      16.34522492      14.24863673      12.56053309
Ta      13.97385310      13.51856080      12.81577196
15
Properties=species:S:1:pos:R:3 config_type=qcd gap_pre_relax_energy=-144.27421377864349 gap_pred_energy=-144.42171929912558 gap_fmax_final=0.0009810226282122025 gap_converged=1 pbc="F F F"
Ta       8.43964724       5.07970328       7.14683204
Ta       8.59423544       5.69203998       9.70776257
Ta       9.89703827       6.81963591       5.80319812
Ta      10.14100579       7.36057350       8.37311261
Ta       5.92874020       5.36427897       6.39098613
Ta       6.06608739       5.86608455       8.97689497
Ta       7.40359205       7.02415458       4.96775534
Ta       7.58559607       7.58556596       7.58560131
Ta       9.10479527       9.30495344       6.19387689
Ta       5.02999596       7.81032837       6.79830219
Ta       6.57612558       9.47895009       5.46369104
Ta       7.76782008       8.14728114      10.20326927
Ta       9.24284993       9.80702647       8.77935833
Ta       5.27427957       8.35139459       9.36824251
Ta       6.73158650      10.09142455       8.02451204
15
Properties=species:S:1:pos:R:3 config_type=qcd gap_pre_relax_energy=-146.01516753459967 gap_pred_energy=-146.27815602790898 gap_fmax_final=0.0007717015102499936 gap_converged=1 pbc="F F F"
Ta      15.31122856      16.69978692      13.12646434
Ta      14.99999341      14.99996406      14.99999791
Ta      15.36733049      12.27689567      14.24343064
Ta      17.65450041      15.98817824      14.68432105
Ta      17.27991317      13.38708523      15.56845153
Ta      13.44853223      17.37798146      15.24670384
Ta      12.93906133      13.07939458      14.56823453
Ta      15.95478587      17.55572841      15.82426582
Ta      14.33592727      16.10230543      17.54297533
Ta      12.42334937      14.99209002      16.21804687
Ta      16.76415089      15.29978151      17.21823695
Ta      14.68877275      13.30019360      16.87351900
Ta      16.84820793      14.24283656      12.96684850
Ta      14.34199047      14.06508066      12.38924483
Ta      12.64225586      15.63269767      13.52925887
16
Properties=species:S:1:pos:R:3 config_type=qcd gap_pre_relax_energy=-156.25777035471415 gap_pred_energy=-156.4817430288615 gap_fmax_final=0.0006329094799101595 gap_converged=1 pbc="F F F"
Ta       8.21741009      11.08284009      12.08062025
Ta       7.90771457       8.87339740      10.55425059
Ta      10.33259676       7.38031355      10.79969247
Ta       9.86733045      12.97834986      11.33323008
Ta       8.29520301      11.80830786       9.41858634
Ta      10.83941989      11.11459762      12.99951468
Ta      10.22894340      10.19962393      10.21661807
Ta      12.79498149      10.78416602       9.01957083
Ta      11.98545912       8.38804181       8.82659772
Ta      12.37949835      12.05390136      11.16067451
Ta       9.68346921       8.88691705      12.73423095
Ta      12.32493308       9.24711842      11.48573326
Ta      10.86162458      12.69543686       8.92379373
Ta      10.43422829      10.41391307       7.53837661
Ta       7.90811542       9.75455950       8.04484922
Ta       9.48113029       7.88057360       8.40571872
17
Properties=species:S:1:pos:R:3 config_type=qcd gap_pre_relax_energy=-167.4766948614964 gap_pred_energy=-167.63467836267031 gap_fmax_final=0.000882733671032684 gap_converged=1 pbc="F F F"
Ta      12.88869097      10.99546333      10.32553731
Ta      12.19172627       9.39737479       8.12232695
Ta      12.45976882       8.22094702      10.43597640
Ta      12.04144465       9.50237590      12.54977240
Ta      10.46548014       7.59141380       8.87546533
Ta       9.47098194       9.91659898       7.65133648
Ta      11.33793263      12.01248214      12.43614456
Ta      11.51579741      11.80913718       8.01314536
Ta      11.08035555      13.14280349      10.21318195
Ta       8.13095396       8.26798290       9.48987886
Ta       9.93029086       7.90050452      11.61624098
Ta       9.08608038      12.51330741       8.65280679
Ta       9.61167272      10.20656039      13.18926327
Ta       8.72471092      12.20221426      11.42163211
Ta      10.25371435      10.25362880      10.25363349
Ta       7.69551356       9.60169598      11.68988366
Ta       7.42749193      10.77811613       9.37638115
18
Properties=species:S:1:pos:R:3 config_type=qcd gap_pre_relax_energy=-177.1583199943565 gap_pred_energy=-177.53904933785222 gap_fmax_final=0.0009851499851208732 gap_converged=1 pbc="F F F"
Ta      11.42669204      10.04556755      12.80194678
Ta       8.86035792       9.22221777      12.70804034
Ta       9.19461262      11.69860086      12.85414324
Ta      11.37338479      12.72072744      11.95627679
Ta      10.49922163       7.70233856      11.19911380
Ta       7.61115721      11.02983739      10.78828985
Ta       9.20262376      13.19195466      10.66641048
Ta      13.17532315      11.34697611      11.02500291
Ta      12.91641239       8.79534848      10.98510375
Ta      10.32255520      10.29359967      10.29567548
Ta      10.51245428      10.19027306       7.55425138
Ta       7.88275019       9.85732250       8.38540421
Ta      11.86872871       8.04586831       8.76698354
Ta       8.87598472      12.15480404       8.41179965
Ta      11.43992759      12.53352575       9.15710124
Ta      12.92482285      10.38106641       8.66200773
Ta       7.87475125       8.36402545      10.57317638
Ta       9.43452193       7.82222821       8.60555465
19
Properties=species:S:1:pos:R:3 config_type=qcd gap_pre_relax_energy=-186.64284148596076 gap_pred_energy=-187.03268928924533 gap_fmax_final=0.0007415947389518122 gap_converged=1 pbc="F F F"
Ta      12.05808937       7.58787336      10.14108111
Ta       9.32522090       7.86742202      10.11632134
Ta      10.84431781       8.31465459       7.92438651
Ta      13.07098231       9.40378797       8.56939391
Ta       8.70015069       9.61521831      12.34619416
Ta      11.01866032       8.24092022      12.33397636
Ta       7.42359941       9.74744906      10.02682895
Ta       8.79084616       9.76564552       7.90583145
Ta      13.14642094       9.77892243      11.33136616
Ta      12.45364351      12.38090250      11.64019918
Ta       9.76317846      12.65720667      11.72153994
Ta      11.08484389      13.20029123       9.39753299
Ta      13.22810297      11.75314625       9.30754190
Ta       8.53855204      11.71736300      13.80391591
Ta      11.10468668      10.72371045      13.15127883
Ta       7.26948931      11.83889643      11.53103646
Ta       8.67329451      12.12781152       9.10480944
Ta      10.62534245      10.33464796      10.21458133
Ta      11.08357154      11.14712380       7.63517733
20
Properties=species:S:1:pos:R:3 config_type=qcd gap_pre_relax_energy=-197.80495966416353 gap_pred_energy=-198.10646765025515 gap_fmax_final=0.0009108686231466667 gap_converged=1 pbc="F F F"
Ta      11.55846862      11.68776296       7.52032209
Ta       9.14132963      11.22660655       8.03249124
Ta      11.09732389       9.52273479       9.22368423
Ta       9.81386605      13.76476031       8.16069407
Ta       9.59680351      14.50474966      10.83889500
Ta      11.15118814      12.48285872      10.03926309
Ta       8.06468764      12.77266111       9.85382591
Ta      13.43013550      10.73269502       9.64411078
Ta       9.00153755      10.24140023      10.67159654
Ta      14.46513498      10.02087077      12.25229193
Ta      13.05570884       8.30312422      10.99988680
Ta      11.58724643      13.38023319      12.76249886
Ta      13.73747719      12.54571796      11.51396391
Ta      11.61354437      10.59949353      11.91130201
Ta      12.32059240       8.91704504      13.75753610
Ta       9.21490595      12.22678108      12.40888468
Ta       9.52596039       9.51909833      13.45530380
Ta      10.58787792       7.99316052      11.65798589
Ta      13.41760114      11.52635989      14.02525805
Ta      10.93596720      11.34924349      14.58756237
21
Properties=species:S:1:pos:R:3 config_type=qcd gap_pre_relax_energy=-207.81991196621883 gap_pred_energy=-208.08549570306587 gap_fmax_final=0.0008472523607106703 gap_converged=1 pbc="F F F"
Ta      11.71257210       7.31153451      11.13953572
Ta      12.75986239       9.01722681      12.78876059
Ta       9.85054860       8.99750955      12.51379862
Ta       9.31603521       8.36278860       9.94466774
Ta       7.20184014       9.74978055      11.39103765
Ta      11.85665853       7.76967291       8.64006746
Ta       8.20964196      11.21795792      13.34620409
Ta      13.97997656       8.94388473      10.15956496
Ta      11.10072868      11.37103074      13.02403512
Ta      11.70678363      10.04710510      10.41275025
Ta      13.67579564      11.77102224       9.33432538
Ta      12.82563645       9.97026754       7.74929243
Ta      10.04509619       9.78384947       7.95482125
Ta       6.98374884      12.49217676      11.31721617
Ta      13.75086348      11.26837330      11.87747609
Ta       9.21877130      13.51035951      12.41814120
Ta      10.96812417      12.11528975       8.42567414
Ta       9.39810130      11.18817288      10.72078496
Ta       7.69389425      11.22405934       8.95821508
Ta      11.61271799      13.00040891      10.89337247
Ta       8.93729797      13.69222425       9.79495398
22
Properties=species:S:1:pos:R:3 config_type=qcd gap_pre_relax_energy=-219.95441663689653 gap_pred_energy=-220.22198630746493 gap_fmax_final=0.0005317569009197526 gap_converged=1 pbc="F F F"
Ta      10.99028196      11.59914714       7.27206825
Ta       8.54852950      11.51199778       8.06325171
Ta      10.20731307       9.22900774       8.76223757
Ta      12.70670968      10.10090640       9.07794506
Ta       9.99848725      13.94759453       8.63853100
Ta      12.71905803      12.96678708       8.58992832
Ta       8.31660647       9.94409884      10.50029229
Ta      10.53695174      11.88501315      10.07266668
Ta       7.83554665      12.79245908      10.17229633
Ta      12.06784783       7.47199290      10.14185472
Ta       9.62607728       7.38470781      10.93291222
Ta      11.63352167       7.68440401      12.99346398
Ta       8.91291763       8.66512080      13.04196431
Ta      13.79648759       8.83962495      11.45981402
Ta      12.00602999      14.24725287      10.69899370
Ta      13.31539330      11.68789956      11.13171455
Ta       9.56428644      14.16005735      11.49015181
Ta       8.92528695      11.53109204      12.55405310
Ta      11.09504502       9.74698557      11.55933295
Ta      11.42467821      12.40299633      12.86976308
Ta      10.64157866      10.03281006      14.35991532
Ta      13.08336303      10.12004204      13.56884705
23
Properties=species:S:1:pos:R:3 config_type=qcd gap_pre_relax_energy=-230.39534395264047 gap_pred_energy=-230.7417762849678 gap_fmax_final=0.0007480813367787552 gap_converged=1 pbc="F F F"
Ta       9.78558048       7.20751128       9.22649631
Ta       8.67509131      11.50174691      12.21979375
Ta       8.23490437       8.89460211       8.32763688
Ta      13.18443834      10.43265795       9.65800781
Ta      10.26127538       9.95153743      10.18598267
Ta      11.05713525       9.37535489       7.73143028
Ta      11.52200607      12.24107249       8.69461796
Ta       8.22259685       8.63956317      11.24085685
Ta      14.33460322      11.53528239      12.12114869
Ta      12.75900743      13.74650765      12.99897654
Ta      13.73554167      13.21116873      10.30843388
Ta      12.72892936      11.11814019      14.10962394
Ta       9.97182218      14.11686410      12.51234665
Ta      10.55711671       7.35981555      11.66548493
Ta      10.52966613      12.37831044      14.27861777
Ta      11.57749624      14.53401790      10.52387192
Ta       9.27906549      12.87701504      10.00630625
Ta       9.10215787      11.23181322       7.73426689
Ta      12.25590763       7.80077113       9.56225944
Ta       7.40332029      10.79078259       9.83759753
Ta      10.33757514       9.69339343      13.18313881
Ta      11.54083880      11.89566684      11.62708713
Ta      12.66808452       9.19056523      11.97017783
24
Properties=species:S:1:pos:R:3 config_type=qcd gap_pre_relax_energy=-240.569556968562 gap_pred_energy=-241.012728713848 gap_fmax_final=0.0007296069580329593 gap_converged=1 pbc="F F F"
Ta       9.76438993      11.10519253      13.43524129
Ta       8.93821298       8.75344409      12.12968865
Ta       9.39384085       9.04997770       9.40815006
Ta      13.44781906      13.79181460      13.43384428
Ta       8.59057595      13.51913223      12.59055594
Ta      12.32830320      11.24913189      13.88024918
Ta      10.51963972       7.24691732      10.81521490
Ta      12.32207541      15.59489079      12.02670259
Ta      11.31871632      12.82189055      11.55645044
Ta       9.04641175      13.81567382       9.86903117
Ta      11.24631649       8.41678972      13.39878817
Ta      11.99801043       8.90600545       8.90902559
Ta      10.51353110      11.59265888       8.96153895
Ta      14.25115952       9.32266244      10.25101450
Ta      11.59562173      14.42501633       9.44303304
Ta       8.75366311      11.27116960      10.95794532
Ta      13.07743699      11.73661583       9.40657623
Ta       9.92063394      15.46005912      11.60973826
Ta      12.92112770       7.38172168      11.23192349
Ta      14.08814889      11.57063134      11.88385506
Ta      11.52308888      10.01990917      11.28534945
Ta      10.84366446      13.93578383      13.93275290
Ta      13.79554442       9.02610765      12.97253008
Ta      13.90364669      14.08838297      10.71238001
25
Properties=species:S:1:pos:R:3 config_type=qcd gap_pre_relax_energy=-249.4576051982253 gap_pred_energy=-250.24055441952876 gap_fmax_final=0.0008870812042281669 gap_converged=1 pbc="F F F"
Ta      11.97825009      10.15630468       7.61420858
Ta      13.78473440      12.42053206       8.51472138
Ta       9.41628842      10.16275807       8.18976942
Ta      11.23534124      12.40549937       8.93776239
Ta       8.47618349       8.26064262      10.00623022
Ta       7.15467958      10.37300830       9.90615872
Ta      11.10560638       8.28823869       9.53453054
Ta       8.45340493      12.49491656       9.07816631
Ta      15.03694984      12.39632009      10.71937196
Ta      13.02487859      14.17794554      10.68376192
Ta      13.30680081      10.14468289       9.85613764
Ta      10.02766325      10.58592110      10.86150266
Ta      10.10527279      13.66149152      11.03032032
Ta      14.81249197      10.37717932      12.24099652
Ta      11.79616060      14.41937422      13.11740350
Ta      12.37323516       8.92584649      12.07550179
Ta       7.59048280      12.31968286      11.54104327
Ta       8.03621725       9.84405154      12.49261221
Ta      12.28309941      11.86991837      11.91982163
Ta       9.85140615       7.90432239      12.09663986
Ta      10.70829198      10.07286580      13.75735621
Ta      13.43325843      10.56140279      14.31321187
Ta      14.22926979      13.08054659      13.23308967
Ta       9.63002551      12.37736177      13.27488078
Ta      11.95157750      12.52075674      14.80637098
26
Properties=species:S:1:pos:R:3 config_type=qcd gap_pre_relax_energy=-259.9882358749729 gap_pred_energy=-260.5338792001332 gap_fmax_final=0.0009567597377801526 gap_converged=1 pbc="F F F"
Ta       9.24734365      11.10687538      15.40080108
Ta       7.43248331      10.96764925      13.71738586
Ta      11.36352989      12.60685076      15.06585139
Ta      11.62153795      10.08907414      14.85113038
Ta       8.92948383      13.33969656      13.81099453
Ta      12.26935029       9.17799560      12.40444845
Ta      11.55414895      14.06368307      13.07451828
Ta       9.42234895       8.97667262      13.62409724
Ta       7.82299535       9.78542863      11.50221050
Ta       7.62556814      12.42910108      11.56830502
Ta       9.98063940      13.61619040      11.03340039
Ta      13.14848944      11.76251257      12.88352336
Ta      10.24133545      11.28171419      12.53403955
Ta       9.37185323      11.27873660       9.59598280
Ta      14.67873050       9.90459615      11.44435317
Ta      10.28793710       8.92327019      10.74324074
Ta      13.12780504       8.59354271       9.63116228
Ta      10.93476748       9.19051296       8.18591046
Ta      11.10585780      13.58570074       8.62742962
Ta      12.79885138      13.87444216      10.68952245
Ta      13.23569284      10.13720084       7.34095183
Ta      15.05264103      10.49724059       8.98634011
Ta      11.07282661      11.54517233       7.27479216
Ta      12.19153867      11.16988172      10.07996542
Ta      13.60138041      12.68982932       8.21626098
Ta      14.88985329      12.41541945      10.72237191
27
Properties=species:S:1:pos:R:3 config_type=qcd gap_pre_relax_energy=-271.15925532334853 gap_pred_energy=-272.1099153156004 gap_fmax_final=0.0009590616996766504 gap_converged=1 pbc="F F F"
Ta      13.54258838      12.64045622      13.53729330
Ta      11.90040079      14.06245719      11.62619626
Ta      12.29783419      10.16363283      13.91499689
Ta       8.87529452      13.42215786      11.50081534
Ta      14.68235486      13.30356975      11.38452691
Ta      10.64943176      12.30504380      13.35955065
Ta      14.89629440      10.51519355      12.21246923
Ta      10.41061812       7.89132357      13.85764501
Ta      12.59807161       8.39977272      11.94067947
Ta      12.69152001      11.21987045      11.20283850
Ta      12.86090261      13.49385634       9.18054701
Ta      10.28831175      14.79632870       9.34263848
Ta      10.07800780       9.97392753      11.99175404
Ta       9.47741929      10.09834959      14.73073278
Ta      10.63712633      13.09136048       7.37077622
Ta       8.28564873      13.09608054       8.69969436
Ta       7.82556657      11.42039096      13.22944721
Ta      14.99598456      11.61197554       9.50524374
Ta      14.15056374       9.24684764       9.76067663
Ta      10.01351493       7.17123892      11.43652813
Ta       9.41878363      10.63037485       8.08026446
Ta       7.88887789       8.70672412      12.66223504
Ta      10.46886519      12.07087867      10.01109945
Ta       7.70234895      10.95024242      10.56945915
Ta      12.46987188      11.02653839       8.19781568
Ta      11.25793659       8.97108560       9.58775753
Ta       8.43425851       8.51871929       9.90471607
28
Properties=species:S:1:pos:R:3 config_type=qcd gap_pre_relax_energy=-281.568541481863 gap_pred_energy=-282.1829090941226 gap_fmax_final=0.0008980495778881164 gap_converged=1 pbc="F F F"
Ta       7.28508655      10.88196900      11.78403819
Ta       7.68095289      10.62688175       9.35874852
Ta       8.33229367       8.40274920      10.94581967
Ta       9.00557682      13.08007794      10.70093762
Ta       9.02569093      12.19670540      13.35272353
Ta       8.91903134       9.25125603      13.16709680
Ta       9.69423518       8.70641488       8.90708903
Ta      10.10245435      10.72697807      10.99081243
Ta       9.72530868      11.30024232       8.19030112
Ta      10.90734169      13.05342678      15.04372231
Ta      11.39720935       8.48827895      11.36008472
Ta      10.23198187      15.03618550      12.97426337
Ta      11.15767118      15.09463744      10.36017928
Ta      11.17552276      10.41400734      13.74772057
Ta      12.14007967       9.81294017       9.01334164
Ta      12.72414117      14.65539121      14.44129624
Ta      11.59913996      13.04892080      12.25874025
Ta      11.69924005      12.58409945       9.30221047
Ta      13.34182116      11.76123043      14.42851863
Ta      13.08431282      10.99501133      11.51474106
Ta      12.91271965      15.66299920      12.14591515
Ta      13.50130221       8.93513447      13.40368727
Ta      14.34471732      11.31947525       8.95710889
Ta      13.83929155      13.72687931      10.34419819
Ta      14.59452417      13.32438873      12.78793945
Ta      14.54245237       9.06033753      10.83557468
Ta      15.49113337      10.53188442      13.11585876
Ta      15.87660326      11.65333309      10.89916816
29
Properties=species:S:1:pos:R:3 config_type=qcd gap_pre_relax_energy=-291.84850871393616 gap_pred_energy=-292.4361537824839 gap_fmax_final=0.0008097989505687001 gap_converged=1 pbc="F F F"
Ta      12.88458150      10.39198875       8.67096180
Ta      12.44984099      12.49341877      10.87664629
Ta      14.55780786      12.56548364       8.85765644
Ta      10.18318759      11.64527405       9.18238265
Ta      12.00457132       7.50927885       8.84718802
Ta      10.14332584      11.08403238      14.89753476
Ta      10.07706038       9.05043013       8.43001401
Ta      11.55665276       9.61292348      10.82886931
Ta      13.33172030       8.44766820      12.76562743
Ta      14.40787104      10.72699014      11.14558156
Ta      11.95110452       6.79237701      11.49360074
Ta      13.26598802      14.95043005       9.51646363
Ta      15.12594177      13.65847485      11.06279232
Ta       9.81168723      11.71166291      12.11265577
Ta       7.95911866      12.79632445      10.20170659
Ta      12.95662515      15.13335677      12.01654605
Ta       9.72439379       7.37123367      10.45112626
Ta      11.09884219      13.64457837      13.39078316
Ta      14.02575480      13.02666523      13.22024992
Ta      10.23638068       8.78815120      12.97451477
Ta       8.41681885      14.26468902      12.36145088
Ta       7.96114546      10.13453178      13.72916020
Ta       8.48439419       9.79078714      10.85771748
Ta      12.36222041      10.89998942      13.36305576
Ta       8.38849533      12.80438380      14.42210674
Ta      14.01959545       8.16759670      10.22050934
Ta      12.09946833      13.23074888       8.12110776
Ta      10.52427354      14.29347754      10.59680346
Ta       6.90035613      11.92227687      12.29441095
30
Properties=species:S:1:pos:R:3 config_type=qcd gap_pre_relax_energy=-302.7459570447672 gap_pred_energy=-303.61850892798435 gap_fmax_final=0.0007327831336244704 gap_converged=1 pbc="F F F"
Ta      15.07103212       8.23646853       9.87930507
Ta       8.04920188      12.44690017      11.68662734
Ta      10.51034576      12.08764565      13.29627817
Ta      12.62534591      12.50097348       7.95347292
Ta      14.24153733       9.02547767      12.48315230
Ta       8.37291778      13.75366853      14.29785570
Ta      15.52939924      10.67301466      10.69104979
Ta      10.75259152      12.05633182      10.38866087
Ta      10.71211105      14.67874066      14.56543842
Ta      11.49167631       9.38593736      12.46496011
Ta      10.18888956      12.20059906      15.92042490
Ta      12.29676237      14.11301960      12.19568028
Ta      11.25082260      10.32353088       7.81966190
Ta      10.02044387      12.75449704       7.59281264
Ta      14.40285227      10.25927962       8.06211851
Ta      11.33718103      14.52099502       9.40536461
Ta       7.92108614      11.28659004      14.35275214
Ta       8.65007495      10.96166458       9.13113207
Ta      12.91666622      10.20082035      10.12271966
Ta      12.39098332      10.46185856      14.89761134
Ta       9.71412453      14.51929296      11.84727858
Ta      10.50154365       8.86336086       9.89267273
Ta       8.65976622      13.80376130       9.38562788
Ta      13.38272226      11.65690615      12.55537894
Ta      12.88281303       8.02435211       8.30911708
Ta       8.92775669      10.01042746      11.97397565
Ta      12.64990391      13.09379990      14.94966735
Ta      13.77053774      12.89054961      10.10845779
Ta      12.79826103       7.36660117      10.84139775
Ta       9.83818214       9.70046759      14.78687990
31
Properties=species:S:1:pos:R:3 config_type=qcd gap_pre_relax_energy=-314.24745566607305 gap_pred_energy=-315.0226830240095 gap_fmax_final=0.0008078422855551476 gap_converged=1 pbc="F F F"
Ta      11.64879319      14.75203001       8.92285626
Ta      12.71203234      14.34728530      11.56852274
Ta      10.12467504      15.08668007      11.39820030
Ta       9.19896975      13.97331269       8.86720932
Ta      13.49226288      12.55276292       9.10683641
Ta      11.24312435      12.11181529       7.65064148
Ta      11.36313049      15.20979446      13.98380572
Ta       9.14424026      11.02633208       9.21628726
Ta       8.87524736      14.60946085      13.92894926
Ta      10.87552108      12.50857699      10.39823513
Ta      13.36221341       9.97052339       7.33469787
Ta      13.42663830      11.70149705      11.81132671
Ta       8.22187877      13.18028254      11.52474817
Ta      10.68644205      12.58200883      13.04669517
Ta      10.51978604       9.44624501       7.22944353
Ta      13.11381101      13.38224272      14.24912514
Ta      11.88563947       7.51206903       8.10595852
Ta       9.69671596       8.34340506       9.76942210
Ta      11.03309843       9.85436942      11.93578597
Ta      14.95514354      10.27645196       9.69034799
Ta      12.15115783       9.97633575       9.52942100
Ta       8.10570213      12.22612859      14.24895446
Ta      10.62245567      12.82908503      15.54036733
Ta       8.53642629      10.44731191      12.01587659
Ta      12.53353614      10.67618091      14.30016794
Ta      14.12450438       7.90594959       9.28294965
Ta      13.74314764       8.97197201      11.95038168
Ta       9.53121466       7.72108551      12.63846822
Ta      11.87750843       7.29594283      10.96020099
Ta       9.88879787      10.08775807      14.48095889
Ta      11.80754073       7.93645961      13.81451375
32
Properties=species:S:1:pos:R:3 config_type=qcd gap_pre_relax_energy=-324.633354491535 gap_pred_energy=-325.39707532270404 gap_fmax_final=0.0009629073579442056 gap_converged=1 pbc="F F F"
Ta      15.26639761      13.29045757      10.72935788
Ta      14.19342953       9.66643864      14.26835793
Ta      15.20469111      10.49987311      11.55247500
Ta      14.09353768      12.50428197      13.15391719
Ta      12.80513465      14.55768696      11.11872680
Ta      13.20663154      13.71489854       8.64214006
Ta      15.14679170      11.67720703       8.79187705
Ta      12.17126250       7.65300445      14.03179956
Ta      12.66881726      11.76779619      15.30604460
Ta      12.99286867      11.61508215      10.72182921
Ta      12.31760941      11.33517337       7.92442715
Ta      14.13651254       9.42245846       9.15759905
Ta      11.35578859       9.49854697       9.74011871
Ta      13.37527271       8.39200893      11.56764471
Ta      11.67540706       9.49244458      15.74890552
Ta      12.05899780      10.22115688      12.97099649
Ta      10.54765096      13.49790717       7.32311180
Ta      10.66657274      12.80101471      10.01262850
Ta      10.39491592       7.95734906      11.81289393
Ta      11.05678366      15.45033956       8.90637711
Ta      11.36855090      13.16272652      12.92934485
Ta       9.73042200      10.76927331      11.70662917
Ta       8.57273139       8.92213126       9.75465144
Ta       9.33817431      11.16403646       8.39911229
Ta       9.93129522      11.56748463      14.56561876
Ta      10.07103218      15.32950638      11.22452002
Ta       9.51777512       8.99993343      14.07391497
Ta       8.53444243      14.01796793       9.29165183
Ta       8.64177523      13.30515934      12.25568156
Ta       7.57007530       8.87491209      12.04172547
Ta       7.51708986      11.44698038      10.49516978
Ta       7.46359612      11.01679572      13.37278534
33
Properties=species:S:1:pos:R:3 config_type=qcd gap_pre_relax_energy=-334.1172176399245 gap_pred_energy=-335.216659594993 gap_fmax_final=0.0009505096461965317 gap_converged=1 pbc="F F F"
Ta      10.73575789      16.02284512      12.87748594
Ta      10.22886102      14.96018370      10.23960038
Ta       8.30145539      14.73631216      12.76066757
Ta       9.99675247      14.70410467      15.02410858
Ta       9.51409162      13.51415408       7.96885431
Ta      12.66548320      14.40166928      11.28976818
Ta       8.14672406      13.48908341      10.22592380
Ta      12.67388040      14.36460736      14.14846816
Ta      12.17000755      13.54478461       8.51537329
Ta       8.60260680      12.58645778      14.52083423
Ta      10.40992835      13.28779365      12.53867640
Ta      15.01417136      13.84278690      12.82705295
Ta       8.16844147      11.64166518      11.84973611
Ta       8.52034254      11.04603233       8.86713657
Ta      10.75145962      11.85587099      10.10159518
Ta      10.78503339      11.46355741       7.25314601
Ta      11.40193862      12.17539664      15.11352124
Ta      14.22736113      12.35754391      10.41416637
Ta      10.26407888      10.50491903      13.19353901
Ta      12.97418731      11.82725741      12.72337490
Ta      16.01931224      11.57657614      12.51618530
Ta       9.39414266       9.18752060      10.98677118
Ta      14.48132380      11.96412113      14.84390918
Ta      13.06714941      10.66927875       8.65112576
Ta      10.83056630       9.16968800       8.76023365
Ta      12.27803705       9.59212057      11.27226834
Ta      12.57071574       9.48430966      14.30926495
Ta      14.92711635       9.66860807      10.79125022
Ta      10.92090223       7.68060265      12.96544982
Ta      14.92770591       9.50756658      13.48240067
Ta      13.37467805       7.86185263       9.36434221
Ta      11.25336838       6.98204092      10.52288896
Ta      13.49410812       7.42037794      12.17256986
34
Properties=species:S:1:pos:R:3 config_type=qcd gap_pre_relax_energy=-343.67729194293094 gap_pred_energy=-346.9623100819221 gap_fmax_final=0.0008286915419698259 gap_converged=1 pbc="F F F"
Ta      12.84691990       9.05950955       8.10853619
Ta      11.08667066      11.62466940       8.56810774
Ta      13.95782054      11.19420921       9.11577722
Ta      13.16368765      13.58053920       8.09591029
Ta      12.02050425       7.09751596       9.73467709
Ta      13.98274903       8.51388200      10.62023615
Ta      10.42252111       8.73881377       8.22531256
Ta       8.27669598      12.66506446       9.02880378
Ta      14.89282512      13.84865686      10.27266040
Ta      10.52483268      14.26658418       9.05263040
Ta      11.70771726       9.97047453      10.65980855
Ta      12.54688864      13.00760886      10.91558493
Ta      14.54241630      11.02995386      11.78214476
Ta      12.93548669      15.64428030       9.57583001
Ta      11.62695177       7.88674765      12.40803258
Ta       9.68469585       7.67788817      10.56099896
Ta       9.99386344      12.40047610      11.38338008
Ta      13.37041056      15.57049361      12.06291958
Ta       8.83516060      10.22104158       9.82718650
Ta      10.93494712       9.37379478      14.89033008
Ta      13.60904631       8.99341052      13.53266693
Ta      14.27183435      13.39532745      13.23692501
Ta      14.96288909      11.06427376      14.58444721
Ta       7.46352632      12.14321091      11.77732790
Ta      10.68817102      15.34286991      11.45210602
Ta      12.14562744      11.28430979      13.41271159
Ta       8.08422090      14.57745692      10.66761567
Ta      11.41391182      13.90964777      13.67681614
Ta       8.59703624      14.29519171      13.14931201
Ta       9.31794337      11.88854854      14.17625656
Ta      13.32523904      12.85012086      15.70433029
Ta       9.46661124       9.73245913      12.50068065
Ta      13.10328952      10.13818723      16.05411577
Ta      11.09611511      11.91200834      16.08504726
35
Properties=species:S:1:pos:R:3 config_type=qcd gap_pre_relax_energy=-354.72024917073765 gap_pred_energy=-357.0025668850995 gap_fmax_final=0.0009210970995101568 gap_converged=1 pbc="F F F"
Ta       8.23784539      13.12992719       8.73696354
Ta      10.94096470      13.52856493       8.01223736
Ta       9.90654394      10.92898606       8.22943929
Ta      11.38663809       8.73969971       7.78968155
Ta      12.60963873      11.05630111       7.38558715
Ta       9.37351018      15.19906163       9.68062673
Ta       7.99826047      13.54224061      11.52321607
Ta      10.03626193       8.94679416      10.26051072
Ta       8.02138462      10.93770550      10.47874342
Ta      12.11793199      15.00517146      10.27349419
Ta      13.99431870       8.67046852       7.99830075
Ta      10.34571701      12.57305111      10.50579100
Ta      13.40520703      12.86972242       9.34791144
Ta      12.55026942      10.29953954      10.26308421
Ta      12.53647051       7.34933764       9.62389457
Ta      15.05593050      10.75539880       8.72643210
Ta       7.83882014       8.75612392      12.02296900
Ta      14.70024129       8.77511887      10.66740826
Ta      14.73420897      14.35599173      11.40517809
Ta      10.43602485      15.01301610      12.28011518
Ta       9.84049805       7.36185811      12.84084087
Ta       7.66354611      11.07924289      13.28708966
Ta      10.48345968      10.30914551      12.72916949
Ta      12.43019203      12.70822096      12.25233769
Ta      12.21669201       8.03458799      12.09145034
Ta      13.16258609      15.58871086      12.85499333
Ta      15.00348377      11.65575122      11.30605983
Ta       8.49984017       8.69598068      14.55433101
Ta       9.74154395      12.88676027      13.71912160
Ta      13.46810415      10.20292561      13.13191287
Ta      12.00494810      14.36873316      14.66137357
Ta       9.41017821      10.78166491      15.46274544
Ta      14.37550348      13.15566889      13.88111080
Ta      11.25160156       8.79117623      14.78234218
Ta      11.94426953      11.66998707      14.95617205
36
Properties=species:S:1:pos:R:3 config_type=qcd gap_pre_relax_energy=-364.1421840611718 gap_pred_energy=-367.7180509633279 gap_fmax_final=0.0008836068893423275 gap_converged=1 pbc="F F F"
Ta      14.86613782       9.08831111      13.27928819
Ta      11.65052571      11.68498453      15.22656969
Ta      16.73984544      11.02165668      13.06999626
Ta      12.61281922       9.20955693      15.01112489
Ta      16.58858474       9.65196686      10.87887772
Ta      14.26384297      11.50010232      14.32453320
Ta      16.89820577      12.51962590      10.94355944
Ta      14.08419075       8.26696871      11.10972510
Ta       9.67957764       9.61438989      14.11996637
Ta      12.11893291      10.11691359      12.61763570
Ta      10.44943682      14.17170225      14.85005817
Ta      15.35931608      13.54008933      12.85336576
Ta      14.33127471      11.19179043      11.25322315
Ta      15.97905076      11.66989932       8.88537097
Ta      14.95045314       9.31661168       8.91002934
Ta       9.72335627       9.87763947      11.03828254
Ta      13.31270963      14.38632588      14.88852767
Ta       9.07903022      11.83651717      15.95156961
Ta      12.41835190      13.24883185      12.79555410
Ta       9.63456661      11.96768100      13.08204324
Ta       7.16813055      11.14377696      14.58757351
Ta      12.22212574       9.58478649       9.72751876
Ta       7.39115531      10.20796341      12.33108880
Ta      13.93282602      15.72621344      12.41756876
Ta       7.85569378      13.81058983      14.51841795
Ta      14.09261939      13.73946710      10.22291967
Ta      11.38173091      12.28413295      10.52373244
Ta      11.60822836      16.03859958      13.34223237
Ta      13.33149796      11.62079437       8.39699431
Ta       8.39847526      12.16821766      10.40171739
Ta       9.58971622      14.39185595      12.00785588
Ta       6.90489880      12.87443046      12.45986603
Ta      11.80195793      15.24376102      10.62283911
Ta      10.27778812      11.51673135       8.35302134
Ta      11.94384981      13.86743353       8.15691624
Ta       9.62226170      14.16284597       9.10360131
37
Properties=species:S:1:pos:R:3 config_type=qcd gap_pre_relax_energy=-377.7354293282962 gap_pred_energy=-379.0310807479797 gap_fmax_final=0.0008408024496399223 gap_converged=1 pbc="F F F"
Ta      12.30707984       7.58034780      13.52161359
Ta      14.30075425       9.41724552      13.22091050
Ta      11.98869911      10.31590829      14.57128899
Ta      13.33708168       7.62721612      10.92275130
Ta       9.78075951       8.98354768      13.69115919
Ta      10.57053610       7.02331664      11.80496705
Ta      14.17089182      11.85700357      15.17192072
Ta      15.98532159      11.63818361      12.98446758
Ta      11.91897366       9.62120558      11.48259865
Ta      12.80846416       9.74272661       8.68234585
Ta      13.28628151      12.03135237      12.42629588
Ta       9.59389541      11.69454243      15.23644213
Ta      10.83410337       7.96443698       9.49534811
Ta       8.88657008       9.28034499      11.18288877
Ta      11.81869091      12.33431498      16.74876131
Ta      14.67676085      14.10413972      13.78007962
Ta      13.30698021      14.36282960      16.30289372
Ta      14.67774175      10.45218863      10.59824878
Ta      10.24123834      11.45037973      12.39820690
Ta      10.25119612      10.83017707       9.27865471
Ta       7.66533767      10.91778892      13.22593389
Ta      11.87768843      11.78059595       7.09169835
Ta      10.40316763      14.61808917      15.84361140
Ta      11.74713355      13.37609536      14.12115036
Ta      15.25677870      13.28814733      10.84342195
Ta      14.52688284      12.24378267       8.07564435
Ta      12.68497109      16.02408516      14.45928431
Ta      12.62440596      12.52454580       9.76173451
Ta       8.17927873      12.14171573      10.82076454
Ta       8.81671599      13.59662062      13.48785715
Ta      10.10735756      13.45550832       8.45373320
Ta      13.04503171      14.94347005      11.68523617
Ta      10.52357751      13.74442210      11.18856322
Ta      10.51368881      15.77714526      13.22193114
Ta      12.57699777      14.13606249       7.17464896
Ta      14.22978772      14.88492519       8.95377740
Ta      11.66247386      15.41888777       9.27246160
38
Properties=species:S:1:pos:R:3 config_type=qcd gap_pre_relax_energy=-388.02727816378285 gap_pred_energy=-389.700201068674 gap_fmax_final=0.0008724462551962794 gap_converged=1 pbc="F F F"
Ta      15.11577300      15.77284733      12.89087298
Ta      15.32210613      13.20721159      13.94935532
Ta      16.13429751      14.13073757      11.31708048
Ta      15.29113223      11.45119228      11.91141472
Ta      14.08666263      15.58900078      10.22848133
Ta      13.18830590      14.47487709      14.65357618
Ta      12.77058246      16.46148116      12.58474423
Ta      15.15250948      10.62332047      14.79506845
Ta      13.72029067      12.23590284      16.20986702
Ta      13.22238811      13.70140099      11.75467798
Ta      14.75644387      12.69059376       9.47084290
Ta      12.69991714      11.66417754      13.49367338
Ta      10.82655044      14.49096432      13.42729568
Ta      11.03991421      15.41186000      10.78417825
Ta      12.07729826      13.48163076       9.11477150
Ta      14.10432504       9.18039889      12.76691653
Ta      12.61612423       9.88992073      15.38254026
Ta      11.10803808      12.54134227      15.50530369
Ta      14.70937664       9.62042115       9.69316687
Ta      12.68746551      10.94232150      10.62072837
Ta       8.56259697      14.95058374      11.87450633
Ta      13.25196857      11.08940124       7.84716081
Ta       8.60215859      12.86741679      13.75877048
Ta      10.15881756      12.59969839      11.34225379
Ta      10.04791650      10.42595608      13.92790623
Ta       8.99501412      13.81569814       9.33468303
Ta      12.85982538       7.80070467      10.72905427
Ta      11.56046281       8.38211541      13.00475264
Ta      10.47847665      11.29177856       8.57929196
Ta      10.19238428       9.65172349      10.94943193
Ta       7.14906024      13.04070820      11.29017477
Ta      11.89724009       8.85385563       8.67521664
Ta       7.83730292      10.61431079      12.29353051
Ta       8.01096788      11.07199901       9.64524981
Ta       8.86252299       7.94555433      12.75764374
Ta      10.13209020       7.04973654      10.46885592
Ta       9.14926320       8.66430490       8.47121279
Ta       7.64819146       8.34861297      10.52151016
39
Properties=species:S:1:pos:R:3 config_type=qcd gap_pre_relax_energy=-398.36695475355475 gap_pred_energy=-399.86945029918564 gap_fmax_final=0.000974388287069233 gap_converged=1 pbc="F F F"
Ta      15.36041656      10.82896227      11.70578144
Ta      15.47992951      13.56428819      10.85480081
Ta      14.65275800       8.35979727      13.20174486
Ta      14.49273308      12.57367198      13.47848809
Ta      14.44073156      11.05981035       9.19429747
Ta      14.06252951       8.58869781      10.53048300
Ta      13.69088818      11.05298878      15.60296301
Ta      14.27633146      13.77379929       8.42700311
Ta      13.46514689      14.89786562      12.84286898
Ta      13.72448742      15.55550429      10.22043813
Ta      12.96726894      12.78678053      10.76896176
Ta      12.09169903       7.77299328      12.38814194
Ta      12.94405684      10.33857315      12.98833949
Ta      12.73876873       8.61509174      15.12900900
Ta      12.62554306       8.99391409       7.86894936
Ta      11.42175028      12.90772692      13.24179743
Ta      12.11613601      11.98086075       7.99646429
Ta      11.52514003      14.57663695       8.75689585
Ta      12.00501439       6.97071736       9.68921279
Ta      12.62886909      13.67105401      15.53322562
Ta      10.12336110      10.57103638      12.35384787
Ta      11.07207028      15.06211132      11.34724893
Ta      11.59768265       9.82545617      10.07098890
Ta       9.52535469      13.30023721       7.43970695
Ta       9.89447677      10.52979541       7.72110132
Ta      11.13636216      11.06220728      15.38566102
Ta       9.66506839       7.81325014      11.27786199
Ta      10.08774871      12.40387149      10.12524204
Ta      10.06555496       7.92582083       8.46028460
Ta      10.05309257       8.72978235      14.15867428
Ta      10.98062448      15.46847413      14.19538745
Ta       9.86262599      13.57271692      15.57799184
Ta       8.95118301      13.87090979      12.80472690
Ta       8.51664052       9.84109467       9.95012121
Ta       8.52465337      14.42740544       9.79770634
Ta       8.55949712      11.45379044      14.27925153
Ta       7.60567920      12.15205950       8.66944672
Ta       7.66121476       9.33797419      12.65144531
Ta       7.57522145      11.95058240      11.48174907
40
Properties=species:S:1:pos:R:3 config_type=qcd gap_pre_relax_energy=-409.6480173213283 gap_pred_energy=-411.300153665307 gap_fmax_final=0.0009389592527409184 gap_converged=1 pbc="F F F"
Ta      11.24249655      13.10686644      15.93405733
Ta       8.46259015      12.50663808      15.40477237
Ta       9.33125554      14.76644083      14.56322024
Ta      13.18255161      11.01499826      16.58310297
Ta      14.04038462      13.36126028      15.93404551
Ta      10.66783457      10.52557351      15.34999017
Ta      12.26898305      14.76220637      14.01666955
Ta       7.74619107      13.06970991      12.81432983
Ta      10.32422553      12.53207055      13.20872312
Ta      12.80201244       8.94550789      14.69219796
Ta       8.46395346      10.27594620      13.76725014
Ta      15.20114688      10.89744754      14.84321453
Ta      11.95139428      16.67333274      11.49346050
Ta      14.28815399      16.13244163      12.21049634
Ta      12.99740540      11.77510584      13.80946478
Ta       9.86963491      14.88754912      11.85518312
Ta      14.99020579      13.74761913      13.48984421
Ta      10.18016024       7.96542002      14.31012769
Ta      12.63291769      13.95685640      11.45961781
Ta      11.16699689       9.91562986      12.40950519
Ta       8.98666611       8.08423442      12.06052359
Ta       8.52498692      10.86203383      11.14230606
Ta      10.77961191      12.20864831      10.14651833
Ta      13.63354015      15.88693149       9.55486240
Ta       8.48543549      13.48086962       9.70684567
Ta      11.00224501      15.03025811       9.28958216
Ta      15.23436996      13.95152921      10.62821718
Ta      15.85913834      11.48207577      12.06327620
Ta       8.90517409      11.07460554       8.36130925
Ta      14.17038835       9.25439526      12.45770889
Ta      11.75940286       7.40504567      12.19022648
Ta      10.27646812       9.04019472       9.90792773
Ta      13.10664218      13.15736641       8.56033424
Ta      13.57443269      11.27720367      10.52360328
Ta      10.34774180      13.06116523       7.51454131
Ta      11.72769857      10.62094991       8.06547177
Ta      15.96699310      11.96742040       9.09822655
Ta      15.72464127       9.50401077      10.06678163
Ta      13.03258690       8.68252189       9.89791071
Ta      14.38771992      10.44629764       7.91093162
41
Properties=species:S:1:pos:R:3 config_type=qcd gap_pre_relax_energy=-419.7482923402606 gap_pred_energy=-421.95428392841563 gap_fmax_final=0.0007350331863347796 gap_converged=1 pbc="F F F"
Ta      15.02493622       9.77010445      13.67655414
Ta      15.96329770       8.90400888      11.18355245
Ta      13.26421732       8.13164340      11.89678647
Ta      16.83736794      11.44193178      12.28118003
Ta      15.68104302      12.41779958      14.57253774
Ta      13.73667391      10.89865364      15.95622979
Ta      12.25646958       9.68418236      14.07260971
Ta      17.20337896      14.26067918      13.05958389
Ta      13.70495621      13.39908681      16.29086643
Ta      14.07868291       9.34085659       9.28839501
Ta      13.82166481      10.73631517      11.43062243
Ta      16.21103705      11.34300141       9.73170505
Ta      11.19686826       9.59451442      10.64778984
Ta      14.72562842      14.91881304      14.04043129
Ta      17.65822948      13.62355727      10.69444465
Ta      10.17065871       8.19426792      12.80426902
Ta       9.72043667       9.51083576      15.25550578
Ta      14.82883675      13.38666694      11.50551820
Ta      10.99689220      12.22621069      15.59438838
Ta      12.95938258      12.63161249      13.71674268
Ta      10.18446696      10.98245359      12.88565473
Ta       8.31521533      11.95638289      14.89851776
Ta      15.68086498      15.76663421      11.30775495
Ta      15.97508674      14.24519602       8.97995837
Ta       9.17590402      14.54233920      15.62627673
Ta      11.77637148      10.89102815       8.53208968
Ta      13.93623716      12.33112632       8.74826979
Ta       7.77393908       9.42855000      13.60209904
Ta      11.77192121      14.96320368      14.98024759
Ta      11.91267650      12.72303205      10.83326541
Ta       8.40862818       9.63092303      11.14406125
Ta      12.54989721      15.28423035      12.26107147
Ta      10.06309382      13.65792715      13.03164496
Ta      13.33278478      14.94931827       9.54807666
Ta       7.35716153      14.50180084      13.87326849
Ta      11.24760248      13.44586028       8.29217529
Ta       9.28115713      12.39117224      10.32228180
Ta       9.54401600      16.11626734      13.20186558
Ta       7.50684575      12.04208931      12.38720280
Ta      10.34281159      15.08651961      10.46638219
Ta       7.84427540      14.67081966      11.39973847
42
Properties=species:S:1:pos:R:3 config_type=qcd gap_pre_relax_energy=-431.5574183738798 gap_pred_energy=-433.50218681219843 gap_fmax_final=0.0006650493437673345 gap_converged=1 pbc="F F F"
Ta      17.23785736      13.31172110      11.56081511
Ta      14.31474186      11.12056584       9.04238048
Ta      16.87653991      11.63790507      13.74882244
Ta      16.02045581      15.83992293      11.84242399
Ta      15.30733176      11.21869302      11.45374348
Ta      14.72363091      14.10118825      10.11107801
Ta      17.49028525      14.39632076      13.89344066
Ta      15.25524844       8.91509820      13.03942829
Ta      14.38745949      10.98894624      14.77693388
Ta      13.75116845       8.78385519      10.56815849
Ta      12.60694521      12.67113735      11.02329772
Ta      12.69320289      12.81129225       8.21047480
Ta      15.62131299      13.47281148      15.67182534
Ta      13.04061070      15.33509289      12.44080903
Ta      14.27511786      18.02633599      12.43661150
Ta      13.98375970      16.93478356      10.18183051
Ta      14.86198012      13.47994274      13.10125623
Ta      12.07501895      15.13393863       9.62672611
Ta      12.94575796       7.21821051      12.56230599
Ta      13.36059616       8.27768472      14.85802787
Ta      15.24759170      16.12300396      14.35923759
Ta      11.63601664      10.43664005       9.53666772
Ta      11.59752885      17.30898052      11.77711323
Ta      12.70952547      17.49915628      14.33512735
Ta      10.11987675      12.72449453       9.40434177
Ta      12.68308079      10.08214985      12.71611545
Ta      10.77690011       8.44223009      11.18309792
Ta      10.70949297       8.54806124      13.88685863
Ta      10.07465917      11.28159318      11.95484048
Ta      13.05046158      14.84496302      15.43586383
Ta      13.06327530      12.54560726      16.72319621
Ta      10.28136426      14.42186691      11.64529240
Ta      11.72514067      12.81614394      13.86302593
Ta      10.70087412      15.56254828      14.18146372
Ta       8.52383008      10.23284747      10.15790017
Ta       8.36514915       8.92290388      12.54368719
Ta       7.87017950      12.85784602      10.93628628
Ta      11.77579591      10.50703026      15.65810463
Ta      10.48647027      13.24133900      16.11653477
Ta       8.77493113      13.34251530      13.64417649
Ta       7.23157575      11.15026722      12.65240957
Ta       9.24227152      10.90737857      14.61328228
43
Properties=species:S:1:pos:R:3 config_type=qcd gap_pre_relax_energy=-439.9023596680431 gap_pred_energy=-442.35684315172523 gap_fmax_final=0.0008746737161716654 gap_converged=1 pbc="F F F"
Ta      15.76458544      14.16129315      13.01226385
Ta      16.38409987      12.27454191      11.43662298
Ta      14.42237850      14.50090307      10.71094392
Ta      13.92272613      13.30742225       7.94848783
Ta      16.12964746      11.43943363      14.04363163
Ta      14.06237695      16.34799493      13.33272081
Ta      12.28873010      16.34323841      10.83578168
Ta      15.53684978       9.84495483      11.67316384
Ta      12.84496197      15.49114739       8.28252734
Ta      13.79847585      11.85932908      12.95165171
Ta      14.19443172      11.56345405       9.89559717
Ta      14.40370584      13.79247429      15.06818874
Ta      11.94875897      13.41729513      10.15408612
Ta      11.09113378      13.25705187       7.56041441
Ta      14.22582820       9.12450508      14.08095830
Ta      12.34716063      15.71337035      15.37091856
Ta      11.26296405      16.88568288      13.37514088
Ta      13.73168708      11.02419317      15.84451065
Ta      12.84152764       9.37100901      11.72705593
Ta      12.46265316      10.99842968       7.58429092
Ta      13.56107680       8.95055767       9.18593685
Ta      12.47953338      14.37018191      12.87929521
Ta      10.35759104      15.50110020       8.85598931
Ta      11.47551105      10.26522699      14.09002174
Ta      11.05001310      10.51249448      16.85630072
Ta      11.23527073       8.58370838       7.65295700
Ta      12.36964908       8.43835341      16.12407931
Ta      11.42744275       7.53226553      10.24059740
Ta      11.79121763      12.86022076      15.22927642
Ta      11.05722925      10.52405613       9.87620377
Ta      11.76980897       7.52950262      13.58370887
Ta       9.87898090      15.07328616      11.58411569
Ta       9.49587940      10.77894955       7.79310235
Ta       9.86696120      14.54014893      14.26644477
Ta      10.38290918      12.27087639      12.38166698
Ta       9.73450326       8.73597287      15.22562446
Ta       9.19861887      12.99736588       9.71959445
Ta       9.15846566       8.45181933       9.18152611
Ta       9.83674120       8.87738281      12.05271294
Ta       9.22390631      11.81547920      15.10178609
Ta       8.28644164      10.67081482      10.63577719
Ta       7.90571506      12.96842918      12.52801347
Ta       8.13430628      10.37653842      13.40876746
44
Properties=species:S:1:pos:R:3 config_type=qcd gap_pre_relax_energy=-450.4474725423072 gap_pred_energy=-452.5573521651552 gap_fmax_final=0.0008091990782593623 gap_converged=1 pbc="F F F"
Ta       9.61767294       6.76600413      12.54332277
Ta       8.63940402       9.51384481      12.73242162
Ta      10.40224432      10.55011766      16.93644387
Ta       9.18909225       7.71648079      10.18832569
Ta       8.44814152      10.58205783      15.33366712
Ta      10.50765435       8.45028254      14.68734879
Ta       9.77143181      13.15409056      15.90659670
Ta      12.26896259      12.67009551      16.29379823
Ta       8.64399487      12.80273804      13.60525593
Ta      11.55017316       6.58180983      10.51786841
Ta       9.50810444      13.67752014       9.16137842
Ta      12.65982540       9.87776704      16.14504828
Ta      12.21767789       6.74283865      12.99179986
Ta       9.19446412      10.33870823       9.66256107
Ta      11.02838128       9.12503396      11.85252094
Ta      10.95194342      11.02493811      14.14259028
Ta      11.58410165      13.60173804      13.47477034
Ta      11.64874652       9.01521544       9.22104224
Ta      11.56074090      15.40669285      15.66380795
Ta       9.51948535      15.47300255      14.26377619
Ta      13.27090047       9.23919513      13.59486824
Ta      10.03279081      12.05684027      11.41469941
Ta      13.65814148       8.51917205      11.02787329
Ta      12.87998860      11.41597521      11.45125039
Ta      11.47884295      11.76335749       8.60994504
Ta       9.60598790      14.87530671      11.63702107
Ta      13.92687159      11.82499043      14.30958433
Ta      12.04785167      16.06690663      12.63995958
Ta      12.12176054      14.00668673      10.41345475
Ta      14.09783188      10.69417358       9.12935449
Ta      11.16436695      16.23115458       9.59727858
Ta      11.34273085      14.47530689       7.54732192
Ta      15.51729605      11.20408361      11.78648995
Ta      14.02003757      14.81779990      14.86258609
Ta      14.38899528      14.00815403      12.39311127
Ta      13.63538601      12.98574837       7.63105040
Ta      16.35809737      12.80750858      14.23951353
Ta      14.00602329      16.23570298      10.60689008
Ta      14.83233742      16.83447552      13.16484374
Ta      15.10148936      13.40621744       9.88925507
Ta      13.59850133      15.47094900       8.20975096
Ta      17.22252730      13.39524978      11.86494582
Ta      16.70318027      15.27145208      13.84844927
Ta      16.51602487      15.76282091      11.24636270
45
Properties=species:S:1:pos:R:3 config_type=qcd gap_pre_relax_energy=-464.3320665340393 gap_pred_energy=-466.0054462753656 gap_fmax_final=0.0009273657548174734 gap_converged=1 pbc="F F F"
Ta      15.92350753      10.20352010      11.36613462
Ta      15.53237102      12.66981621      13.11961494
Ta      15.33664294      15.16044907      14.59976233
Ta      14.60057058       7.53190970      12.15542985
Ta      14.87021092       9.92690862      13.88270500
Ta      15.21473420      15.25816190      12.10198144
Ta      15.58165593       8.27312038       9.62664344
Ta      14.82776951      11.00389601       8.83289297
Ta      14.10809704      12.78786134      10.91815492
Ta      14.38030765      12.65219495      15.46210898
Ta      12.64950849      11.46786745      13.35037163
Ta      12.99335873      13.63747733       8.48396702
Ta      13.39324538       6.81295285       9.84971829
Ta      13.27301654      15.23946534      15.99017715
Ta      13.18299359      16.64572972      13.60536252
Ta      13.07128862      11.45144324       6.66088963
Ta      13.38190867       8.88335822       8.01047927
Ta      13.33018190       9.44990468      11.05490302
Ta      12.81059262      14.13939992      13.27739923
Ta      12.94914827      15.44267101      10.69160010
Ta      12.38064246       8.64391543      13.84920793
Ta      13.05483381      10.34288377      15.96941288
Ta      10.72671284      15.33676828      14.97340752
Ta      12.09620850      11.10999917       9.33520221
Ta      10.53620857      10.18945297      12.03033548
Ta      11.64693160      12.89889008      15.78027928
Ta      10.62343789      15.73173205      12.19388193
Ta      10.98977590       8.45102623       9.42829298
Ta      10.41248962      10.50941659      15.00897930
Ta      11.43596976       7.28205746      11.77633803
Ta       9.56255828       8.10796821      13.69190324
Ta      10.51452404      15.26889039       9.13212079
Ta      11.01445334       9.99096977       6.94048499
Ta      10.93028417      13.20760116      10.65704461
Ta      10.66464312      12.76672764       7.55891813
Ta       9.87481951      12.97723734      13.28518867
Ta       8.26473109      15.33271697      13.94209582
Ta       8.64995514       8.66232574      11.29198945
Ta       8.64102824      13.03833855      15.52817534
Ta       8.35979445      14.57631836      11.25679185
Ta       9.39054344      10.77388854       9.13638734
Ta       8.51784699      13.48552146       8.87371520
Ta       8.10272703      10.61606749      13.65922350
Ta       8.15380982      11.80298978      11.21099464
Ta       6.98965748      13.20388574      13.39502974
46
Properties=species:S:1:pos:R:3 config_type=qcd gap_pre_relax_energy=-473.6695845630821 gap_pred_energy=-476.6475589688584 gap_fmax_final=0.0007004463019242404 gap_converged=1 pbc="F F F"
Ta      11.77545537       8.36643859      16.69150420
Ta      14.63397548       8.62957694      16.48289189
Ta      12.70695018      10.30977601      17.99478693
Ta      12.81112810       7.81675792      14.12427068
Ta      10.31488764       9.17317362      14.37661255
Ta      10.57148948      11.01838066      16.25051126
Ta      14.92769085      11.29351422      17.12758601
Ta      13.20228272      10.25632670      15.15287280
Ta      15.50980638       8.21414001      13.63864546
Ta      16.18417247      10.67374428      14.76295666
Ta      12.53518556      12.79059289      16.59287020
Ta      13.56259021       7.74244769      11.54860059
Ta      11.58518548       9.75003188      12.18730337
Ta       8.84190173       9.92343491      11.45007014
Ta       9.15985648      11.81640399      13.40004800
Ta      11.81957420      12.17054984      13.82030101
Ta      14.39117614      10.32972175      12.59386572
Ta       9.96304311      13.91411355      15.18202984
Ta      14.47719578      12.89798366      14.62355162
Ta      17.17933969      10.12798962      12.19276846
Ta      15.73969325       8.62612591      10.70395831
Ta      10.37502105       9.25185590       9.54282263
Ta       7.63641044      12.25075676      11.14040507
Ta       8.24485673      14.57393077      12.81600483
Ta      12.35644091      15.15777437      14.67840772
Ta      13.11336890      10.04797609       9.83928772
Ta      15.56396981      11.32843492      10.08294790
Ta      10.86748657      14.39279790      12.48569934
Ta       8.72329664      11.41739567       8.84984598
Ta      13.33542187      12.59669711      11.45352419
Ta      16.07961300      12.70672319      12.35268033
Ta      11.18079437      10.82831879       7.77210434
Ta      10.73512804      12.00894330      10.44334456
Ta       9.90068547      16.50854955      14.01641521
Ta      12.00137749      14.92111668      10.09543685
Ta      14.08725974      15.14145634      12.36612506
Ta       8.98022181      14.25043597       9.99235224
Ta       9.70466445      16.65578379      11.15267061
Ta      12.10567359      17.06423035      12.25852103
Ta      13.12814270      12.66435474       8.57155906
Ta      14.91626571      14.40930483       9.86952967
Ta      10.61970745      13.56858319       7.90187343
Ta      10.20045043      16.29925702       8.31941553
Ta      11.74558164      17.83718494       9.55699286
Ta      12.93384301      15.73944273       7.89790014
Ta      14.04190449      17.00763700      10.11629454
47
Properties=species:S:1:pos:R:3 config_type=qcd gap_pre_relax_energy=-482.19796313534295 gap_pred_energy=-484.69266122056024 gap_fmax_final=0.0009335348097013728 gap_converged=1 pbc="F F F"
Ta       9.82731647      10.32019414      15.92686219
Ta      12.25406394      10.29678328      17.41219129
Ta      11.04200342      12.53122603      17.35157127
Ta       9.15653949       8.33830295      13.95212448
Ta       7.56592372      10.75561183      14.32764929
Ta      11.96714790       9.05583032      14.87625532
Ta       9.26854113      12.82271014      15.04415671
Ta      13.81157722      12.45996258      16.81921899
Ta       7.36964459       9.63118516      12.14246141
Ta      14.39012541      10.03991143      16.05258873
Ta       7.90726189      14.94022021      13.39903832
Ta       9.66685562      15.89208357      15.00289437
Ta      12.15908944      11.77880492      14.81000708
Ta      11.84304908       8.27938763      12.40208979
Ta       9.99145734      10.65210582      12.89752844
Ta       9.31944383       8.13120366      11.35598122
Ta       8.07618076      12.52349805      11.89630947
Ta      11.84520408      14.41894581      15.56741126
Ta      10.49683011      14.01189547      13.04170680
Ta      15.08916799      12.04344275      14.18855433
Ta      14.51305286       9.47509926      13.42691193
Ta       9.72550100      16.85587353      12.62226822
Ta       9.03147836      15.08399670      10.75669277
Ta      12.77726510      11.09991633      12.10861160
Ta      16.04793223      14.38059179      12.90428985
Ta      13.33899457      13.89769106      12.90244037
Ta      11.80754988      15.68378672      10.88718185
Ta      17.71673050      12.48581403      12.58131901
Ta      10.73009037      12.70317383      10.72752143
Ta       8.82746182      10.60279705      10.02582723
Ta       8.64508089      13.15986794       8.95761643
Ta      12.15162691      16.37744371      13.52515150
Ta      16.51502611      14.25948492      10.34288901
Ta      13.37666006      13.36738573       9.94330051
Ta      15.36386806      11.77202906      11.25446662
Ta      11.40210861       9.70161651      10.16952948
Ta      16.99447996       9.95457156      11.99683653
Ta      14.37462986       8.96083394      10.79426999
Ta      11.16367223      14.51011112       8.48367705
Ta      14.48270688      15.93564797      11.36002598
Ta      11.07665477      11.82346031       8.20163365
Ta      18.01114820      11.93262211      10.06226223
Ta      13.79749449      10.80242550       8.82426795
Ta      14.24589391      15.27922188       8.58247254
Ta      15.77498855      12.61536833       8.40512472
Ta      16.54952133       9.96015655       9.32967286
Ta      13.28775444      13.17250222       7.13393336
48
Properties=species:S:1:pos:R:3 config_type=qcd gap_pre_relax_energy=-495.93603861625746 gap_pred_energy=-497.7992238763769 gap_fmax_final=0.0009906270510619455 gap_converged=1 pbc="F F F"
Ta      16.85488521       9.92772079      13.10873997
Ta      16.74106826       9.42884970      10.38809398
Ta      15.25949819       7.99129013      11.91972845
Ta      14.82878006      11.45953196      14.98133917
Ta      17.24506053      12.09516661      10.79507680
Ta      16.57696067      12.96824600      13.29116237
Ta      14.04271419       8.99958023      14.10598499
Ta      15.29081174      14.18077108      15.63027702
Ta      14.80570566      10.84688447      11.94968766
Ta      12.27299329      10.42425307      16.15837339
Ta      17.52996847      14.83685345      11.19332171
Ta      14.01467224       9.12203592       9.65745413
Ta      15.17405662      11.55744899       9.05845418
Ta      16.14565230      14.39606411       8.82457173
Ta      12.37394636       8.83812644      11.87185543
Ta      14.88755988      13.82880121      10.94280790
Ta      15.74308521      15.65566683      13.22890271
Ta      12.27629987      11.30590094      13.49028772
Ta      10.86893928       8.96777022      14.19107367
Ta      13.73515028      13.57296286      13.32698395
Ta      12.58607791      13.12706153      16.00709564
Ta      12.50643912      11.55070449      10.54636712
Ta      12.63989050      10.83028878       7.87522048
Ta      15.77141211      16.64155720      10.64075505
Ta      13.47852778      15.85438135      14.99501786
Ta      13.23852707      13.44265047       8.47391928
Ta      10.31691326      11.97955481      17.49415923
Ta       9.25005984       8.04640241      11.82382485
Ta      13.32071352      16.21651461      12.13457107
Ta       9.98232439      11.70555457      14.83029071
Ta      13.84676642      15.97370993       9.23353095
Ta      11.85840581      14.47713260      10.60904085
Ta      10.20591466      11.95807051       9.17479625
Ta       9.75224920      10.51961340      11.88025006
Ta       8.17504171       9.63567675      14.20316939
Ta      10.96804246       9.24297948       9.51912874
Ta      11.23423766      14.58732057      13.99177971
Ta       9.95963154      14.18726493      16.54529086
Ta       7.89527671      12.23230242      16.08341576
Ta       9.89551402      13.13312030      12.02451267
Ta       7.02807442       9.63356333      11.78596224
Ta       9.85340902      15.90333814      11.98659602
Ta       8.31706562       9.69117971       9.55610842
Ta       9.09899035      14.60006703       9.72716279
Ta       8.49912625      14.40640015      14.27399500
Ta       7.43614703      12.08122705      13.20725340
Ta       7.68352379      12.18628476      10.43284174
Ta       7.41549679      14.63376096      11.71137419
49
Properties=species:S:1:pos:R:3 config_type=qcd gap_pre_relax_energy=-505.4795885005645 gap_pred_energy=-507.5020002320369 gap_fmax_final=0.0008824846707609073 gap_converged=1 pbc="F F F"
Ta      15.18874590       8.30826700      10.61595121
Ta      12.47120913       9.27270351      10.62056762
Ta      13.76172531       8.77139521      13.05283910
Ta      16.56279466       9.08803080      12.57092369
Ta      10.78853607       8.95192195      13.23435856
Ta      10.02283060      10.61581543      11.11671047
Ta      14.17256380      10.04224901       8.63653212
Ta      16.88687045      10.45206728      10.17150170
Ta       8.05917752       9.57579448      13.11283453
Ta      11.15217031      10.42886305       8.13078103
Ta      15.04025087      10.69615739      14.40408791
Ta       9.20835026       9.40093754      15.52109814
Ta      14.72270725      11.08643402      11.31802783
Ta      12.00203225      10.17387106      15.48412588
Ta      12.24288567      12.13936601       9.66380695
Ta      17.22835799      11.64810146      12.97755909
Ta      12.42606929      11.34500731      12.77569233
Ta       9.31817157      12.60317297       9.36374405
Ta       9.92992650      11.67524313      14.00095683
Ta      13.11124891      11.87105750       6.88479771
Ta      16.87281040      12.82924379      15.46427528
Ta      15.12472701      12.62540363       8.84819232
Ta       7.42789203      11.38731578      14.82066836
Ta       9.93648049      11.82033121      16.72416033
Ta       7.83124909      12.08252681      11.93801444
Ta      10.93168967      13.11702500       7.24684305
Ta      10.54493008      13.54139947      11.84253008
Ta      14.71807165      13.21133942      13.54774315
Ta      12.37398337      11.76273679      18.07050837
Ta      13.29939678      14.46624233       8.05391026
Ta      12.38322196      13.01323588      15.56430586
Ta      16.50535114      13.48652304      11.19153257
Ta      14.64270310      12.20326819      16.63469309
Ta      12.50082676      15.23470348      13.77791598
Ta      13.50614492      14.11091100      11.02982871
Ta      10.97036034      14.05076993      17.95449182
Ta      10.14010352      14.59335200      15.19652671
Ta       8.21530641      14.67209144      10.88581053
Ta       8.06162928      13.94636110      13.65679613
Ta      15.66472754      15.37658587       9.48206866
Ta      11.01991214      14.92905287       9.48372247
Ta      17.16757381      14.57865630      13.72928014
Ta      13.61259173      14.20107510      18.05357751
Ta       9.63737287      15.92673209      12.66173576
Ta      14.78364440      14.96229429      15.54847664
Ta      12.26632410      15.82505062      16.52529243
Ta      13.59118479      16.68301099       9.70454145
Ta      11.93793307      16.50176504      11.54313107
Ta      15.13891314      15.81822027      12.26620992
50
Properties=species:S:1:pos:R:3 config_type=qcd gap_pre_relax_energy=-516.84861741433 gap_pred_energy=-519.4035258369154 gap_fmax_final=0.0009371310045192859 gap_converged=1 pbc="F F F"
Ta      17.30100041      12.06449107      11.65200909
Ta      15.25627378       7.48004951      13.54138016
Ta      16.14062909      12.97263159      14.05562285
Ta      16.20203118       9.26033428      11.40843841
Ta      15.94721711      10.21538453      13.76501348
Ta      16.55686239      11.09749713       9.39201819
Ta      14.85093830      13.41308521      16.30309630
Ta      14.40475654       7.05080910      11.23089986
Ta      15.73394456      14.72305883      12.04926388
Ta      15.85543956      13.73599225       9.56365878
Ta      13.84354154       8.91028300      15.31209136
Ta      12.19095335      11.32341498      17.04070813
Ta      15.13474329      15.61490350      14.86263726
Ta      12.52809489       7.23861951      13.27321337
Ta      14.63981097      11.86776846      11.65077779
Ta      14.25317775       9.43580396       9.57466631
Ta      13.35553890       9.50317698      12.43436600
Ta      13.68129742      11.60484368      14.65311529
Ta      14.30191649      16.26374092      10.02497590
Ta      14.07388304      11.95930797       8.47175580
Ta      12.53964968      14.42702324      16.27654299
Ta      12.02927565       7.98874759      10.24129621
Ta      13.39883864      14.11085791      13.48182250
Ta      14.44575570      17.04113139      12.73581100
Ta      11.30664413       9.77842757      14.77816923
Ta      13.06644984      13.83138318      10.45008829
Ta      11.75852477       9.93965922       7.78951670
Ta       9.44160426      10.99458527      16.77618868
Ta      13.86356025      14.82438882       7.85758667
Ta      11.81814321      10.96541158      10.12203404
Ta      10.41129059       9.13487466      12.12805280
Ta      10.83832040      12.70794698      15.12136403
Ta      12.42469180      16.69969395      14.60306157
Ta      10.17966262      13.34050018      17.71080118
Ta      11.57709410      15.80972525       9.13973192
Ta      11.64316951      13.11296949       8.00393721
Ta       9.71612625       9.10016729       9.26774925
Ta       8.88588618      10.98597157      13.99432746
Ta      11.41113758      11.87077020      12.59279394
Ta      11.96144718      16.48735422      11.77817293
Ta      10.60187456      14.83215764      13.49119729
Ta      10.23047252      13.61889879      10.41106931
Ta       9.91724963      15.66650941      16.03074259
Ta       9.54180440      11.52623787       8.35740736
Ta       8.29968211      13.42831499      15.59809185
Ta       9.83434267      17.46075097      13.73839069
Ta       8.95466937      11.17829894      10.99262943
Ta       8.49523121      13.46040955      12.71118130
Ta       9.18452736      16.06787197      11.43769334
Ta       7.91836824      15.82130877      14.07038497
51
Properties=species:S:1:pos:R:3 config_type=qcd gap_pre_relax_energy=-525.3785221952107 gap_pred_energy=-529.2861217794291 gap_fmax_final=0.0008694902321347675 gap_converged=1 pbc="F F F"
Ta       9.75704153      15.85471439      15.90488695
Ta      11.95383051      14.34928799      16.30367574
Ta      14.56011109      15.42178120      14.98434954
Ta      14.51803214      12.61253827      16.08293826
Ta      14.37636109      17.66290381      13.21697933
Ta      12.05916750      16.07600606      14.10073277
Ta       9.21433324      13.15828608      16.35095880
Ta      16.45849832      16.19963054      13.08363669
Ta       7.73363322      14.88271649      14.74116415
Ta      14.19616907      10.02015059      16.70642889
Ta      11.77404719      11.64355089      16.00656000
Ta       9.59778531      16.49774520      13.26713151
Ta      16.22207950      10.64398666      14.66108796
Ta      16.05148849      13.37419679      13.76432508
Ta      12.94693323      13.26923379      13.85037121
Ta      10.19237475      13.65903006      13.95624681
Ta      12.24252556      17.40326961      11.69386366
Ta      15.04271202      16.91566694      10.66494001
Ta      14.05097507      15.00337995      12.07610118
Ta      14.72931294       8.21151184      15.03406843
Ta       7.89318381      12.28207306      13.68455313
Ta       8.16661923      14.48845569      11.98376003
Ta       9.23352376      10.59400320      15.39127690
Ta      13.73922607      10.64578660      13.94356664
Ta      16.69408653      14.31435856      11.12596833
Ta       8.78760728      14.12625768       9.43725654
Ta      15.05898964      11.99140097      11.56259389
Ta      10.98167206      14.84373819      11.40311532
Ta      10.91809087      10.49688235      13.34926906
Ta      14.44149572      14.14577074       9.45338952
Ta      12.60913974      16.07445781       9.54504779
Ta      17.47242397      11.35044066      11.77684818
Ta       9.63809671      12.06749490      11.16301717
Ta      11.96130075       8.95963209      15.48282126
Ta      12.39109786      12.31867093      11.32956733
Ta      13.19178773       9.68380444      11.03631873
Ta       8.16933025       9.95124095      12.52750979
Ta      10.29458593       8.83246742      11.30012657
Ta      16.66033406      12.27382119       9.26788562
Ta      15.63565189       9.02487572      12.46211550
Ta       7.10005297      11.98591304      10.70425358
Ta      11.38104286      13.19040724       8.94846208
Ta      13.89601380      11.41919727       8.83484248
Ta       8.81459077      11.83320815       8.39484338
Ta      12.88751271       7.96614815      12.96739741
Ta      11.12685845      10.32245326       9.11150204
Ta      11.98200470       7.41433787       9.92305352
Ta      15.86849286       9.71545091       9.79251044
Ta       8.25416409       9.77052108       9.77166820
Ta      13.52481059       8.71141182       8.35982042
Ta      14.50652502       7.30345534      10.47291664
52
Properties=species:S:1:pos:R:3 config_type=qcd gap_pre_relax_energy=-536.0013745234386 gap_pred_energy=-539.9229318762812 gap_fmax_final=0.0009582813626507436 gap_converged=1 pbc="F F F"
Ta      18.09846780      14.52923370      11.86920808
Ta      17.36390002      11.76214439      12.35420141
Ta      16.61248879      13.72591129      14.28283846
Ta      17.20057843      13.17138900       9.49609778
Ta      17.01612230      11.11174166      15.17718469
Ta      15.98057553      16.05154167      13.00589998
Ta      16.68568380      15.87249175      10.21650133
Ta      14.65471418      15.48865042      15.99219125
Ta      16.65517946      10.10536189      10.26600313
Ta      16.30506769       9.30948698      13.24872383
Ta      15.55963281      13.55287649      11.41211001
Ta      14.69516188      12.73495308      16.32039435
Ta      14.63639164      11.83110047       8.90590171
Ta      13.26791522      14.54587629      18.27043539
Ta      14.75283608       9.98995232      16.01893511
Ta      14.59501977      14.58513114       8.87277742
Ta      13.79551889      14.27092235      13.59889048
Ta      12.96620515      16.68483648      14.21994180
Ta      14.67627052      11.58681764      13.76178027
Ta      15.12309936       7.82038054      11.23909025
Ta      12.20565435      16.56307950      16.97687136
Ta      13.91011447      16.01870318      11.16283401
Ta      14.39281282      10.55615652      11.31513590
Ta      13.59297882       8.83016155      13.57434188
Ta      12.66658792      11.95827304      17.89197044
Ta      14.26958025       8.94737409       9.09503786
Ta      12.14456632      10.60559628      15.36227968
Ta      12.05545636      13.89760649      15.82886267
Ta      11.94237640      10.70992711       9.54574864
Ta      10.08345583       9.13545116      16.23931770
Ta      12.82954353      13.28994673      10.84471530
Ta      10.56261301      14.41742514      17.82068367
Ta      11.17844879      15.66166679      12.05206160
Ta      11.60271628      15.39868714       9.27730483
Ta      10.79569099       8.61045533      13.64643117
Ta      10.32503516      15.91278650      15.06920622
Ta      11.89791026      13.02886107       8.13074685
Ta      12.34530917       8.44711433      11.08708337
Ta      10.81946290      13.27696409      13.36092217
Ta      10.15539268      11.71069176      17.10632252
Ta      11.66864746      10.89335550      12.40784711
Ta       9.34565384      10.84523792      14.37664887
Ta       9.99644574      13.17457609      10.50311100
Ta       9.00944934      13.49195974      15.39976080
Ta       9.60903720      11.30021091       8.24941324
Ta       9.05942354      15.96910184      10.02345013
Ta       8.59588629      15.03039336      12.59578256
Ta       9.10015430      13.96768277       8.15754464
Ta       9.35983632      10.22096998      11.08821977
Ta       8.01719935      12.43873201      12.41745233
Ta       7.61205614      11.79014576       9.63546820
Ta       7.23980723      14.20003916      10.25844915
53
Properties=species:S:1:pos:R:3 config_type=qcd gap_pre_relax_energy=-545.7263832023167 gap_pred_energy=-549.5671779866311 gap_fmax_final=0.0008078714649949398 gap_converged=1 pbc="F F F"
Ta       8.48806687      13.54647133      10.56463058
Ta       8.95380287       9.70996702      13.46225933
Ta      11.49687687      17.10564226      13.93038518
Ta      10.29121145       9.28373577      10.91190786
Ta      10.58003489      11.77326305      14.85072737
Ta      11.17217323      14.63202905      10.49681180
Ta      13.22565504      10.69243422      10.79643894
Ta      12.22979585      12.87011673      17.12629135
Ta      10.06931366       8.99175921      15.76331242
Ta       8.93840670      11.24661687       8.96246199
Ta       9.64901317      14.22465497       8.08384853
Ta      13.67910313      16.85011908      15.23634900
Ta      13.92639680      17.82023977      12.55772852
Ta      12.84974329       8.08161794      11.05483135
Ta      10.86301275       7.37036477      13.24415744
Ta      11.26484940      17.13987846      11.26865145
Ta      11.30589105      12.13963005       9.25670208
Ta      12.09516508      14.59654664      15.20220263
Ta      12.03139409       9.62729913      13.52487564
Ta      12.31054958      10.08903488      16.68581004
Ta      11.86632070       9.48860747       8.56004459
Ta      10.16088059      11.77872544      11.85232534
Ta      15.90968137      11.28141939       9.94812405
Ta      13.80810718       7.33632873      13.45468745
Ta       7.69953696      10.82800468      11.19268829
Ta      13.84318899      11.61175975       8.06677298
Ta       8.08964208      12.54502171      13.55855279
Ta      11.04059643      16.67314558       8.38502655
Ta       9.00244117      16.22077972       9.67351534
Ta      14.99452043       9.95469465      12.82249607
Ta      15.72215133      14.00169123       8.52766388
Ta      17.57316847      11.33512138      12.25812861
Ta      17.35280648      13.52985165      10.64171038
Ta      13.62523137      11.88549741      14.84197199
Ta      14.39363206       9.06045553       8.84305769
Ta       8.06979787      11.10028982      15.88643333
Ta      15.30591447      12.80187031      12.50731165
Ta      12.30520115       7.42847323      15.50167362
Ta      10.28383689      14.45038404      13.20656786
Ta      13.97376529      13.58877190      10.20919733
Ta      14.51290729       9.21949849      15.40086005
Ta       9.37871602      13.66380081      16.09539636
Ta      12.49137721      14.39380749       7.92343538
Ta       9.95127393      11.36685665      17.58490052
Ta      13.54275782      16.32642473       9.85820960
Ta      16.41678340      11.60818980      14.81124183
Ta      15.87229230      15.64189202      11.47822603
Ta      15.09038844      14.18870835      15.37927981
Ta      17.32012899      14.13669253      13.51923562
Ta      14.75024117      11.62094912      17.15465350
Ta      12.46726610      12.64462922      12.59445036
Ta      15.86690917      16.53824348      14.01540325
Ta      13.27909609      15.33900749      12.64738938
54
Properties=species:S:1:pos:R:3 config_type=qcd gap_pre_relax_energy=-557.3484275736051 gap_pred_energy=-560.8573649010042 gap_fmax_final=0.0009123746641206531 gap_converged=1 pbc="F F F"
Ta       8.25511978       9.33129713      15.33846092
Ta       8.69592506       9.86660414      12.60560483
Ta       9.53240395       7.45297368      13.84088249
Ta       8.94557325      12.02128453      14.47470635
Ta       8.66898529      12.70275532      11.43738005
Ta      10.32601837       7.95122613      16.32410438
Ta       9.66053321      10.75847748       9.78325340
Ta      10.08100268      10.58453844      17.01620721
Ta       9.08082484      13.43503660       8.55871040
Ta      10.87745619       9.93226285      14.42215720
Ta       8.18826027      14.66534148      13.46236298
Ta      11.05163205       8.62114311      11.67438679
Ta      11.21417689      11.37643394      12.08663122
Ta      12.27909731       7.66856527      14.27735968
Ta      12.45202740      10.51955455       9.63557823
Ta      11.35824081      12.77530362      16.02895922
Ta       9.35987321      15.32941911      10.92320908
Ta      10.94005802      11.50706408       7.51445073
Ta      12.78197816       9.49526000      16.48359307
Ta      14.13657828       8.40476342      10.04991616
Ta      11.38594535      13.26452509       9.74738145
Ta      10.00386511      15.08953890      15.50866392
Ta      11.22106327      13.86119840       6.89602993
Ta      12.98962175      11.56709332      17.83786736
Ta      10.36315373      16.66166927      13.29345011
Ta      13.53276138       9.62576970      12.50741497
Ta      10.73989328      13.75417468      13.04687806
Ta      10.69356674      15.94978886       8.74023196
Ta      14.90360374       8.94903991      14.75783334
Ta      12.28184582      15.47608311      11.26484962
Ta      11.05289063      17.83636627      10.89383975
Ta      13.40705115      11.73146235      14.66412540
Ta      12.14174742      15.56798112      17.11995889
Ta      11.80946157      17.45267999      15.56242143
Ta      12.78541929      14.98495534      14.31949609
Ta      15.31941886      11.24012143      16.35623440
Ta      16.16939358       8.76079388      11.85604881
Ta      13.79896715      13.00657563      12.21918610
Ta      13.05150150      15.34334937       8.21618030
Ta      14.79397378      10.03390167       7.89526688
Ta      15.08518004      11.13982899      10.48792114
Ta      13.98895327      13.80081225      16.79820781
Ta      16.00609823      11.09509111      13.34843352
Ta      13.67553352      12.56200265       7.91873574
Ta      12.98592588      17.65261694      13.08326721
Ta      16.79049758       9.16852480       9.18155242
Ta      13.72322761      17.20308374      10.16472081
Ta      14.42792637      16.52092799      15.45219005
Ta      14.93141613      15.72664980      12.46314924
Ta      15.50292187      13.71869399      14.50752576
Ta      16.64538612      13.22982292      11.65520168
Ta      14.72604167      14.21187030       9.89610922
Ta      17.82701243      10.76312182      10.98038290
Ta      16.71055278      12.00816315       8.77891295
55
Properties=species:S:1:pos:R:3 config_type=qcd gap_pre_relax_energy=-572.1712354393735 gap_pred_energy=-574.6875689624243 gap_fmax_final=0.0007346487598024214 gap_converged=1 pbc="F F F"
Ta       8.18383782      11.05726569      14.38688244
Ta      15.09739957      13.23657520      10.93189727
Ta      12.82226064       9.07652775      16.08321759
Ta      10.35898362      10.85400657       9.50396392
Ta      15.13632371      13.44764746      14.25461570
Ta      12.68757418      13.16725665       6.32089113
Ta      10.39984141      11.03563548      12.79503176
Ta       8.14726856      10.85898422      11.26537918
Ta      12.70752242      13.19141833       9.39656297
Ta      12.80207767      11.55637810      17.63750474
Ta      10.43605586      11.27189875      16.08268419
Ta      12.77313409      13.41756044      12.61592233
Ta      10.32968438      15.40501555       9.33661054
Ta       8.08945774      15.35852812      10.98921637
Ta      12.78299097      13.60063874      15.83866961
Ta      10.31425181      15.68598817      12.50063602
Ta      12.68765768      10.93597454       7.87086520
Ta      17.27542917      12.99281406       9.48589997
Ta      15.02662871      10.79799051       9.47025750
Ta      12.66873376      10.86474324      11.07862630
Ta      17.47313270      13.15039939      12.57783121
Ta      15.02354704      11.00543451      12.74278279
Ta      12.70841640      11.07990879      14.46585446
Ta       8.17054053      13.14515332       9.53335491
Ta      15.10329373      11.21368956      16.01428490
Ta      12.72659082      15.29106792       7.73761841
Ta       8.24412615      13.54415291      15.81473619
Ta      15.15635710      15.35119263       9.28334207
Ta      12.75519118      15.59668346      10.80840706
Ta      10.57629656      13.75654531      17.47469041
Ta      15.24031987      15.63739868      12.44600539
Ta      12.79413680      15.80787966      14.13313820
Ta      12.83484823      13.96582826      18.89230434
Ta      10.37612323       8.69037574      11.36894755
Ta      17.19802302      10.79724071      11.18359227
Ta      17.34785813      13.38556942      15.66861687
Ta      10.41288208       8.88968078      14.50653100
Ta      17.23411865      10.99296250      14.26462305
Ta      15.05211563      13.69966957      17.41847755
Ta      10.46302688      13.14236408       7.80590364
Ta      17.43035371      15.24110806      10.90167677
Ta       8.12581217      15.55567153      14.09283837
Ta      10.35250058      13.26409732      11.00377340
Ta       8.24836084       8.81217261      12.96147479
Ta      10.40391676      15.80755079      15.67355193
Ta      10.39100314      13.47287916      14.29057415
Ta       8.02022326      13.28291289      12.68015817
Ta      12.83764436      15.89327237      17.21774078
Ta      14.99265829       8.71936245      11.32137169
Ta      12.74777498       8.67267090       9.72550674
Ta      15.23059334      15.75375587      15.62055835
Ta      15.02922322       8.91761574      14.44232851
Ta      12.74115540       8.70270679      12.91579548
Ta      17.46637229      15.43643894      13.97653631
Ta      14.93901916      13.08640979       7.76440756
