3
Properties=species:S:1:pos:R:3 config_type=qcd gap_pre_relax_energy=-7.582978397225244 gap_pred_energy=-7.587192529900786 gap_fmax_final=0.00027892426162591446 gap_converged=1 pbc="F F F"
Te       7.68722296       6.44260186       8.70794751
Te       7.09338708       7.19324211       6.09695202
Te       7.95431891       9.09908498       7.93002942
4
Properties=species:S:1:pos:R:3 config_type=qcd gap_pre_relax_energy=-10.942778461649286 gap_pred_energy=-11.460157171891215 gap_fmax_final=0.0006936159399765374 gap_converged=1 pbc="F F F"
Te       8.81682341       6.35576191       8.69759618
Te       9.31843715       8.11967328       6.57020487
Te       6.74641333       9.20743263       6.86561500
Te       6.24495534       7.44376142       8.99321319
5
Properties=species:S:1:pos:R:3 config_type=qcd gap_pre_relax_energy=-14.556024860433764 gap_pred_energy=-14.889223410000524 gap_fmax_final=0.0008029499346371675 gap_converged=1 pbc="F F F"
Te      10.24691768       8.65413699      10.09877169
Te       9.71318360       6.54271476       8.41799221
Te       8.00116896       7.53567030       6.50767766
Te       8.06886186      10.33009717       9.94525104
Te       6.64211775       9.60963065       7.70255726
6
Properties=species:S:1:pos:R:3 config_type=qcd gap_pre_relax_energy=-17.76293495722711 gap_pred_energy=-17.869187648512927 gap_fmax_final=0.0007172418422690086 gap_converged=1 pbc="F F F"
Te       9.85572505       7.57189031       9.86002559
Te       8.38410748      11.61140792       8.91627835
Te      12.57786490      11.02144929      10.11598789
Te      10.41896999      12.70270086      10.41468266
Te       7.69692067       9.25329377      10.15872221
Te      11.89049761       8.66334355      11.35838901
6
Properties=species:S:1:pos:R:3 config_type=qcd gap_pre_relax_energy=-17.678229607539144 gap_pred_energy=-17.869187598068258 gap_fmax_final=0.0009239813624592384 gap_converged=1 pbc="F F F"
Te      10.52827942      10.06003067      12.88520473
Te       9.61928181       9.69283414       7.69279228
Te      12.47078954      10.41465571      10.96734063
Te      11.85916893       8.67290083       8.92557984
Te       8.79017379      11.81250656       9.24073706
Te       8.14413690      10.75890247      11.70017584
7
Properties=species:S:1:pos:R:3 config_type=qcd gap_pre_relax_energy=-20.747662872933716 gap_pred_energy=-20.84738539633898 gap_fmax_final=0.0008409029382405039 gap_converged=1 pbc="F F F"
Te      10.16407923      13.09479728       9.66965692
Te       8.60735630      12.56003027      11.87605801
Te      12.49471724      11.67110715      10.01263626
Te      12.39212214       9.58743184       8.21682613
Te      10.34280773       8.51571821      11.96195849
Te       7.96696224       9.88690603      11.73317267
Te      10.94088859       7.59294269       9.43862499
7
Properties=species:S:1:pos:R:3 config_type=qcd gap_pre_relax_energy=-20.68254072021844 gap_pred_energy=-20.847385371404272 gap_fmax_final=0.0008493271778796877 gap_converged=1 pbc="F F F"
Te       9.22276326      12.48554472       9.08904375
Te      11.78522062      12.28390662      10.07365913
Te       8.73021598      10.13409857       7.74551659
Te       9.33114271       9.54159326      12.48848095
Te      11.55846099      11.15651930      12.57464325
Te      10.73707363       8.39811652       8.47723112
Te      10.01298684       7.37808504      10.92928924
8
Properties=species:S:1:pos:R:3 config_type=qcd gap_pre_relax_energy=-23.8190602969865 gap_pred_energy=-23.825583459682612 gap_fmax_final=0.000848223276486496 gap_converged=1 pbc="F F F"
Te      13.32779045       8.95859511      11.01236341
Te      13.56772007      11.66039775      11.48182006
Te      12.06925941       8.71238225       8.57687058
Te      11.52227666      12.32455673      13.19967659
Te       9.44055097       8.11117783       9.12962852
Te       8.03081367      10.45048983       8.78825960
Te       9.54487126      13.43955212      11.64272986
Te       7.63733439      11.48346526      11.30926827
9
Properties=species:S:1:pos:R:3 config_type=qcd gap_pre_relax_energy=-26.771697945832656 gap_pred_energy=-26.803781255594103 gap_fmax_final=0.000875331636738303 gap_converged=1 pbc="F F F"
Te      11.11424785       8.29085060      10.82304886
Te       8.80496271      12.08605248       7.73027846
Te      12.33128675       9.66705214       8.77318729
Te      10.40326222      10.02849087       6.84208451
Te       7.23517761      11.02982740       9.72954165
Te      10.26306019       5.90529991       9.74541116
Te       6.63542508       7.21247665       7.62225389
Te       5.33446326       9.48327808       8.47540083
Te       7.51470954       5.93326707       9.89538857
9
Properties=species:S:1:pos:R:3 config_type=qcd gap_pre_relax_energy=-26.698193171817692 gap_pred_energy=-26.803781431247998 gap_fmax_final=0.0008419909633802952 gap_converged=1 pbc="F F F"
Te      10.39521738      14.15444258      12.42579003
Te      12.13929333       8.36622938      11.21222369
Te      13.95173254       9.98934958       9.92485393
Te      10.37514473       7.50507980       9.28275951
Te       7.96894530       8.71643062       9.84827976
Te      14.24185016      12.22170357      11.50890267
Te       8.39178939      10.24911847      12.09525100
Te      12.42783398      14.06757299      10.57153475
Te       8.25008743      12.87196727      11.27229890
10
Properties=species:S:1:pos:R:3 config_type=qcd gap_pre_relax_energy=-29.712020796603294 gap_pred_energy=-29.78197889409662 gap_fmax_final=0.0008752507714924774 gap_converged=1 pbc="F F F"
Te       8.45232782      10.52037170       6.68653311
Te      12.54493617      11.78355274       7.70174861
Te       9.99727957      12.72610055       7.25662952
Te       6.56630105      10.36876873       8.68570927
Te       6.84704055       7.87513118       9.81702174
Te      13.09622399      12.28727307      10.35103732
Te       7.58816976       8.29991018      12.43367104
Te      13.60770371       9.84161515      11.50619591
Te      10.16380507       7.35669328      12.66425298
Te      11.69666155       9.50103265      13.45764971
10
Properties=species:S:1:pos:R:3 config_type=qcd gap_pre_relax_energy=-29.686441603083633 gap_pred_energy=-29.78197919914751 gap_fmax_final=0.0008333577683350206 gap_converged=1 pbc="F F F"
Te      15.08614577      11.41154810      10.02838396
Te       7.72319120      11.41153415      12.78094815
Te      12.94942093       9.83722110      13.53979072
Te       9.85990133       9.83722496       9.26952724
Te      11.40466951      11.40466148      15.19328590
Te      11.40466965      11.40466707       7.61604576
Te       7.72319289      11.39779963      10.02838510
Te      15.08614409      11.39778433      12.78094611
Te       9.85990011      12.97210705      13.53980878
Te      12.94942276      12.97211037       9.26953652
11
Properties=species:S:1:pos:R:3 config_type=qcd gap_pre_relax_energy=-32.69052356149081 gap_pred_energy=-32.76017679431419 gap_fmax_final=0.0008596147908483873 gap_converged=1 pbc="F F F"
Te      11.50388375      11.50388042      15.41004007
Te      10.01895903      13.12850095      13.75706426
Te      12.98880345       9.87926657      13.75705311
Te      11.57976087      15.33838679      13.24999003
Te      11.42800484       7.66937710      13.24998482
Te      13.57734519      14.49329410      11.55527698
Te       9.43041886       8.51446269      11.55527016
Te      12.51928567      14.58547283       9.01582506
Te      10.48848295       8.42229582       9.01581973
Te      12.76971851      12.04418046       7.98819070
Te      10.23804597      10.96359140       7.98819422
11
Properties=species:S:1:pos:R:3 config_type=qcd gap_pre_relax_energy=-32.6481604627665 gap_pred_energy=-32.760176945625005 gap_fmax_final=0.0009656605424121905 gap_converged=1 pbc="F F F"
Te       6.77981818       9.90898058       9.73649487
Te       6.22581543       9.96054469      12.43232299
Te       7.75119230       7.38955969       9.20196766
Te      12.01351444      12.44143593      11.66046608
Te       8.15394861      11.55415973      13.58087974
Te      10.43426248       7.45689022       9.81296310
Te      11.09878040      12.55441271       9.06669796
Te      11.77078605       7.03360063       7.44413295
Te      10.57664530      10.44309211      12.89294830
Te      11.61456062       9.39765443       6.04273311
Te      12.98456023      11.26355330       7.53227724
12
Properties=species:S:1:pos:R:3 config_type=qcd gap_pre_relax_energy=-35.72631527664633 gap_pred_energy=-35.73837525165571 gap_fmax_final=0.0008617732169579728 gap_converged=1 pbc="F F F"
Te      14.38026434      15.99163623      12.18062179
Te      16.58066478      12.17942557      12.17942762
Te      14.38025905       8.36722348      12.17821338
Te       9.97859013       8.36721825      12.17823327
Te       7.77819032      12.17942813      12.17942606
Te       9.97859580      15.99163130      12.18064063
Te       9.43143462      13.76583006      13.70495057
Te      14.92742389      13.76584058      13.70494317
Te      12.17942869       9.00460868      13.70350611
Te      14.92742050      10.59302422      10.65390454
Te      12.17942565      15.35424653      10.65534889
Te       9.43143018      10.59301489      10.65391192
12
Properties=species:S:1:pos:R:3 config_type=qcd gap_pre_relax_energy=-35.46202241679087 gap_pred_energy=-35.912349002192954 gap_fmax_final=0.0005200067172883535 gap_converged=1 pbc="F F F"
Te      11.12871376      12.85965648      11.12264261
Te       8.77087731      11.58452326       7.62979045
Te      12.19689009       7.14520673       7.43062057
Te       9.92482554       8.62044787      10.91619861
Te       8.09038623       6.35380638       8.82464836
Te      12.20474415       7.22021265      10.17534258
Te       9.55624682       7.14892705       6.63760319
Te      10.83634819      10.59683728      12.64603711
Te       5.91430414       8.03667913       8.99373171
Te       6.53140285       9.83275091      10.99081949
Te      11.34317052      12.00681533       8.51105953
Te       7.12297773      12.21502425       9.74239311
13
Properties=species:S:1:pos:R:3 config_type=qcd gap_pre_relax_energy=-38.58887223516674 gap_pred_energy=-38.71657265048477 gap_fmax_final=0.0008786818901062918 gap_converged=1 pbc="F F F"
Te      14.83103992      10.66704622       8.27556189
Te      15.47874444       9.19694064      10.51071696
Te      12.20065227      10.08470597       7.71113392
Te      16.43164868      10.99711978      12.36215164
Te      10.72315764      11.11729536       9.79138868
Te      13.46760794      11.36771678      15.59509275
Te      11.04646196      10.14685083      15.12162802
Te      14.25593205      12.46271963      13.19588159
Te      10.16192535      13.72513357       9.11244205
Te      10.82271160      15.24805419      11.30803597
Te       9.11571554      12.00412155      15.75350991
Te       7.90273223      12.68688407      13.37879458
Te       8.57831825      15.31205929      12.90030991
13
Properties=species:S:1:pos:R:3 config_type=qcd gap_pre_relax_energy=-38.624839366211766 gap_pred_energy=-38.7165730413931 gap_fmax_final=0.0007169047300358323 gap_converged=1 pbc="F F F"
Te       8.60284017      10.96508505      10.56504041
Te       9.80372264       9.52271389      12.57844616
Te       8.89368813      15.27333542      11.41917194
Te      11.49540923       7.73923275      11.33977059
Te      10.17986697      13.18596821      10.16802079
Te      10.23269744      15.69018896      13.78765219
Te      12.27671873      17.44263325      13.21510476
Te      13.79851622       9.13528344      10.77106983
Te      14.90675411      10.95344532      14.62308643
Te      15.44125133       8.82766069      12.95816951
Te      14.50513632      16.46841939      14.50429676
Te      15.77273756      14.81810225      12.70249783
Te      16.90618281      12.79345302      14.18319446
14
Properties=species:S:1:pos:R:3 config_type=qcd gap_pre_relax_energy=-41.50393539896305 gap_pred_energy=-41.694770560121526 gap_fmax_final=0.0009171511900206262 gap_converged=1 pbc="F F F"
Te      14.33697813      12.75536976       9.58100557
Te      11.66052982      12.98782419       8.98149337
Te      12.45888234      17.39034492      12.56259995
Te      12.22877025       8.62412814       9.07222334
Te      10.48715192      10.63196046       9.78774486
Te      14.94665227      16.29850520      12.12042494
Te      14.60984767      13.56767560      12.19688439
Te      14.00814292       9.26482538      13.04699666
Te      12.95525702      15.02515457      16.24147773
Te      12.13513357      17.47636280      15.29470758
Te      12.92016952       7.34042851      11.40705308
Te      10.64565143      11.77741070      14.37286496
Te      12.20898360       9.63108760      15.09799433
Te      10.67564383      13.50671645      16.51432353
14
Properties=species:S:1:pos:R:3 config_type=qcd gap_pre_relax_energy=-41.68518537592837 gap_pred_energy=-42.04101340135736 gap_fmax_final=0.0008648796052459589 gap_converged=1 pbc="F F F"
Te      12.55049553      12.98075563      11.92561438
Te       9.94457164      14.21928977       9.86762100
Te      11.49002577      13.57792544       7.67294016
Te      14.45949001      12.47653532      13.88229762
Te      12.90140669      10.94052068      10.09499312
Te      13.07057142      11.65253372      16.10062456
Te      10.63610349      11.05082858       6.98517793
Te      13.63700841       8.97486828      16.41246560
Te       7.41891297      14.64634662       8.76990554
Te       8.68285942      10.48673654       8.85126549
Te       6.57014390      12.13491134       8.08547000
Te      11.70164009       7.61377483      15.00161675
Te      11.17361757       8.90811487      10.81708425
Te      12.69824181       7.27194714      12.46801234
15
Properties=species:S:1:pos:R:3 config_type=qcd gap_pre_relax_energy=-44.815401921610466 gap_pred_energy=-44.96672738920629 gap_fmax_final=0.0002526515719215787 gap_converged=1 pbc="F F F"
Te      16.64349054      15.73233039      11.86895165
Te      12.66947057      13.98441513      12.44839821
Te      16.13808751      11.45087969      11.51031875
Te      18.54288863      14.56918755      13.48353432
Te      14.35542223      15.97880002      13.40846015
Te      13.87525625      11.60323948      13.07746911
Te      18.26716097      11.83808642      13.20566945
Te      15.72296177      18.78329181      15.17365580
Te      11.79973021      16.93062479      15.84886292
Te      13.47522971      18.90584041      16.77037495
Te      16.70972487      14.70195059      16.51339188
Te      17.59227724      17.32170030      16.56101951
Te      12.84327798      13.34274083      18.17182428
Te      11.08748652      15.45821982      18.08250566
Te      15.27753502      14.39869278      18.87556338
15
Properties=species:S:1:pos:R:3 config_type=qcd gap_pre_relax_energy=-44.784276749354696 gap_pred_energy=-45.07810797905572 gap_fmax_final=0.0008050454146787321 gap_converged=1 pbc="F F F"
Te      14.64358755      10.59249824      10.16771165
Te      16.27874821      12.34397237       8.81029163
Te      15.52599688      17.11160632      17.02406195
Te      13.10431278      12.12901009      11.86120435
Te      18.16941950      13.18487608      10.61502167
Te      17.27286931      17.60123983      14.91315837
Te      14.43419133      13.96098737      15.65220313
Te      16.79518844      13.69412380      12.97184534
Te      13.91861813      11.51408578      14.40445208
Te      15.78741473      19.32981594      18.67482821
Te      18.55334362      15.22414148      14.46087977
Te      13.24390602      20.27315279      19.09491760
Te      12.41372459      14.09632979      17.56825916
Te      13.25658747      15.87210469      19.47814527
Te      11.60209147      18.07205544      19.30301981
15
Properties=species:S:1:pos:R:3 config_type=qcd gap_pre_relax_energy=-44.77078865571466 gap_pred_energy=-45.05556050721507 gap_fmax_final=0.0006650909087668063 gap_converged=1 pbc="F F F"
Te       8.85535746      13.03844422       6.44219149
Te      10.77679995      11.09761225       6.90298763
Te       6.61151499      12.23552952       7.81224524
Te       9.49336625       9.08232359       9.61096319
Te      11.48025946       7.58177536       8.37133521
Te      12.69404839      12.29597620       8.45727475
Te      13.71208232       7.94899760       9.92670990
Te      12.40887385      11.19182996      10.99476764
Te       6.75072150      13.43914464      10.27625874
Te      10.61093185      12.86583635      12.26472369
Te       8.14721281      11.67531974      11.90651689
Te      13.07787565       6.95893179      12.42654129
Te       8.73666630       7.51537460      11.77359427
Te      12.23090290       9.11487416      13.89848188
Te       9.44776131       8.99240503      13.96978319
16
Properties=species:S:1:pos:R:3 config_type=qcd gap_pre_relax_energy=-47.721465174099094 gap_pred_energy=-47.99036150385599 gap_fmax_final=0.0007636631867819216 gap_converged=1 pbc="F F F"
Te       6.86671917      13.31670143      11.96799238
Te       7.95547158      10.38247980       9.03560983
Te       8.77300700      14.71088948      10.56341076
Te      10.98206916      14.76799438      12.22740027
Te      10.15229175      12.15511084       8.35165835
Te       7.63769802      10.64848772      11.72597434
Te       9.08439251       7.39361644      11.92000955
Te      10.36366719       7.91165125       9.46472899
Te      11.59393788      10.20250657       7.12548682
Te      10.75924424      12.57256597      13.86730697
Te      10.91658822       8.21785359      13.75664438
Te      12.86649548      12.65723466      10.01308705
Te      14.19380825      10.74143629       8.59171508
Te      12.84212125       6.67887345       9.77462917
Te      12.06543787      10.49941184      12.57249863
Te      14.48527682       8.68141270      10.58007383
16
Properties=species:S:1:pos:R:3 config_type=qcd gap_pre_relax_energy=-47.05686957978095 gap_pred_energy=-47.76322231158828 gap_fmax_final=0.0009750487559299348 gap_converged=1 pbc="F F F"
Te      10.35028826      10.73105910       7.43488273
Te       8.86133325       8.48801459       7.04814234
Te       6.37420635       9.10771360       8.17091342
Te      12.08553673      10.07213113       9.58663024
Te      13.93779941      14.10309648       9.35996479
Te       6.82127208      11.89701483       8.28332768
Te      14.42469723      11.41717484       8.99402360
Te       8.46714429       5.96180697      11.14615505
Te      10.83325627       7.25026907      11.73737641
Te       6.75699613       8.15470736      11.08225074
Te      13.17388438      14.42418467      11.98179901
Te      11.21305014      12.50787973      12.38204528
Te       8.88086812      10.00609361      11.63965616
Te       7.72207641      12.41861822      10.79837314
Te      13.61453559       8.84845935      12.35507104
Te      12.48674448      10.61546554      14.00307744
17
Properties=species:S:1:pos:R:3 config_type=qcd gap_pre_relax_energy=-50.45164130155973 gap_pred_energy=-50.87674800930989 gap_fmax_final=0.0009058204744556177 gap_converged=1 pbc="F F F"
Te      14.01676546       7.75544467       8.17659403
Te      12.06338855       5.83290752       7.93936881
Te      13.93318175      14.35885899       9.62994352
Te      14.23987881      11.79147321      10.46826427
Te      14.21266818       8.32951542      10.86590665
Te       9.65741278       7.17373473       7.90274227
Te      11.15361482      11.58948801      11.02339172
Te      11.23583344      14.39490711       8.95395799
Te       9.97861426      16.06445848      10.73496616
Te      11.64087980       8.85846297      11.72751179
Te       7.28305074       9.34964133      10.90901057
Te       8.64884993       6.99670310      10.45475225
Te      12.50679994      12.35888901      13.41867614
Te       8.25561140      14.47078937      12.19011717
Te       8.82230642      10.74412423      12.69301518
Te      10.50530099      12.43081672      15.32055506
Te       9.06336970      14.71731210      14.80875337
17
Properties=species:S:1:pos:R:3 config_type=qcd gap_pre_relax_energy=-50.48470731324886 gap_pred_energy=-51.06979214278721 gap_fmax_final=0.0005423051518054878 gap_converged=1 pbc="F F F"
Te      14.14996918      12.24915342      10.96219745
Te      11.48246184      12.83538529      10.51728099
Te      14.55365573       9.78731894       9.87830345
Te      11.41226675      13.83805075       7.93172681
Te      11.85419977      10.04662262       7.49845326
Te      12.70271274       8.08575801      11.24259907
Te      10.54019290      10.96085098      13.35147729
Te      11.27939117       7.70171609       8.92845843
Te      10.20219406       8.75104293      14.98432135
Te       8.73172011      14.14064557       7.42574486
Te      10.34500375       6.60597714      13.25847423
Te       8.35004707       9.16103910      10.16640269
Te       6.56312650      10.85972032      11.46638373
Te       9.64337308      10.26634615       5.86076678
Te       8.06757615      12.19914712      13.32571807
Te       7.77494273      11.53448586       7.42938623
Te       8.15768356       6.78725677      11.58282236
18
Properties=species:S:1:pos:R:3 config_type=qcd gap_pre_relax_energy=-53.53969163600821 gap_pred_energy=-54.14388119799512 gap_fmax_final=0.0002968950422653384 gap_converged=1 pbc="F F F"
Te       6.29718658       9.25062200       8.21565221
Te       7.08519247      11.55737621      11.88523462
Te       9.32312604      11.69278971      13.49780345
Te       7.92097440       6.28647952      11.03575539
Te      10.82877037      12.99761178      10.42978636
Te      10.01371304       7.50563739      14.67149797
Te       8.78769666       9.81478472      15.48491303
Te       7.64206133       6.86660659       8.35742024
Te       8.04260505      11.13059570       9.31229967
Te      10.18442433       7.61528377      11.89523639
Te      12.37718187      11.02750390      11.71519856
Te      10.87222849       9.18830514       5.87915892
Te       8.89365965      11.09941188       5.88845266
Te      10.09448306      13.57876368       6.09124622
Te      11.02123184       8.18672340       8.46296606
Te      12.06977009      13.38062475       7.98866828
Te      13.77378960       8.06652479       8.86233294
Te      14.46906277      10.45151268      10.02353465
18
Properties=species:S:1:pos:R:3 config_type=qcd gap_pre_relax_energy=-53.364866218996646 gap_pred_energy=-53.607561565092716 gap_fmax_final=0.0009651277331998231 gap_converged=1 pbc="F F F"
Te      16.92933590      12.58821016      10.34711257
Te      12.92957135      14.42337770      15.95126638
Te      14.62014679      16.38986734      15.02838331
Te      15.66361506      14.90895832       9.57970736
Te      16.69783546      10.85011184       8.22519972
Te       8.62143804      15.26956629      15.64209459
Te      11.13704340       8.29000538      12.98590372
Te      14.63895473       9.13654360       8.85891561
Te      13.33557489      15.03318708      11.04328299
Te      10.84749685      15.72458061      17.19580488
Te      13.55468193      17.26125503      12.64463378
Te      12.63353755       9.64379102       7.04284176
Te       8.86040589       7.60063978      11.60080238
Te      10.91775257      10.97929132      13.53058494
Te       7.83443921      12.68497646      16.16856758
Te      10.13105692      11.16763548      16.16153620
Te      10.63496016       7.82885798       7.57995569
Te       8.88791150       9.09490283       9.28916476
19
Properties=species:S:1:pos:R:3 config_type=qcd gap_pre_relax_energy=-56.37187356451524 gap_pred_energy=-56.58576072703751 gap_fmax_final=0.0006492955583129632 gap_converged=1 pbc="F F F"
Te      14.65441509      13.12593477       8.43722011
Te      10.16606774      10.53893908       9.87487605
Te      15.82320255      10.98061868       7.16899448
Te      13.18194140       7.68621762       8.41197806
Te      16.70443455      14.84701789       9.07915546
Te      11.02262694      12.53940605      11.56049699
Te       8.83716577      13.25543593      13.07295098
Te      11.58690397       8.28721515      10.57333155
Te      14.81552679      16.53684137      13.96761151
Te      15.34671993      13.95634779      13.17033621
Te      17.58582106      14.09227612      11.57522697
Te       8.71358229      11.44767288      15.14508272
Te      15.62222898       8.85815896       8.91015586
Te      16.07121896      16.86315868      16.39527065
Te      10.45317782      16.52522201      17.78607647
Te      10.65325381      12.20939594      16.94336481
Te       9.48103467      14.07859025      18.58937052
Te      14.66841108      15.32557438      18.19663110
Te      12.73357131      16.96728113      19.26317420
19
Properties=species:S:1:pos:R:3 config_type=qcd gap_pre_relax_energy=-56.58559321302006 gap_pred_energy=-57.19625488467638 gap_fmax_final=0.0003902428767181015 gap_converged=1 pbc="F F F"
Te      11.08969564       8.74620937      13.78440463
Te      14.55767402       8.87713140      13.18115575
Te      17.12849721       8.73122436      12.13116869
Te      11.19448377      11.37024500      14.72287412
Te      10.45394050       8.95351484      11.08176398
Te       8.57242600      12.36799583      14.57225046
Te       8.32481113      13.38618334      12.03259168
Te      14.63475163      10.99656798      14.96194921
Te      12.62605700       8.07390517       9.64105844
Te      11.51191453      12.16427661      11.46297762
Te      16.83089604       9.23755962       9.45943871
Te      14.25312322      10.25509142       9.16919333
Te       5.71134321      14.35048666      11.84278884
Te      12.96038533      14.31948833      12.53615819
Te      11.45703078      12.37122094       8.63009659
Te       5.06975061      14.06372962       9.19423479
Te      15.28995336      13.25056662      13.49238026
Te       9.34050916      14.05587288       8.08125713
Te       7.07012646      12.50609964       8.09962721
20
Properties=species:S:1:pos:R:3 config_type=qcd gap_pre_relax_energy=-59.822138057612904 gap_pred_energy=-60.10054573161216 gap_fmax_final=0.0007266263598904221 gap_converged=1 pbc="F F F"
Te       8.47744730      14.37201978       8.17960651
Te      12.83833604      14.00106490       8.89629504
Te      10.49024688      10.46274375       8.10164726
Te      14.88493627      14.91229215      10.49182818
Te       8.14819436      11.71318678       8.81611501
Te      12.20461980      10.76794595      10.24422145
Te      10.53978058      15.28960335       9.75212921
Te      14.68535146       7.53236847      11.96174578
Te       9.94555786      15.27986702      13.91242738
Te      12.08724684       8.32500650      11.58913886
Te      14.79565116      13.49300455      12.87338486
Te       9.96268209      12.98218529      12.37414124
Te      12.23210322      10.05713924      14.70860798
Te      15.70147322       9.24969572      13.87062859
Te       9.65850023      10.92214355      14.20864411
Te      16.61610336      11.43841668      12.47508129
Te      12.57945291      16.09799178      14.07739678
Te      13.36619155      15.56350534      16.65954583
Te      12.90616520      11.22391073      17.13752726
Te      14.74331692      13.17926574      16.53324462
20
Properties=species:S:1:pos:R:3 config_type=qcd gap_pre_relax_energy=-59.821146017101285 gap_pred_energy=-60.27819218288852 gap_fmax_final=0.0009422028718932716 gap_converged=1 pbc="F F F"
Te       7.94026002      10.22254528       6.68724097
Te      13.75058983      10.17049618       7.99590479
Te      10.09821606      11.55981816       7.77244237
Te       8.25799571       7.66142232       7.65524540
Te      10.83269293       7.00469154       6.92656367
Te      13.04329300      12.35038011       9.58161545
Te      12.41181663       7.95626611       8.98910126
Te       9.23024147      12.10512426      10.37388065
Te      11.97778386      15.35045624      11.29750287
Te       9.38878947      14.86491753      10.51180276
Te       9.42687654       8.54833544      11.03417492
Te      15.21004731      12.72721985      11.29557440
Te       7.00352830      11.57458110      13.12277239
Te      12.07097086      14.61725390      13.95447397
Te       7.03593576       8.92048800      12.36087751
Te      11.34809283      11.93741689      14.01278824
Te      14.79652781      11.01165953      13.37739897
Te      13.74804691       8.67226605      12.25373723
Te      11.23157525       8.47954497      13.26320138
Te       8.81995996      11.88835706      15.15694138
21
Properties=species:S:1:pos:R:3 config_type=qcd gap_pre_relax_energy=-62.40101849479843 gap_pred_energy=-63.062690994597325 gap_fmax_final=0.0009090483965615889 gap_converged=1 pbc="F F F"
Te       5.00936637       8.59631363       9.32660523
Te       6.19133380      11.02809019      10.49311505
Te       6.78137679       9.10542671      12.44708142
Te       7.98300685      13.12327214      11.93486178
Te       8.68986934      10.78696406       7.88697417
Te       7.13550470       7.58265002       8.00769929
Te       8.10343706      14.99494360      10.00425341
Te       8.20362677      10.44104941      14.41358641
Te      10.84893097       9.89217806       6.49239722
Te       9.23042086      13.74432647       7.72678369
Te       8.39301726       5.86279246       9.80908017
Te       9.85119892       7.47983908      11.50499630
Te      10.82707234      10.19072311      13.68438619
Te      13.00036248      11.36110098       7.44093911
Te      11.92860352      13.63301692       8.55548900
Te      11.27362785      12.03393407      11.61922427
Te      13.17364175       6.61960192       8.72723610
Te      14.85854192       9.43215088      11.43109138
Te      12.42905127       6.43739696      11.36563225
Te      14.06820223      12.04963970      11.37624748
Te      15.05061065       8.63539331       8.78312377
21
Properties=species:S:1:pos:R:3 config_type=qcd gap_pre_relax_energy=-62.37645581397633 gap_pred_energy=-63.138911160265344 gap_fmax_final=0.0009435454959187044 gap_converged=1 pbc="F F F"
Te      10.37928987       9.82323752       6.33673932
Te       8.63642530      11.10012587      10.19515160
Te      11.51132927       8.01309520      11.98858986
Te      10.70493464       8.17276426      15.52177181
Te       7.86171727       9.12438701      14.00364559
Te      12.52970048       8.04093977       9.47044780
Te      11.13776501      12.04410516       4.91070970
Te       8.71984584      14.55203096       9.30336007
Te       8.00779493      10.49310618       7.61649077
Te      14.72570978       8.56224545      13.80160819
Te      11.38431262      13.86367625      12.68163433
Te      10.92052540      10.91133185      15.83576641
Te       9.55067998      11.93614816      13.66391445
Te      12.80479390      10.73494460       8.83130656
Te       8.60810930       8.40900821      11.55004105
Te      13.43325775       7.57594588      15.97837038
Te       9.74199158      15.76210359      11.57318844
Te      13.50061582      11.03281221      13.18904354
Te      12.22718945      13.75892194       6.77436867
Te      10.25197992      15.62123594       7.25448967
Te      14.58317243      11.68897448      10.74050228
22
Properties=species:S:1:pos:R:3 config_type=qcd gap_pre_relax_energy=-65.59918909799389 gap_pred_energy=-66.1122969302751 gap_fmax_final=0.0009872742868426464 gap_converged=1 pbc="F F F"
Te      11.42393683      10.61353215       6.37324511
Te      13.89729477      11.23347187       7.32162782
Te      10.13277460       9.28277637       8.63920281
Te      13.53988822      13.47164829       8.87813614
Te       9.22172678      16.68163384      12.40976996
Te      11.89902009      17.24220330      12.49890557
Te       9.79830492      12.10275050       8.79746290
Te      11.98378964      12.61837781      11.03366410
Te      14.00203636      12.95803833      13.01606770
Te      12.94811022      15.45183910      14.40846181
Te       8.94233277      14.94662813      10.27003288
Te      15.48813906      10.27004889      11.76317150
Te       8.63014927      12.34182824      11.40831853
Te      10.48866115      14.37711269      15.15357247
Te       8.47421354       9.20214585      11.24901018
Te      13.35998708       9.10404252      10.18409131
Te      14.66934087      10.87706962      16.01091153
Te      10.63678644      11.72068574      14.40539437
Te      15.38015862       8.95265964      14.15115144
Te      10.20491475       8.35842503      13.15729946
Te      12.00830023      10.51317044      16.52169877
Te      12.36832584       7.17810370      11.84699570
22
Properties=species:S:1:pos:R:3 config_type=qcd gap_pre_relax_energy=-65.30475929301078 gap_pred_energy=-66.0480977349663 gap_fmax_final=0.0006363409619861112 gap_converged=1 pbc="F F F"
Te      15.43995012      14.89410549      10.91551191
Te      14.12205430      16.52324050       6.82374994
Te      12.99366552      17.69520558      13.27797384
Te      14.50784534      15.43051463      13.64011335
Te      13.11642726      17.86784768       9.00402700
Te      12.80645797      13.31542281      11.59018029
Te       9.88322641      15.59884210      10.95992680
Te      10.35913806      16.89225751      13.34191083
Te      10.39674473      17.45699952       8.98222580
Te       9.25598313      11.28823145      13.48066330
Te      15.05406546      14.10790337       7.77986791
Te      10.47338116      11.75639400      11.06569851
Te      12.79018996      12.82097347       8.80190376
Te      16.71870629      12.55004666      11.68101253
Te       8.24341447       7.25402867      14.68655599
Te       9.13200411       4.92100580      15.82222214
Te      13.50026641      10.87049985      14.25369326
Te      10.42773797       8.95944605      14.41151870
Te      15.93981901      12.24363048      14.28882419
Te      13.13504796       6.60879869      15.31635780
Te      11.43973196       5.53037864      17.19496462
Te      13.90050526       9.05058990      16.31746036
23
Properties=species:S:1:pos:R:3 config_type=qcd gap_pre_relax_energy=-67.92581921107643 gap_pred_energy=-69.06043669004742 gap_fmax_final=0.0007558792627729564 gap_converged=1 pbc="F F F"
Te      20.70216156      16.22134782      14.82262765
Te      21.01683978      14.95978134      12.36292727
Te      18.40990047      13.93018433      16.47739002
Te      20.67306631      12.29031749      12.80110481
Te      16.60313801      14.08124004      12.83784177
Te      18.46600258      17.74359088      14.56398639
Te      16.31346055      15.91060845      14.99578744
Te      15.27942419      10.97228593      15.81781805
Te      16.55804758      12.46259529      17.79650055
Te      14.14431908      17.61579002      13.99786978
Te      18.08298231      11.99256827      13.85429830
Te      12.88974109      10.18136923      16.96263462
Te      12.52244827      15.94271405      12.59143490
Te       9.20519160      18.74639594      13.36742712
Te      11.00059366      11.91534434      15.95617214
Te      10.67555235      17.61148076      11.34729935
Te      12.60201191      11.52061186      11.33577553
Te      10.69556331      13.41743303      10.86342741
Te       8.51646206      12.86263237      12.60921424
Te      11.29796394       9.32722795      12.37372910
Te       7.43502362      16.81653780      14.20747276
Te       8.95436061      14.57175076      14.77011393
Te       9.46867831      10.34164479      14.17890850
23
Properties=species:S:1:pos:R:3 config_type=qcd gap_pre_relax_energy=-68.36638074098431 gap_pred_energy=-69.09206670602504 gap_fmax_final=0.0008555619886388625 gap_converged=1 pbc="F F F"
Te      13.70742004      16.36275599       8.50155449
Te      11.77386175      14.70376212       7.45636543
Te       9.61078234      14.83147213       9.12788177
Te      13.68221344      15.83372562      11.21578921
Te      13.65249125       8.46386145       9.12928355
Te       9.09840500      11.45681573       8.21977444
Te      15.68623458      12.01066813      11.02731411
Te      13.23355289      10.90787264      10.37592492
Te      11.74684301       8.22677962       7.18548347
Te      11.15743037      16.69273715      11.96588695
Te       9.80240374      12.54993372      10.88305211
Te       9.25384922       8.72878137       8.38048027
Te      11.29075123       7.77347833      12.52267580
Te       9.17242217       9.39841118      11.64320393
Te      10.00068708      14.48195926      13.10613653
Te      13.09714413       9.54620373      13.42051976
Te      15.66217850      12.15651455      13.77915859
Te       9.55390161      11.10192257      13.89912731
Te      14.06213185      14.29747021      14.42530457
Te      11.90220083      13.16244510      15.83802211
Te       9.62764568       9.19655166      15.92595939
Te      12.30335418       8.90462721      16.56715745
Te      13.08139118      11.37054663      17.56323991
24
Properties=species:S:1:pos:R:3 config_type=qcd gap_pre_relax_energy=-70.95014279974814 gap_pred_energy=-71.8362191323865 gap_fmax_final=0.0009824572192709325 gap_converged=1 pbc="F F F"
Te       9.77479427      10.87966179      18.16076585
Te       9.30873481      12.60568775      16.07446031
Te      11.94849533       9.35328116      17.41755264
Te      10.91074428      14.81035949      16.53339153
Te      11.48866817       8.58330190      14.82888014
Te      13.16060820      13.91421638      17.81559449
Te      12.60582456      14.60662334      13.45683377
Te      15.04764273      13.46146311      15.80767579
Te      13.04567947      10.26622213      13.23753856
Te      17.28759745      11.77541554      13.61596590
Te      16.30481636      15.91368317      15.55805178
Te      11.24055728      11.85778531      11.95045202
Te       9.83722112       9.90791712      10.18732702
Te      15.58239097      11.98083148      11.44596151
Te      19.26355644      13.66305343      13.25779297
Te      11.65579412       9.61704689       8.05712978
Te      18.99769076      15.40703846      15.36804654
Te      10.35561819      15.63753351      12.15682635
Te      14.60600874      14.53968585      11.46893628
Te      12.52086393      14.13326346       8.62345033
Te      10.03116180      11.24308483       6.30239727
Te       8.21192135      11.50435980       8.55337004
Te      11.20685809      16.34616828       9.65704862
Te      11.31404497      13.69960916       6.17184389
24
Properties=species:S:1:pos:R:3 config_type=qcd gap_pre_relax_energy=-71.50764107899633 gap_pred_energy=-72.30087542040062 gap_fmax_final=0.0009849378483673776 gap_converged=1 pbc="F F F"
Te      15.17339525      17.40401628       9.39881915
Te      12.24592538      13.27648985      18.80726037
Te      13.24214040      13.98329948      15.43468498
Te      15.72750388      14.71154233       9.61274411
Te      10.52281691      13.79990467      14.94650456
Te      14.41453718      14.16977094      12.90932167
Te       9.54972040      12.95902341      19.41698953
Te       8.36310839      12.02448235      17.12674651
Te      15.48868285      13.79830223       7.00179612
Te      12.55412488      17.53702132       8.57771714
Te      13.15265043      10.70686626      18.52254595
Te      12.11259269       9.83568789      16.09829336
Te      11.23183753      15.71003274      10.18820547
Te       9.40421946       9.53238158      16.55729470
Te      15.32601713       9.18423529       8.72509859
Te      10.38558184      13.08305848      12.19883567
Te      11.51357051       8.85296189      12.72798801
Te      16.12603241      10.55565088      10.95459538
Te      11.40113167       7.90969240      10.11007377
Te      13.74475743      11.73275201      11.76113862
Te      11.60494810      13.19990741       8.97569257
Te      12.79665209      13.72964497       6.50876003
Te      12.61188496       9.82673422       8.53719764
Te       9.37402890      10.54440179      12.96955680
25
Properties=species:S:1:pos:R:3 config_type=qcd gap_pre_relax_energy=-74.7597647871951 gap_pred_energy=-75.30498215954528 gap_fmax_final=0.0009801241355761427 gap_converged=1 pbc="F F F"
Te      11.68322049      16.40362824       8.65239540
Te       8.76812697       9.98507110      10.59854090
Te      14.25913860      10.04185283      10.59672661
Te      17.05324512      13.47586206      10.13113853
Te       7.78657527       7.43420185      10.21618818
Te      11.96520693       8.83726365       9.50977682
Te      12.72788976      14.33659005      10.18576133
Te       6.64445727      11.45273511      11.60386581
Te      17.18892678      11.43552906      11.97699849
Te       9.70836141      17.51737564      10.19976445
Te      15.17505187      15.26450286      11.08713074
Te      12.02482077       6.25756703      10.45189932
Te       9.53217009       5.75117086      11.51156881
Te       7.81365211      13.81778469      12.44447714
Te      13.32136207      11.79456283      12.52728463
Te      10.07782415      16.52621487      12.75256578
Te      19.20692950      12.16460032      13.74774877
Te       8.30566675      13.44723423      15.13306826
Te      18.17199089      11.63559690      16.22491649
Te      12.47679347      17.61094536      13.60086689
Te      14.06529337      10.66049472      14.97829806
Te      13.92245583      15.44808680      14.51482227
Te      10.87409831      12.40537940      15.29354825
Te      15.56821063      12.63075726      16.18460036
Te      12.36017274      14.34663340      16.55768882
25
Properties=species:S:1:pos:R:3 config_type=qcd gap_pre_relax_energy=-74.78082851368892 gap_pred_energy=-75.45212095034164 gap_fmax_final=0.0009103608564781233 gap_converged=1 pbc="F F F"
Te      18.34913200      17.63733701      11.27285837
Te      16.60847447      19.75117992      14.79047528
Te      18.23369686      14.93417046      10.81013783
Te      10.80075471      17.02651588      14.28449020
Te      15.97558721      18.19414837      12.57050929
Te      13.81759392      17.49609368      17.41546792
Te      20.06652931      17.72443487      16.41207215
Te      17.29152904      17.88104572      16.70246870
Te      15.63626607      14.15827895      11.45706515
Te      13.17416860      18.38437789      14.83068823
Te      11.36488246      15.53981840      12.04876278
Te      20.45058104      16.31863467      14.09781933
Te      14.51488379       9.81104953      15.76766811
Te      14.90050672      12.52536986      19.09905442
Te      16.55624350      11.31702808      14.65774274
Te      10.61435001      12.03986903      14.57350413
Te      13.06953635      11.68783231      17.19683523
Te      10.83570761      14.36308078      18.28637537
Te      18.61241497      13.59599615      17.03438370
Te      16.23669835      14.66650926      17.94582990
Te      15.89281076      11.45698121      11.99062206
Te       9.38324422      14.06889713      15.95898907
Te      12.55940344      13.22563448      12.96348200
Te      18.73674241      14.12772698      14.30032533
Te      11.31826218      17.06798938      18.53237271
25
Properties=species:S:1:pos:R:3 config_type=qcd gap_pre_relax_energy=-74.68855375424938 gap_pred_energy=-75.35145875374998 gap_fmax_final=0.0009942231910206433 gap_converged=1 pbc="F F F"
Te      13.84049200      15.31269752       7.21372401
Te      12.19573997      11.23736357       7.37666146
Te      14.56213493      12.66581192       7.22345075
Te      10.00890209      16.37167961       9.06102492
Te       8.72105084      13.97165845       8.60578984
Te      12.62791707      15.75462203       9.66911397
Te      11.15105212      11.67817517       9.89209677
Te      15.20276493      10.13978979      10.60285387
Te      15.79715913      12.84372890      10.56772658
Te      12.62745228       9.96814609      11.53113635
Te       7.19604490      13.49469039      10.83879481
Te       8.97319411      12.56129961      12.76167654
Te      11.58913054      16.12037058      13.08376705
Te      16.77350402      13.38794266      13.09794728
Te       9.47763979      14.80416648      14.32813158
Te      15.48466475       9.88041326      15.22802327
Te      13.66986660      15.96560616      14.87736176
Te      11.20320022      10.80390266      14.90068138
Te      14.57727466      13.32871376      14.79073571
Te      13.01465534       9.10156372      16.14418912
Te      17.01026712      10.46766379      17.44954814
Te      16.90273859      13.20123241      17.73097467
Te      11.45203476      13.02508032      16.57350276
Te      12.84211377      11.88013338      18.71878305
Te      14.77071318      13.70525549      19.40401207
26
Properties=species:S:1:pos:R:3 config_type=qcd gap_pre_relax_energy=-77.74843453219096 gap_pred_energy=-78.34288238556285 gap_fmax_final=0.0009251606415337635 gap_converged=1 pbc="F F F"
Te      13.58937122      11.68138830      10.57119523
Te      13.55495833      10.33717099      14.59910197
Te      10.22553808       6.91137930      10.63392001
Te       6.75792697      11.78065219      10.60148300
Te       6.65522417       9.29684388       9.13699639
Te      13.15772612       8.07457795       6.27680536
Te      12.12513329      13.89121399       8.59898974
Te       7.27616225       7.90736336      13.59441074
Te      11.04780381      10.16339304       6.56016571
Te       6.14174509      11.59668967       7.35558824
Te      11.32893207       6.02289595       6.51994006
Te       7.12015309      13.96174200      13.10155094
Te       9.46490545      14.93810291      12.22883071
Te       8.67908344      12.41503310       6.80241203
Te      12.49565543      12.51504580       6.28648379
Te      10.81747789      10.50713022      14.06393534
Te      13.98710498       8.67734405       9.05180176
Te      13.65665440      13.88784795      12.29460515
Te      11.52645467      13.66752579      13.97154181
Te       9.38735414      13.15039654       9.50870779
Te       9.30820991       7.28146410       7.91814115
Te       7.51709509      11.09341979      13.29950610
Te      14.59848470       9.56125230      12.16433822
Te      12.97897974       6.44130612      10.31514056
Te       6.95132360       6.93107691      11.08045072
Te      10.05001313       7.70721490      13.86342855
26
Properties=species:S:1:pos:R:3 config_type=qcd gap_pre_relax_energy=-77.2596007790276 gap_pred_energy=-78.42954955544933 gap_fmax_final=0.0004936789160040404 gap_converged=1 pbc="F F F"
Te      15.03083659      15.02659950      17.22551130
Te      14.09632525      16.72749257      15.27339096
Te      10.74566266      14.42065579      16.86641143
Te      17.06159036      12.93684204      14.22042287
Te      12.79651557      14.34466391      18.68802803
Te      10.47527624      13.36798669      11.25908435
Te      16.39638978      12.97728572      11.53950027
Te      14.76308013      11.96673635      15.42692609
Te      11.00320873      12.06899589      15.38474918
Te      15.93313862      15.64831496      11.00991543
Te      11.81088380       9.62988103      13.03816417
Te      14.34877067       9.53610418      14.16799723
Te       9.07363094      12.43432925      13.43197171
Te       6.18945543       8.64164253      11.33147432
Te      12.16407653       8.62293156      10.43269864
Te      13.21432069      15.98959042      11.08041089
Te      14.81221968       9.42280186      10.02114863
Te      12.39151347      15.25488684      13.65294483
Te       5.51194444       9.50941499       8.82322094
Te       8.99869473       8.68231020      11.39153948
Te       9.45169339      11.81383898       9.14622991
Te      14.61297727      11.83200733       8.69640275
Te       7.82280974       9.25378376       7.34019887
Te       9.36291597       7.51270781       8.86585652
Te      10.69106677      12.79793709       6.89384303
Te      12.96745107      11.30670730       6.51840668
27
Properties=species:S:1:pos:R:3 config_type=qcd gap_pre_relax_energy=-80.28057139256416 gap_pred_energy=-81.68351995936163 gap_fmax_final=0.0009748829819840085 gap_converged=1 pbc="F F F"
Te      11.84875433      11.49663917       7.97460835
Te       9.16819177      12.62429973       7.43866742
Te       9.05262459       7.09834880       7.64649268
Te      11.21473997      10.01849617       5.43035127
Te       8.32842315      12.57157851      10.18379441
Te      12.41717596      14.08217375       9.59261318
Te      13.17651041       8.84052590       8.70002707
Te       7.21939486       8.02399978      10.91235230
Te      14.02900869      11.54877154      10.08352341
Te      10.98530167      16.50304376      10.70193478
Te       8.53225106       9.62499666       8.99497435
Te      11.50339336       8.18182823      10.90349703
Te      11.46326407       7.47214317       6.41337707
Te      13.28999680       7.83032753      12.97670087
Te      11.07173169      11.89112813      10.87788769
Te      10.32881092      15.50610274      13.14708332
Te       8.84114817       8.15706616      13.04360572
Te       7.93554449      14.18081846      12.88997801
Te      12.75360859       9.72416687      14.91570724
Te       8.68155711      11.38688962      13.13646847
Te      15.84600271      13.16836806      11.94161626
Te      10.46775099       8.78945520      16.22216749
Te      15.49481180      11.88722804      14.41402421
Te      13.99199952      15.29525100      12.06877133
Te      15.46438341      14.10905810      16.08661562
Te      15.30821640      16.26239437      14.43820556
Te       8.68879670      10.82829373      15.96834811
27
Properties=species:S:1:pos:R:3 config_type=qcd gap_pre_relax_energy=-80.34377586203581 gap_pred_energy=-81.1054838297865 gap_fmax_final=0.0009903130301454409 gap_converged=1 pbc="F F F"
Te       9.30167146      10.98372785       5.71053174
Te      11.05292271      12.79994626       6.94405799
Te       9.47360435       8.71922439       7.22967094
Te       9.42918641      14.12124454       8.77649875
Te      12.11724627       7.87681153       7.13782525
Te      13.72133607      10.09972889       7.00126892
Te       8.32140355      12.16833066      10.31211039
Te      13.70469166      13.94429412       8.60590541
Te       8.82220371       9.41907976      12.58015243
Te      10.90551369      10.35201084      10.74556279
Te      13.69129320      11.22184829       9.57129854
Te      12.22186280      15.07134471      11.02901697
Te      12.80896909       8.14163890      10.52145479
Te      14.09622630       8.06804771      12.95681210
Te      12.32415219      12.57471743      12.54296209
Te      15.12179074      14.79553619      11.12128480
Te       9.56982682      15.50181928      12.65839011
Te      10.14238938       7.99207303      14.49257606
Te       8.56306297      13.09090385      13.40632117
Te      15.54144831      11.03943170      14.22853818
Te       8.75337398      13.34546583      16.26813921
Te      12.29287860      15.21013870      14.00610047
Te      15.30197475      15.47732195      14.06656602
Te      12.85660666      10.08601510      14.48149534
Te      15.85125348      13.32744263      15.69721445
Te       9.38639278       9.07300856      16.92966787
Te      10.65122890      11.52335815      17.00308803
28
Properties=species:S:1:pos:R:3 config_type=qcd gap_pre_relax_energy=-83.37513401786953 gap_pred_energy=-84.46571207689055 gap_fmax_final=0.0009826638340388165 gap_converged=1 pbc="F F F"
Te      13.96883257      11.28085176       8.41384861
Te      16.31978712      11.90191573       7.08603563
Te      18.12378165      12.60322617       9.01674567
Te      11.10207863      10.00267488       9.97445321
Te      11.01210530      14.58998649       8.75977169
Te      13.19735252       8.53997677      11.09775272
Te      15.92466332       9.86984261      12.77573227
Te       9.06988645      12.66835089       9.06157519
Te       8.93502340       9.24405373      11.55529406
Te      13.38724951      13.64523837       9.82328059
Te      16.61103436      16.02756754      11.31754019
Te      13.26449492       9.57741917      13.73611625
Te       8.20254810      12.74426729      11.71395320
Te       9.89564826       9.31837138      14.13348693
Te      14.00782395      16.65883488      11.40461002
Te      16.69337601      13.22265311      11.33831719
Te       8.42664927      11.48992265      15.15086820
Te       7.67277116      15.39922291      12.26736408
Te      14.11054000      10.80497874      16.73945267
Te      17.25001028      11.21507217      14.76130817
Te      11.13789874      17.52139019      13.86798062
Te       9.02733870      15.91507460      14.61925193
Te      10.35620228      13.00260348      16.44075877
Te      13.41308298      16.02022889      14.41134136
Te      15.98584720      13.69477838      14.73542199
Te      12.97428791      15.26545988      17.24012497
Te      11.66896931      11.01860912      17.90662293
Te      15.08119580      13.57790790      17.47147059
28
Properties=species:S:1:pos:R:3 config_type=qcd gap_pre_relax_energy=-83.71541081564055 gap_pred_energy=-84.39182365635077 gap_fmax_final=0.0009110329259639332 gap_converged=1 pbc="F F F"
Te      10.43361444      12.89326077       8.70426485
Te      16.33420926      11.19256916       8.45514124
Te       6.47879363      10.01808357       8.93082730
Te       8.05848222       8.24392260      10.32909462
Te      13.65786713      11.77154962       9.03179835
Te      10.57590153       8.44091997       9.23567338
Te       9.79641545      16.38285039      11.26044741
Te      11.06092909      15.54585327       8.96013411
Te      16.40563504      14.69565306      11.10726521
Te      17.64808748      11.61046414      10.81094503
Te      11.13439726      11.67830542      11.14705731
Te      16.12356582      10.26482791      12.80665329
Te       7.52700458      13.67241188      11.17573372
Te       5.50589002      11.80207135      10.77285461
Te      16.28901330      11.83070155      15.00354547
Te      13.97489720      13.20970909      11.44593449
Te      12.55175752       7.67915198      15.48819492
Te      14.82573675      17.04254842      11.01270533
Te      12.30460341       7.35161531      11.07560359
Te       9.13709210      12.53336156      13.10869370
Te      11.31259764      15.32989578      13.31624121
Te      12.53123323       9.20659176      13.11333499
Te      13.56599705      17.07913914      13.43288530
Te      12.84422562      11.44746323      15.97361206
Te      15.33550426      14.41976542      14.20678638
Te      13.25869028      14.17638433      16.13853637
Te      10.15984449       8.32391171      16.63813176
Te      10.09581293      11.08481637      16.24570274
29
Properties=species:S:1:pos:R:3 config_type=qcd gap_pre_relax_energy=-86.3158373221069 gap_pred_energy=-87.5197477113865 gap_fmax_final=0.0006057336384676051 gap_converged=1 pbc="F F F"
Te       7.37533710      10.57379790      10.86607204
Te       8.86556819      12.83528537      10.32448437
Te      15.65865860      13.49617454       8.53358843
Te       8.23882679       9.67914882      13.34876561
Te      11.66484416      16.82281203      11.65773972
Te       7.82480627      14.75102538      12.02570429
Te      12.34974831      10.23723501      11.92524709
Te      14.22130484      11.38778590      19.31697300
Te      14.29011693      18.36013910      13.56923732
Te      11.71878389      14.90847165       9.65932896
Te      16.86317552      10.66813427      19.11328971
Te      16.08836266      20.03472737      14.84325622
Te      18.00157081      20.61512558      12.95984475
Te      13.78453132      13.28896135      17.32349528
Te      14.34514628      15.99496783      15.06105367
Te       9.96029695      15.66370485      13.50868558
Te      16.79083613      14.86254032      14.45549699
Te      11.03946658      13.68456769      17.32211534
Te      18.93295791      18.18460358      12.07975274
Te      16.71558226      16.66884654      11.41308180
Te      13.67196815      13.08463849      10.50295224
Te      11.55963920      12.67349428      13.07898887
Te      17.30122297      13.12096690      16.60849883
Te      20.05085319      12.90212081      16.78852335
Te      10.04021171      12.02424309      15.37200763
Te      17.76974308      14.64164869       9.81466071
Te      18.31831901      12.27282175      20.81605784
Te      10.59623462       8.33969918      12.91555866
Te      20.64220924      12.90263439      19.47586167
29
Properties=species:S:1:pos:R:3 config_type=qcd gap_pre_relax_energy=-86.29640263008461 gap_pred_energy=-87.77419488290802 gap_fmax_final=0.0009500552605264617 gap_converged=1 pbc="F F F"
Te      15.32935198      15.39191942      11.31538211
Te      12.54669711      15.48416554      12.03029794
Te      14.60571698      12.67394716      10.15939897
Te      15.19330980      16.87998529       8.92031002
Te      15.16144465      12.77578045      13.28980964
Te      12.41719644      12.65226185      12.13526473
Te      14.72392648      12.28418896      16.04935195
Te      15.51679161       8.49522762      12.34917883
Te      13.39778879      13.88432751       6.25943921
Te      12.84721674      16.12694231       7.72309150
Te      13.89017784       9.54918886      10.29526310
Te      15.19764155       9.64605478      16.48525768
Te      12.85053836      11.69431554       7.97750116
Te       9.26548496      12.39146343      12.64083023
Te      10.66053643      12.88949269       9.68314774
Te      10.67909285      10.01960979       9.73096198
Te       9.16953153      15.29916726      12.60483289
Te      13.79235212       8.30362393      14.47862888
Te      10.68045662      11.22312666      16.67158240
Te      12.70672218       6.91718237      10.08367391
Te       8.74435543      15.59515681       9.93622828
Te       7.80714280      10.11931432       9.93582978
Te       9.68575405       9.06132373      12.53651128
Te       8.41015295      11.75092545      15.26347912
Te       7.07468383      11.94910475       8.00422767
Te      11.31610998       6.70827325      12.40034468
Te      10.92064393       8.44390315      16.71453282
Te       6.37650399      14.24486632       9.33948426
Te       9.04213962       7.55462237      14.99561884
30
Properties=species:S:1:pos:R:3 config_type=qcd gap_pre_relax_energy=-89.63466534371578 gap_pred_energy=-90.44914645949207 gap_fmax_final=0.0008918712845197978 gap_converged=1 pbc="F F F"
Te      12.72355933      15.15442914       8.86630373
Te      18.63772747      11.97805628      10.98856159
Te      13.66624162      17.63045522       9.57325093
Te      12.61044619      13.67137365      11.20249992
Te      16.34608249      17.30227599      10.20134549
Te      16.05952455      12.93901176      10.72122006
Te      10.00469068      14.05122458      12.11193338
Te      19.90093576      17.18133498      10.88944295
Te      21.42824141      15.17344041      12.02612856
Te      19.60938277      13.42990030      13.15799213
Te      16.40178601      15.34945815      12.15159940
Te      19.35112023      18.88905379      12.98304685
Te      14.46632795      11.54691920      13.62158979
Te      17.07551798      11.25055203      14.60439943
Te      10.11796767      16.17627397      13.84410576
Te       9.48021049      18.03147814      19.52429533
Te      19.09848636      15.61559654      15.99621172
Te      17.57900158      17.55789869      14.58256201
Te       8.64929791      15.45706945      16.05792839
Te      10.34046742      15.72979161      18.22658050
Te      12.84941822      10.57191874      15.64226516
Te      17.07878006      12.70036774      16.95353874
Te      11.35338173      18.54791562      21.46140922
Te      18.73937918      16.42826754      18.59748420
Te      11.86638953      12.78456262      16.98752061
Te      16.40653604      15.18926156      19.44446643
Te      13.78746933      18.66198799      20.16897134
Te      15.50901426      11.21880256      18.69922974
Te      15.41719117      16.85370751      21.43543752
Te      13.44542459      12.92761424      19.27867911
30
Properties=species:S:1:pos:R:3 config_type=qcd gap_pre_relax_energy=-89.39149428120045 gap_pred_energy=-90.75065893965616 gap_fmax_final=0.0009828287451887241 gap_converged=1 pbc="F F F"
Te      15.53187093      17.29031254      11.34848792
Te      13.37105009      16.75621234      13.00312980
Te      11.39472402      15.89086387      11.27812947
Te      17.06005321      14.99936006      11.45097976
Te      20.87328973      15.38712075      12.67685675
Te      19.75803621      17.27566633      10.99675778
Te      21.73034885      19.19324547      10.63181869
Te      15.22120044      12.99406410      12.04113120
Te      11.64159271      13.15842863      11.14987892
Te      10.58744686      12.22766213      13.53747197
Te      12.23644695      13.35986819      15.47040366
Te      19.06719698      15.21857008      14.77729763
Te      15.75693410      12.32387214      14.70472801
Te      20.54912025      21.59965019      11.23537798
Te      18.49291529      12.49996492      14.92019749
Te       8.61799680      11.72174122      19.00376480
Te      11.27864530      15.97697638      15.74787874
Te       9.02024440      10.75764999      16.44130846
Te      19.77300125      21.46205435      13.86677840
Te       9.72801415      15.83768509      18.03244371
Te      19.38512717      18.77022869      14.44251979
Te      13.33606969       9.99770420      16.23817418
Te      10.89950584       8.77112846      16.71803865
Te      10.61926521      13.60185521      19.39070343
Te      13.60236240      15.44865923      19.81122320
Te      14.87447043      13.74506386      17.96264692
Te      13.95929665      11.21844902      18.63197492
Te      17.12998896      16.54019294      17.54447376
Te      18.83730927      18.69711984      17.14473398
Te      15.66647588      17.27862978      19.80069001
30
Properties=species:S:1:pos:R:3 config_type=qcd gap_pre_relax_energy=-89.4086480835394 gap_pred_energy=-90.47016932090578 gap_fmax_final=0.0009506127447054456 gap_converged=1 pbc="F F F"
Te      13.22457103      12.34820765       9.38499064
Te      14.18845350      14.88359749       9.68851204
Te      15.74739894      18.80755611      10.12826478
Te      18.31496218      15.32024226      10.95854148
Te      16.49562813      13.57715286      12.07021358
Te      13.56267333      11.23834917      11.90885464
Te      13.37908314      18.73805441      11.51401449
Te      12.77776247      16.05898455      11.80744407
Te      17.67233039      17.84341158      11.88591279
Te      11.02818266      11.35836618      13.01627999
Te      11.23810965      17.16343941      14.81000753
Te      16.78332871       9.90079091      14.61094790
Te      19.91462894      17.12112664      14.53488690
Te      15.96355059      17.73081442      16.33509949
Te      17.92010293      12.34844565      14.17911623
Te      18.21237702      19.07489823      15.54186843
Te       9.64491716      14.92806651      15.06816846
Te      14.14627540      10.41420110      15.32031598
Te      11.36914981      12.78097729      15.36427418
Te      16.12833918      13.65696865      16.90872651
Te      21.33868526      16.28062895      16.74650803
Te      10.62224963      18.64244174      17.08070411
Te      16.13501492      17.45420586      19.08571378
Te      18.45330573      13.41888591      18.36606255
Te      14.02161967      10.14963330      18.07683656
Te      19.40354057      15.97714696      18.70715793
Te      14.20590937      14.46193531      18.79380110
Te      13.87381066      18.76987465      20.03008035
Te      11.73685359      17.26674272      19.19166198
Te      12.49718546      12.28485358      18.88503348
31
Properties=species:S:1:pos:R:3 config_type=qcd gap_pre_relax_energy=-92.5293101855616 gap_pred_energy=-93.55810952769025 gap_fmax_final=0.0009902866765847632 gap_converged=1 pbc="F F F"
Te      15.20705443      19.08737437      14.70939267
Te      12.15253351      16.33620082      16.37481994
Te      16.49969888      16.87506224      13.69682486
Te      15.75368073      16.73382233      11.03806277
Te      12.41340510      16.71610519      11.89404382
Te      15.65396214      14.01350646      10.35872952
Te       9.90137004      14.95185017      15.34084101
Te      12.49625582      18.52014698      14.71667703
Te      12.46961099      14.95036084       9.67904936
Te      15.26760270      10.58721793       9.97709535
Te      17.52928405      13.04077952      15.48217098
Te      18.12069236      12.94485790      11.17485781
Te      14.42899523       9.62718126      14.47735222
Te      10.74593583      12.00169077      14.86180534
Te      14.81356137       7.85059106      10.47134394
Te      12.16524772      13.64497623      18.84887895
Te      11.49575487       9.00883966      11.14062044
Te      15.53526192       7.48226787      13.06996615
Te      11.71661695       9.19016862      14.27750645
Te      17.49810472      11.34068240      13.32065032
Te      11.39288551       9.69110460       8.11563811
Te       8.03368891      12.28048582      14.16611857
Te       9.60557936      13.77962670      18.09192752
Te      13.81666632      11.05478130       7.71310088
Te      15.01978128      14.18575692      15.58527749
Te       7.78961045      11.36489008      11.56217291
Te      13.45330896      12.15558457      16.78111912
Te       8.80481358       8.78217954      11.61077928
Te       9.82722989      16.01449163      12.46184765
Te      10.16366980      13.37273940      10.33874693
Te       9.64432172      11.83086195       8.07876771
31
Properties=species:S:1:pos:R:3 config_type=qcd gap_pre_relax_energy=-91.90283456659267 gap_pred_energy=-93.22032573672709 gap_fmax_final=0.0004911048551380831 gap_converged=1 pbc="F F F"
Te      13.70731406      15.79688283       9.01948761
Te      14.58951227      11.91472340       7.43362083
Te      15.61357965      14.71105735      10.66303131
Te      11.30051644      14.62431212       9.76439638
Te      17.14118718      11.02270031      14.29767712
Te      16.11471652      12.16990600       9.68771426
Te      11.99072623      11.40924086       8.39525654
Te      16.54449515       8.55592160      15.36920977
Te      10.01061562      16.69227978      11.24887943
Te      12.04920344      13.37813643      12.71307348
Te       7.53894771      15.71922152      11.89640622
Te      13.80163027       8.44334765      15.82683568
Te      13.23998414      10.61311421      11.16879781
Te      10.99107860      12.29650502       5.79821662
Te      15.25464922      12.77631571      15.21095329
Te      12.75168517       7.08594550      13.64564405
Te      11.66159155      15.72037428      14.19802886
Te      12.80801522      11.31342749      14.76321291
Te      10.23295113       8.26342404       8.70844220
Te      11.29784387       8.94915599      12.17344908
Te      12.80140058      15.07564913      16.66642195
Te       8.90634441      10.65774883       5.25390805
Te       9.06747346       5.94821295       9.72329763
Te       7.88441445      13.16780545      12.86884970
Te       9.24672213      11.75555539      10.89918088
Te       9.71595061       8.12414272       5.99568145
Te      11.78711468      12.58333643      17.10493356
Te       5.21045618       7.05583167      11.53115951
Te       5.32605406       9.80510973      11.42795229
Te       7.22425202      10.40614907       9.53505129
Te       6.38248407       6.15737665       9.20414037
32
Properties=species:S:1:pos:R:3 config_type=qcd gap_pre_relax_energy=-94.80977368479356 gap_pred_energy=-96.52639497137264 gap_fmax_final=0.0009399591421321788 gap_converged=1 pbc="F F F"
Te      18.74409452      12.63046384      15.48236929
Te      16.87303661      10.86983719      16.43767411
Te      17.57646439      13.91142628      13.29279891
Te      17.27143693       8.50054827      15.08018059
Te      15.83452587      10.12637353      12.04844926
Te      15.74194489       6.60899496      16.35987037
Te      17.66954002      12.01944799      11.26199490
Te      16.03899357      15.94298384      10.88986118
Te      15.21606942      14.70775123      17.51035237
Te      15.66232374      16.38240172      15.17164365
Te      13.33207677       9.55554345      18.40083217
Te      13.13804052       7.60129831      16.40399493
Te      13.30957339      11.30813669      11.55398433
Te      13.06922385       9.50503366      13.95577735
Te      13.37105724      13.03749370       8.83323738
Te      13.32801646      14.65608243      11.07945435
Te      15.86890478      18.02549149      12.49554623
Te      12.79447593      15.08414116       6.89752811
Te      12.61869984      15.04516348      18.15553683
Te      12.39989105      18.69095169      12.08350227
Te      10.97343841      10.91925101      18.32974794
Te      11.34039954      16.34082204      15.66180951
Te      12.44215047      17.10854055       9.84461577
Te       9.44518552      13.24583144       8.81164220
Te      10.12784826      14.70937751       6.54424253
Te      13.55238125      18.06301576      15.70622219
Te      10.48610144      10.64922393      14.47935079
Te      10.12846942      11.92907407      12.08368087
Te       8.37839145      15.10604137      10.52904514
Te      11.33443118      12.99868698      16.50299456
Te      10.10507498      17.88831517      13.42640419
Te       9.95809369      14.96261065      12.81601107
33
Properties=species:S:1:pos:R:3 config_type=qcd gap_pre_relax_energy=-98.22372708214341 gap_pred_energy=-99.57274149756297 gap_fmax_final=0.0009909724078831738 gap_converged=1 pbc="F F F"
Te      15.48136136      18.27167013      14.04640361
Te      16.16952514      11.20325053      11.43973702
Te      15.93156761      13.64557425       9.95679653
Te      15.82459526      15.44537332      14.06486051
Te      13.30647102      18.72424704      12.50262708
Te      17.28807515      15.32721962      11.65249777
Te      12.55730547       6.37140720       9.60702163
Te      13.38504467       8.93549713       8.84604046
Te      13.54624236      10.29512399      11.58166973
Te      16.75368592       8.33829329      13.42963108
Te      13.83329128      17.49580418      10.00266685
Te      11.47397936      18.05549991       8.64306234
Te      13.76474013      11.44780115      14.43224577
Te      13.03761173      14.69599107      13.49667660
Te      13.09539875      14.60674579      10.37150805
Te      15.06596941       9.14449305      15.41421615
Te      13.81780140      12.72867542      17.32230526
Te      10.47963805      11.85997430      10.37409527
Te      11.38875494      11.57800820      18.16660814
Te       9.86207435      15.91241908       9.35856337
Te      10.93541879       9.49660263      16.47242065
Te      13.20578103      15.20018775      16.36104103
Te      15.75930057       5.87323700      12.57538097
Te      13.04842932       6.20247802      12.29954200
Te      10.96867011      10.58010884      13.88266301
Te      11.05381902      10.27267692       8.16913863
Te       9.75921870      13.94030344      13.25429803
Te       7.97862859      12.94128327       9.64638956
Te       9.25017321      16.35789179      12.01501200
Te       7.91359087       9.96326864      13.65808468
Te       7.25172237      12.61653069      13.32314074
Te       7.60074190       8.83841167      11.10795737
Te       6.30674334      10.72932184       9.62106932
33
Properties=species:S:1:pos:R:3 config_type=qcd gap_pre_relax_energy=-98.30302703802779 gap_pred_energy=-99.18544206513896 gap_fmax_final=0.0009951940247927304 gap_converged=1 pbc="F F F"
Te      12.19017949      10.75473090      16.72517427
Te      14.45069094      13.54161090      16.89558244
Te      12.19541927       6.45198196      17.16513713
Te      13.88923297       6.79125579      15.06199587
Te      10.41544725       8.65047121      16.59021304
Te      14.50216131       9.56960952      15.04369208
Te      15.47898636      12.75664240      14.45951503
Te      11.33187317      17.97945649      19.64708188
Te      16.53361856       8.31167115      13.28745972
Te      10.67944842      12.72124159      14.33708812
Te       8.61690869      13.15603496      16.11002571
Te      15.53997941      15.25838684      13.07827989
Te       9.69270583      13.89345513      11.92685608
Te       8.77066399      15.82087734      16.78936095
Te      12.81803935      15.45978795      12.66505138
Te      10.60150068       7.81154297      13.79040510
Te       8.10844557       8.31990413      12.81389547
Te       9.54093729      15.89543394      19.42939550
Te      15.36703779       8.39165120      10.84200334
Te      13.20280653      17.63475306      17.66900426
Te       8.42185513       9.92211054      10.58881909
Te       7.46804568      12.40736324      11.29316266
Te      16.56559509      10.45552866       9.47793830
Te      12.59677583      15.37079825       9.87002953
Te      12.44296481      15.36478571      16.25225184
Te      16.15690290      12.73810799      11.08615058
Te      12.94335980      17.94009866       8.97814078
Te      16.10093879      14.83026444       9.18224303
Te      15.23402682      17.86506000       7.44022523
Te      18.67587255      14.86214834       8.17804483
Te      16.98222601      19.66518045       8.58730992
Te      20.04337913      16.70705416       9.68718108
Te      18.12574135      18.38476687      10.73505262
34
Properties=species:S:1:pos:R:3 config_type=qcd gap_pre_relax_energy=-101.41884302741288 gap_pred_energy=-102.63250786881859 gap_fmax_final=0.0009689232474972831 gap_converged=1 pbc="F F F"
Te      15.91422549      17.02210618      14.54608479
Te      19.94937250      10.28388454      12.79654029
Te      13.56080002      18.43519217      14.82953976
Te      19.67116032      10.68219751      10.10624296
Te      16.74795082      13.91700101       9.99448818
Te      17.27868043      10.20585839      13.62013071
Te      14.55211969      13.74553792      13.82989042
Te      14.32007017      14.44942943      11.14258196
Te      16.49220139      16.02495192      17.04664386
Te      14.66859655      13.98616305      17.41273796
Te      16.93307340      11.16074559       9.86517861
Te      16.55698939       7.60988875      13.11173986
Te      10.08635542      12.52768292       7.50132210
Te      11.63711278      17.02120257      13.46324859
Te      13.82940568      11.03472052      13.89275443
Te       9.49394391      15.22401908       7.58291614
Te      13.36955481      11.12383122      10.07211978
Te      11.01004775      14.78138325      15.03584639
Te       7.76822652      15.56450536       9.66130155
Te       9.19871014      14.78549638      12.02862535
Te       7.85277292      12.43762739      12.67662603
Te      10.63849305      11.82802973      10.10621822
Te      12.20908589      15.20494760      17.50153609
Te      13.79251644       7.60187369      12.75938347
Te      10.37148710       6.89608472      12.87134060
Te      13.36605445       8.35941386      10.12302722
Te       4.91461482      10.16043167       8.24242294
Te      11.03223822      11.24979489      13.65632908
Te       5.82655338      12.70343828       8.86968453
Te       9.89162869       8.92316353      14.65899812
Te       9.87437691       7.76667436      10.28892455
Te       5.34839281      12.87287111      11.58428290
Te       7.35141689       6.77858078       9.67675793
Te       5.51574733       8.65524670      10.46851070
34
Properties=species:S:1:pos:R:3 config_type=qcd gap_pre_relax_energy=-101.35589362876509 gap_pred_energy=-102.64352439684932 gap_fmax_final=0.0009811831929196358 gap_converged=1 pbc="F F F"
Te      11.86400002      14.08099251       8.80701184
Te      12.14019681      12.73897096       6.36908556
Te       9.23595117      14.92248287       8.85392791
Te      12.25179870      15.59365414      11.90700912
Te      14.47944167      16.84782387      10.76701286
Te      14.83862851      12.14476688      10.00012518
Te      17.58561343      12.20052383       9.46531753
Te      10.32310479      13.76583201      13.92829370
Te      14.53272053      11.42127598       6.53943349
Te       7.72772939      10.80577241       8.76982257
Te       8.10155047      15.31513549      13.10998063
Te      12.78305312      15.81482515      14.65596602
Te      16.66897536      15.71809187      11.97986161
Te      10.00686682       9.35123885       9.26826616
Te      18.30908640      14.78749577       9.84901946
Te      15.46607484       7.87720886       9.00035644
Te       7.90130660      13.05866390      10.38652740
Te      14.71481939      12.76483396      12.71814852
Te       9.42698375       7.66064096      11.35145446
Te      15.39460641      16.87965723      14.90998644
Te       5.87280582      14.12686669      14.16101434
Te      13.94331935       8.73945848       6.88795631
Te       9.20174065      12.02164177      15.94746758
Te      12.56419845      11.20107121      13.62340794
Te      14.21941501       8.83783992      11.28238463
Te      14.33064553      17.03684426      17.51149081
Te      14.42262524      14.49114885      18.50154238
Te       9.47965848       9.22675666      13.65701438
Te       6.68119476      11.59761754      14.92536217
Te      10.40666121       7.49319036      15.59889946
Te      12.13804437      13.28262116      17.48055894
Te      13.58302979       6.56486016      12.73063133
Te      12.91487128      10.86054812      16.39090057
Te      13.14600911       7.42637458      15.32148948
35
Properties=species:S:1:pos:R:3 config_type=qcd gap_pre_relax_energy=-104.43639481929964 gap_pred_energy=-105.78370355052269 gap_fmax_final=0.0009561746364107875 gap_converged=1 pbc="F F F"
Te      17.58097797      14.13546703      10.98761514
Te      13.72958561      17.26321518       8.27043366
Te      16.44707982      16.17922520      12.34172897
Te      18.46692952      10.98722039      13.94790188
Te      13.49778198      16.31046030      11.04453926
Te      16.51041183      11.84963947      12.19202586
Te      15.33907332      14.54271752      14.69241775
Te      12.69919493      15.25051032       6.78465831
Te      17.33976075      10.99218226      16.46780160
Te      11.56569451      12.87565207      13.05670777
Te      13.67651076      12.84447592      10.25014026
Te      14.75921039      11.82607888      16.20008600
Te      14.35768707      10.16559113       9.48863421
Te      11.51237060      13.50497674       8.58614943
Te      10.90462906      17.27381361      10.31864345
Te      13.82586747       9.96107295      14.01080222
Te      12.82995493      15.29513973      13.98348641
Te      10.23780074       9.03487766      10.10552263
Te       7.90457815      12.33373567       6.72170816
Te      11.36181170       9.83585959       7.57596679
Te       9.33098554      17.12115010      12.57074887
Te      12.91036783       8.58230785      11.16747195
Te      10.24955974       7.75093657      17.12121588
Te       9.02966274      13.00618473      14.17855439
Te       8.15852663      12.40962341       9.48806230
Te      14.11779366       7.53868128      15.21374715
Te      11.58936419       6.28151861      15.21046863
Te       9.88778810       9.94618849      13.18441932
Te       9.17860954      10.03403407       5.92492153
Te       7.87768214      14.80401390      12.35285396
Te       7.45637138       7.48765462      11.11602157
Te       9.72290058      10.23230391      16.02194012
Te       9.92582674       7.17546299      12.63374396
Te       5.70654142      11.46395823      10.35353328
Te       6.18945935       9.58242031      12.31367805
35
Properties=species:S:1:pos:R:3 config_type=qcd gap_pre_relax_energy=-104.19583033926656 gap_pred_energy=-105.26729046248116 gap_fmax_final=0.0009783713664843659 gap_converged=1 pbc="F F F"
Te      15.72430296       6.41405146      12.83176540
Te      16.70393422      12.31183740      10.40759206
Te      16.97447541      14.81694811      11.56624746
Te      16.28216274      12.03663955      14.75931445
Te      16.83952296      10.50850469      12.54531820
Te      15.73629748       7.82890177      10.46103260
Te      14.35348433      15.44043476      12.27980410
Te      13.58019472      12.64618327      10.52830696
Te      13.36028881       7.07651541      14.11567930
Te      11.52001268      13.41563955      13.55038883
Te      13.39381612      16.58101626       9.95702589
Te      13.76448335      11.18812119      15.59138363
Te      14.16706065       8.55650466      16.31677740
Te      11.04860576      16.15681268      13.77096520
Te      14.66059425       6.09875512       8.58347029
Te       9.28728652      12.04858984      14.46351500
Te      10.16602442      16.90560713      11.27628012
Te      10.08583966       7.77061452      15.64178480
Te       7.29205703       7.28494644      12.25517625
Te      10.29991975      16.50309671       7.64896467
Te      12.21961098       5.32585378       9.59989620
Te      12.27964143      14.37016796       8.52863038
Te       7.42057988      16.45153439      11.38047161
Te      12.17252564       9.83346227       9.61001409
Te       7.21439052      13.79792213      12.09374116
Te      10.36780802      10.39125414      16.41511094
Te       7.94674501      15.23165458       7.99028069
Te      10.55547670       7.47663918       9.39328568
Te       9.96334276       7.68333985      12.83243985
Te       7.91082353      13.32630029       5.94481896
Te       5.98102483       9.58142755      13.00091920
Te      11.51459187      11.30772007       7.38331599
Te       6.25979766      12.55002763       9.77240275
Te       8.70896668      11.06707191       7.23707326
Te       4.70974102      10.48133409      10.73223694
36
Properties=species:S:1:pos:R:3 config_type=qcd gap_pre_relax_energy=-107.22010543107893 gap_pred_energy=-108.90711690571885 gap_fmax_final=0.0007400301389002211 gap_converged=1 pbc="F F F"
Te      14.81662206       7.35621402      15.91521480
Te      10.79336459       7.22476725      17.73777076
Te      12.09400158       7.96439010      15.41329846
Te      15.76737169       6.44247954      13.54380653
Te       8.55160414       5.77787869      17.03566352
Te      15.43370376      14.12795998      13.74138074
Te       8.43295779      13.23903548      15.99598352
Te       7.36154399       7.07434086      14.93195003
Te      13.22755019      17.83637848      14.09695391
Te      15.43420898       8.50374482      11.67769533
Te      16.01544069      10.98337582      13.03186124
Te      10.21368981      11.67010601      12.78470001
Te      12.48112682       9.42489607      12.12442168
Te       9.42299979      15.42684252      14.67140200
Te       7.38650003      11.49041888      13.99176838
Te      13.36457546      12.17043561      12.83990787
Te      10.79602155      18.22471295      12.88119169
Te      14.67234367      16.31874405      12.27256651
Te      12.68621503       9.83481986       9.31054496
Te       9.23227520       9.20371460      14.25014863
Te      16.24002870      14.19254583       9.76778488
Te      16.13841603      11.38327055       9.92257591
Te       7.82685375      15.77216297      12.41986532
Te       8.30869245      13.59665090      10.81292780
Te      11.16435039      13.66777695      10.58193607
Te      11.56726627      19.47813100      10.53458948
Te      11.50593317       7.58267842       8.25256900
Te       7.19164520       8.99451840      12.10626142
Te       8.79018410       8.00426842       8.22189923
Te      10.90453806      15.68837895       8.52123946
Te       8.29392123      10.20269059       9.83677156
Te      13.87498733      10.87044735       6.18317115
Te      14.77819929      14.88261348       7.55677938
Te      16.37071599      11.33045295       6.99087535
Te      12.56830226      13.19818460       7.50520556
Te      12.90681364      17.47493764       9.15228255
36
Properties=species:S:1:pos:R:3 config_type=qcd gap_pre_relax_energy=-107.35380575564426 gap_pred_energy=-108.49995695463423 gap_fmax_final=0.0008727212506260188 gap_converged=1 pbc="F F F"
Te       8.65890796       8.37912780      15.96660833
Te       5.97851155      11.12075659      16.34512614
Te      13.77394591       7.14558372      12.81216999
Te      12.51594312       7.14334344      10.03390352
Te       9.99282407       7.75827714      11.68145755
Te       7.49115254      10.71897296      14.03123642
Te      12.42361069      11.25458806      13.17478913
Te       9.71966130      10.61281010      11.31285562
Te       7.53070934      12.74136081      17.91888033
Te      10.50021963      12.26422518      15.52241246
Te       6.41506375      13.18777345      12.96694371
Te      10.06287471      15.01903937      11.38116982
Te       7.77796269      13.55905182      10.67001187
Te      15.88837103      13.69391085      14.00941681
Te       8.64680104      15.47000521      14.64081494
Te       7.14290832      15.29932956      16.97096540
Te      11.33624083      11.27429749       8.99406737
Te      11.84940149      14.49066739       9.43781362
Te      15.09335898      15.73938796       6.42226660
Te      14.17882640      14.20333269      11.61178923
Te      10.11159744      10.06424319      17.39736771
Te      11.51021946       8.68372367       7.82730122
Te      15.29931922      16.58497453      10.73396893
Te      11.33215877       7.62323920      14.13106039
Te      14.72908965       9.89786304      11.86428812
Te      15.76878475      12.01859766       9.98062252
Te      14.89099199      11.27430205      14.63459810
Te      10.74580653      17.18424160      15.25830642
Te      12.65619496      13.55767350      16.66073988
Te      15.74947452      13.40170963       5.11984155
Te      15.19710849       8.13534259       9.27116288
Te      16.83206140      15.94325965       8.54836331
Te      14.29088555      10.47105951       7.91282044
Te      13.06015384      15.68906782      14.94801032
Te      17.25823087      10.36576442       7.94533362
Te      18.04092166      12.47939082       6.31181018
37
Properties=species:S:1:pos:R:3 config_type=qcd gap_pre_relax_energy=-110.31253001643289 gap_pred_energy=-111.6671161491099 gap_fmax_final=0.0009190072545497641 gap_converged=1 pbc="F F F"
Te      14.88333783      12.45403290       5.86719440
Te      12.24243470      13.12984854       6.30236484
Te      15.81519425      16.50560125       8.94304899
Te      13.50400455       9.45305548       8.68918259
Te      11.23294798      11.04537427       7.84578085
Te      15.88333034      12.10596932       8.42680086
Te      17.49755729      14.33799474       8.86241126
Te       9.28645944      14.81583294       7.32591784
Te      12.60283351      12.77682899      10.26817296
Te      14.90994025      13.51851947      12.12225248
Te      10.65432609      15.88242418       9.51345242
Te       8.21395603      12.44685263       8.07902228
Te      12.16785381       7.30296911       9.71241718
Te      14.23810350       7.20748160      13.54941951
Te      15.77543424      10.89742734      11.80744632
Te       8.62592548      16.72214506      11.19743314
Te      15.31996513      17.02792369      11.60534833
Te      10.97937340       7.34079801      15.77901315
Te      15.37406186       9.63776760      14.26096995
Te      11.77905958       7.80236067      12.44131606
Te      16.59764261      12.50285823      15.99663478
Te       8.35516242       7.86258492      15.65725634
Te       8.12521250      14.59618452      12.87049849
Te       8.14765141      12.05415974      10.97115488
Te      14.22512938      16.26644484      15.60097741
Te      13.90891092      13.51193756      15.11336970
Te      10.87305192      11.47979321      11.91694036
Te      12.65257825      17.74652066      11.79206792
Te      10.85134405      13.95904217      14.13305714
Te      12.02032888      17.40984481      14.48445157
Te      14.59017626       9.04409818      17.73719703
Te       8.04071106       9.99228464      13.79731777
Te      15.82981614      11.53097237      18.38623675
Te      10.10922849      12.59271652      16.47732489
Te      12.93426884      12.67971382      17.81339718
Te      12.06142711       9.92452045      17.03243633
Te       7.38544421      12.12929928      15.31489979
37
Properties=species:S:1:pos:R:3 config_type=qcd gap_pre_relax_energy=-109.73352327192059 gap_pred_energy=-111.56197439549724 gap_fmax_final=0.0009675342159403665 gap_converged=1 pbc="F F F"
Te      12.83139096      15.96127817      18.55558634
Te      12.44718135      13.39356500      17.60715817
Te       9.15063532      11.46172500      17.94643237
Te      11.20811434      10.26836355      16.47873207
Te       9.88676006       8.32857253      14.94605402
Te       8.49134139      15.72867820      17.85228186
Te      14.44600018       9.12914723      15.70450083
Te       8.19462247       9.85656084      13.24906349
Te      13.58231551       6.93650787      14.34755763
Te      10.66595156      17.41018169      17.67440919
Te      14.80493458      12.83617191      16.16010838
Te      12.21610958      13.31060824      12.69382636
Te      17.21121562       9.25707032      15.12030116
Te      17.97528420      15.74135420      11.08372592
Te      14.50479671      14.25705458      13.74222017
Te       7.25702545      15.78487324      15.39312965
Te      17.62886725      11.82045309      14.55560451
Te      11.80504819       8.03020587      12.44144144
Te      12.14368023      17.78255475       8.48501319
Te      11.68552646      15.66124016      10.13532087
Te      15.22903601      15.78163360      10.60303256
Te      13.12108282      10.61946898      11.47803005
Te       6.95769234      11.44954504      16.31163664
Te       7.61263038      13.27866320      14.30169744
Te      16.38996736      11.68648129      11.56204027
Te      14.89753443      17.65412158       8.52170301
Te      13.66785564       8.23327204      10.04713414
Te       9.09184607       8.96844197      10.76001412
Te      18.71590913      13.11169402      10.99634488
Te      12.13196484      13.65695902       7.67995948
Te      14.82264303      12.34698022       9.25649782
Te      10.27674416      11.14219757       9.51302171
Te      15.16334138       9.79217788       7.92834716
Te      13.20915544       9.69755250       5.95074347
Te      12.71764545      12.26713964       5.24209409
Te       9.51805304      14.67463883       7.26473441
Te       8.17460801      12.51737710       8.24501203
38
Properties=species:S:1:pos:R:3 config_type=qcd gap_pre_relax_energy=-113.54115035530414 gap_pred_energy=-115.21821182080556 gap_fmax_final=0.0009544553935632413 gap_converged=1 pbc="F F F"
Te      11.73340121      16.79303407       9.19738859
Te      10.06934358      15.54017583      12.91100795
Te      12.33728835      14.20368500      13.75120766
Te      13.80581888      15.92070555      15.39276920
Te       7.13951113      10.22433912      14.52766815
Te      13.84536684      16.72520997      11.00084779
Te       8.37490024      10.88786087      16.97824037
Te       6.57791215      10.19579772      10.97582785
Te      10.59612750      12.28804590      16.27135405
Te       6.73578383      12.90732515      10.60504769
Te       9.92060686      14.86529430      10.19750313
Te      15.98613963      16.54911977      13.84862378
Te      15.56672262      14.95015544       9.81391246
Te      11.42147268      12.10010544      11.08135218
Te       9.53295834      10.21724079      12.29649706
Te       7.25220925       7.47541071      14.52539228
Te      14.92583211      11.94738931      16.32305850
Te      12.71375312      10.38441470      16.49781300
Te       8.92508243       6.85062658      12.37628792
Te       6.39634407      13.24006625       7.88022117
Te       8.95539476      13.55817005       6.98349725
Te       7.25388676       6.73050727      10.15726621
Te      12.31537478      10.33088825      13.26171265
Te      11.85854165       7.40878360      14.18953060
Te      13.85026602      12.91439700       8.92208423
Te      15.25412299      12.14946004      13.50921011
Te      11.81041309       9.24344277      10.59912656
Te      11.46634822       5.30724142      10.34949429
Te      17.13754685      14.17715733      13.06411256
Te      12.44286978      14.33361786       6.63596820
Te       8.21094042       8.84728502       8.54760119
Te       9.93930219      10.85519227       6.53591993
Te      15.94342816      11.12932723      10.42649522
Te      13.23772923       5.97129612      12.37037272
Te      14.77443314       8.73779200      10.54996586
Te      12.24458618       7.04232492       8.25301290
Te      12.08960224      12.12025300       5.12673574
Te      10.01953346       7.53775610       6.72676769
38
Properties=species:S:1:pos:R:3 config_type=qcd gap_pre_relax_energy=-112.9549707097457 gap_pred_energy=-114.8478459202495 gap_fmax_final=0.0009622657469144445 gap_converged=1 pbc="F F F"
Te      16.02993889      13.73200355       8.25291047
Te      11.91877762      12.69161264       7.14669525
Te      13.43017654      10.05758027       7.28267301
Te      14.79701824      16.11988916       7.73744942
Te       8.77617689       9.65055834       8.05656141
Te      11.56568996       8.24591303       9.03399511
Te      11.23043723      15.54103434       7.75366013
Te      14.36120464       7.50898871       9.12244691
Te       8.57683713      15.31774794       8.35348599
Te      16.01831950      14.72050212      11.79724654
Te      10.13961588       6.24378408      10.51243871
Te       8.16103356       7.59066192      11.88493614
Te      14.01912660      12.00360844       9.32534129
Te      14.51789177      17.38656670      10.17660098
Te       9.93708711      11.97745291       9.35824509
Te       6.83771836       8.94795506       9.84053816
Te      11.90938927      16.83973915      11.06114829
Te      15.88419907      10.29020583      11.10192518
Te       8.35337114      16.38718511      10.87637451
Te      12.07668864      12.72388569      13.28498770
Te       8.40524652      10.12916745      14.00165484
Te      11.72532641      10.67631821      11.32935594
Te      15.81904419      16.21949720      14.07118478
Te      10.47632466      10.00818663      16.24307658
Te       7.66839303      12.06225223      11.57919305
Te      14.44667786       6.61216341      11.71167040
Te      13.79236610       8.90628550      13.22274776
Te      11.83135845      17.52582098      13.73683620
Te      10.28848783       6.18752673      14.57184034
Te      16.81419415      12.13488250      12.80964808
Te      13.29378805      15.61321273      15.13344144
Te       8.44362801       7.80082665      15.82683991
Te      14.17229500      11.85857098      14.87678247
Te       8.69552048      14.32057125      12.73959989
Te      12.50363379       7.54363406      15.52268143
Te      11.14987391      14.02639979      17.37825045
Te      12.69872725      11.86389476      17.54980261
Te       9.13948983      12.43898740      15.64080703
39
Properties=species:S:1:pos:R:3 config_type=qcd gap_pre_relax_energy=-116.40006186403258 gap_pred_energy=-117.81222150238551 gap_fmax_final=0.0009708809432928601 gap_converged=1 pbc="F F F"
Te      16.50871366      20.49584679      13.65995229
Te      10.99969623      14.99581524      19.03539895
Te      18.37425607      17.40207985      13.26748129
Te      14.20326918      19.00294144      13.08869861
Te      14.60066685      15.80369888      19.14483636
Te      15.63427338      16.07976504      16.53316277
Te      18.01468759      16.77291381      10.43905745
Te       8.68794450      16.30920472      15.52934205
Te      11.09407568      12.39300433      20.13370190
Te      11.81047072      16.48330359      12.87287414
Te      18.73258590      14.10453198      10.37775227
Te      12.49494060      14.43842176      16.14920728
Te       7.49707929      12.28385196      14.44406175
Te      17.27890717      12.47969963      18.08445719
Te       8.43063519      15.16992504      18.01254174
Te      16.13942736      10.24015666      17.02668054
Te      15.52812930      13.38691905      20.03084677
Te      14.41454022      18.56641472      10.38885681
Te      13.02524786      11.14297272      18.73088564
Te       9.24952454       8.62780742      12.78090791
Te      16.89877892      20.29755317      16.36173412
Te      17.12698061      13.43534240      14.39022946
Te      11.99588428      11.65778324      15.94521809
Te      12.19446222      11.93176754      12.76890376
Te       9.40782339      14.24922568      13.81902282
Te      14.55494435      11.18613254      14.75100198
Te      13.79016855      14.75141868      13.49845689
Te       7.37843010      10.60420032      12.29531800
Te      17.84551748      17.73887106      16.75679842
Te      14.85511057      15.84301440      10.18657042
Te      11.99778057      15.44566168       9.79151244
Te      17.73319507      10.71107405      14.04907155
Te      11.53508238       9.46276474      11.53027045
Te      15.08716817      12.51125247       8.69765235
Te      17.67860186      13.20344933       7.97769510
Te      15.59440273      10.25550641      10.25116266
Te      19.42701527      14.92715107      13.77775032
Te      11.81601657      12.75354623       9.90310025
Te      18.11178832      10.60323311      11.26604992
40
Properties=species:S:1:pos:R:3 config_type=qcd gap_pre_relax_energy=-119.6447685711473 gap_pred_energy=-121.63193153539183 gap_fmax_final=0.0008900138104378375 gap_converged=1 pbc="F F F"
Te      14.09542647      16.49066488       9.34273511
Te      12.09902761      17.52852089      11.11343563
Te      12.64418822      16.54466904       6.92887309
Te      14.70089378      16.08823543      14.64833968
Te      15.62330558      13.62083029       7.61423051
Te       8.94912321      17.08635699       9.18970091
Te      13.33459883      18.15893948      13.54328457
Te      12.85256659      14.32877129      11.50074551
Te      11.55080214      12.25229265       6.38461001
Te       9.25877962      17.83554170      13.05558823
Te      16.85433285       9.30392618      15.88285955
Te      13.77373557      13.96664828       5.58982624
Te      15.16955798      11.09919441       8.58349430
Te      10.24620160      15.27618948       7.57418594
Te      14.77428725      13.31367241      16.81701406
Te       8.23923742      15.63864799      11.42474711
Te      10.51737136      16.72065499      15.19974757
Te      13.61169927       7.05565368       8.13733518
Te      13.44412475      11.51851717      11.00187480
Te      13.04548079      13.60484565      14.37219154
Te      10.97399464      12.34603642      12.56257976
Te      13.74445576      11.34636382      18.39700946
Te      12.08840010       9.78948085       5.27956510
Te       9.58016321      12.68030575      16.66635534
Te       8.57871315      15.25104180      16.55819202
Te      14.19122794       8.33460666      10.55994050
Te      10.00789078      10.55823910       8.82152498
Te      15.16619866       8.44861329      13.84036178
Te      15.46601772       9.07564301      18.21002256
Te       8.80819291      12.59909352      10.54874800
Te      13.09393986      10.61757935      13.86901578
Te      11.68206975       9.87499350      16.51995181
Te       8.61874554      11.44776792      14.34936420
Te      11.18097882       8.03139689       7.23610772
Te       9.29795301       9.70257954      11.44723625
Te      12.55597584       6.87617432      12.42484529
Te      12.75378245       7.24386441      16.82262580
Te       9.65802204       8.73417898      14.62301165
Te      10.01523160       6.88867573      11.37716799
Te      10.99523862       5.96252559      15.22348784
40
Properties=species:S:1:pos:R:3 config_type=qcd gap_pre_relax_energy=-119.13184243917098 gap_pred_energy=-120.75700505424967 gap_fmax_final=0.0009827984883282281 gap_converged=1 pbc="F F F"
Te      18.52794235      13.66336710      12.63377922
Te      16.88922547      11.35717434      13.10182386
Te      16.92144328      10.16180630      10.51830879
Te      16.90222173      15.26169020      11.25498443
Te      15.96595560      13.65537425      15.24374949
Te      15.49528775      13.02636207       9.44939916
Te      15.94678296       8.33377742      14.20880771
Te      16.82031895       7.55573882      11.72032840
Te      13.08695693      12.88205515      11.76647038
Te      13.18802239      12.45166723      16.57429305
Te      14.04872879       8.79163113      10.02288179
Te      13.14918622       8.66140415      14.18463997
Te      14.24764295      15.36661532       8.46366014
Te      12.55807051      15.60432611      15.71794877
Te      14.22452516      10.84089510       7.97025874
Te      14.54926091      15.14230721      13.46287871
Te      12.21959352       6.53685360      11.84318968
Te      13.69626361       9.70178719      16.75748866
Te      11.63945502      10.39253429      11.10063024
Te      11.40485289       7.73600871       9.38718321
Te       9.08224396      10.65604967      16.85498122
Te       9.75795477       5.71865963      12.81941964
Te      11.33633134      11.56926262       8.36347337
Te      10.52964186      12.48123793      12.96835532
Te      10.58903385      12.79091155      17.68104946
Te      10.38945287      15.08446642       6.49770075
Te      10.25026002       9.48937804       6.85004006
Te      11.56363989      15.13509238       9.01996302
Te       8.92642817      11.19913443       5.03465823
Te       9.72889591      17.22634995      13.11218798
Te       5.91031964       7.90075741      12.41655768
Te       8.47616657       8.13113824      13.39885567
Te       7.56317857      12.54216460      11.03666210
Te      10.03087346      14.99588962      14.84699511
Te       5.96741211       8.67747763       9.77410631
Te       7.98629320      11.33387660      14.47192903
Te       7.91293013      15.03281377       9.78721813
Te       5.42556835      11.37623522       9.71899579
Te       7.36870360      16.85087757      11.82571677
Te       8.31749012      13.27940640       6.73298534
41
Properties=species:S:1:pos:R:3 config_type=qcd gap_pre_relax_energy=-122.1309703913429 gap_pred_energy=-123.50576273890228 gap_fmax_final=0.000991816618919671 gap_converged=1 pbc="F F F"
Te      15.57490490      18.06248651       9.75248419
Te      13.63056906      13.02650132       9.35128534
Te      10.92651363      13.32572278       9.20953040
Te      10.53727458      15.11570020       7.09873264
Te      16.75704508      16.07083571      11.28286160
Te       8.64726682      16.91075007       7.92945115
Te      15.60155066      20.47823170      11.08813298
Te      19.00008269      10.59159558      12.92670773
Te       9.87769586      18.58159124       9.76181559
Te      12.82105191      16.71878643      11.03984444
Te      17.45050695      13.53017507      15.64929354
Te      18.06216238      13.19110857      12.94375183
Te      14.33463834      14.52330131      11.74073502
Te      11.84180777       9.22897335      13.85782132
Te       8.35854007      11.52198283      12.50706017
Te      11.04670953      11.11085250      11.98462608
Te      15.81779767      19.96186666      13.79574813
Te      16.76163407       8.99851252      13.07385190
Te      18.65517259      16.93575828      15.06356102
Te       8.84232383      17.82935129      12.19693084
Te       8.20338551      13.84056450      13.95280098
Te      18.52960292      19.54809484      14.20466187
Te      13.28816733      13.36501136      15.83818556
Te      18.95838075      11.60174416      16.96538795
Te      12.82985525      17.68025423      14.46897282
Te      16.74905038       7.90975397      15.59739318
Te      14.70482573      15.59465973      14.84212583
Te      11.49858801      10.37449832      16.34179896
Te      10.16750621      15.50123883      12.85143868
Te      19.99767646      12.91672644      19.18928031
Te      19.88366020      17.03698437      17.52336800
Te      18.05573192      15.96672206      19.31143313
Te      15.79784716      19.13790527      17.26853840
Te      12.93068100      13.90240764      18.51087701
Te      13.06372540      18.97243949      16.89570318
Te      15.81342437       9.87537134      17.30206772
Te      16.26610871      18.04136918      19.76088577
Te      13.22897811       9.07077440      18.03088404
Te      14.43519934      12.05493029      19.89579796
Te      18.54438634      12.06073647      21.36124467
Te      16.25632645      13.58208506      21.38128399
41
Properties=species:S:1:pos:R:3 config_type=qcd gap_pre_relax_energy=-122.28278195031102 gap_pred_energy=-124.36313459358668 gap_fmax_final=0.000986355959712512 gap_converged=1 pbc="F F F"
Te      11.29345948       5.50144237      10.94997721
Te      15.32677037       6.40122524      13.14307439
Te      12.60236583       7.69550387       9.75843951
Te      15.27920579       7.73585872      10.70537585
Te       9.37890512       7.40446271       9.12440493
Te       9.88382465       6.70500879      13.02133413
Te      13.64964097       7.69950336      14.88218000
Te      11.51089911       9.25848825      13.09950934
Te      17.31333172      10.27022276      14.27382973
Te       6.92561175       8.74427659       8.50870433
Te      10.92541137       9.93385535      15.72875751
Te      13.12498724      10.69426494       8.28495791
Te      15.43648721       9.72773190      16.13880891
Te       7.67086457       8.00623312      11.49121250
Te      10.45201794       9.95847953       6.85105971
Te      15.21303269      11.05853352      10.35975623
Te      16.43807739      12.57571640      12.82086095
Te      13.49031841      11.78187175      12.62253925
Te      14.27162833      13.52578909       9.12756912
Te       7.86341539      11.42187861       8.51064057
Te      15.49081223      13.59547538      16.98396611
Te      15.66371818      15.19897407      11.04988502
Te       9.45646620      10.58520053      11.33706141
Te      10.84030315      12.19123594       5.36400669
Te      13.05091293      16.56530712       9.14974164
Te       7.36545178       8.72730281      14.37286813
Te       5.74984853      12.93515403       9.61873419
Te      11.36193591      12.44953807      10.14808879
Te      10.36162508      12.88038263      12.94771174
Te      16.68286906      14.72200518      14.87500656
Te      13.24906325      12.12742116      15.86208514
Te       5.89473111      12.85016837      13.94192999
Te      11.50810317      14.16706795       7.30212240
Te       8.19001099      11.38715921      14.86262018
Te      10.75995894      18.12658043       8.72486553
Te       8.70951015      14.54747657       7.67874027
Te       6.82024793      14.25933231      11.77373743
Te      13.87654769      15.56892106      13.30299887
Te      11.67991094      14.40458339      15.33264175
Te      11.70988921      15.47383575      11.48182572
Te       8.81483732      16.42354027       9.77337940
42
Properties=species:S:1:pos:R:3 config_type=qcd gap_pre_relax_energy=-125.38422889795861 gap_pred_energy=-127.15417154835261 gap_fmax_final=0.0009983600447263834 gap_converged=1 pbc="F F F"
Te       6.42629521       8.09678258      13.37179764
Te       9.10059957       8.93458095      14.65485872
Te       6.81320293       7.65427945      10.65208179
Te      12.19774765       6.11338696      16.00688661
Te      11.46796467       6.36234008      13.39223065
Te       5.90943839      12.92697972      15.38793203
Te      15.47323110      10.06049870      13.98538581
Te       7.73543079       7.57418304       7.19136334
Te       5.94917750      11.24626483      12.79224680
Te      11.03930886      10.19171628      16.90940973
Te      13.92721024       7.08750103      12.19942495
Te      10.29643960       8.59920245      10.55745232
Te       6.31839786      10.31897509      10.06724956
Te      13.23021912       8.63312106      16.62101973
Te       8.54215792      13.33142755      15.51155556
Te      16.49932155      12.24641893      15.36574939
Te      10.12983832       6.89940626       8.38799472
Te      12.76189989      11.13080222      13.40567412
Te       5.94147172      14.07806086      12.00947421
Te      16.96427241       7.88896089      10.56799957
Te       9.43795858      11.01294164      13.01033149
Te      12.14777903      12.82238261      15.63653626
Te       6.65832163      13.79382352       9.31907498
Te      15.52178446       7.58082642       8.24581562
Te      16.57817339      10.56398757      11.21402776
Te      13.10679701       9.24448234      10.70343893
Te      12.81768182      14.12030092      11.48420052
Te       8.84296307      14.84694058      13.01243088
Te       8.44771018       8.32389011       4.61891378
Te      14.62843228      14.21015438      14.95356695
Te      16.22522378       9.71627316       6.65102059
Te       8.37789150      12.21546060       6.61467146
Te       9.96973377      10.59692819       4.97563226
Te      11.64136421      15.20410128      13.85261889
Te      15.19582817      13.02635077       9.26596723
Te       7.69424852      16.26659565       8.64367904
Te       9.98076575      14.45798563       6.71450589
Te      17.43387554      11.54741355       8.29928523
Te      12.32721206      13.14172101       5.91526862
Te       9.54423120      16.93296079      10.62697188
Te      11.96845517      15.92783532       9.56864834
Te      14.28219332      14.62400476       7.18785589
42
Properties=species:S:1:pos:R:3 config_type=qcd gap_pre_relax_energy=-125.91185358772456 gap_pred_energy=-127.26014493389668 gap_fmax_final=0.0009156468710211774 gap_converged=1 pbc="F F F"
Te      13.74726561      17.00847660      12.30248394
Te      11.08175650      16.45193751      12.05021758
Te      14.58480529      14.90032688      15.14002101
Te      15.04070737      14.99552591      10.76332159
Te      11.97945924      14.90746207      16.56895380
Te       9.86751033      16.34845694       7.32186513
Te      10.20443820      16.67966676      14.79091371
Te      16.42004553      13.55139736      12.61514553
Te      15.86356845      12.93663418      16.57153311
Te      12.17234315      15.66918817       8.69544073
Te      16.61314862      12.98286740       8.50442503
Te      14.51341682      10.60263046      15.92950154
Te      12.12434459      13.00873322      13.05899932
Te      13.84652826      14.61053021       6.69005951
Te      18.15062749      11.94204567      10.35311076
Te      16.25065466       9.12457748      10.50499165
Te       7.95434490      14.65298551      11.70421704
Te       7.89314403      14.59528566       8.10080522
Te      11.33855735      12.23621558      15.81292497
Te       7.92869129      15.01800357      14.43972086
Te      11.24340466      11.63239915       8.54672947
Te       9.64146335      11.29776552      11.57349701
Te      14.65267705      10.41534120       8.39132378
Te      13.95622079      11.19416432      12.44745180
Te       5.62185699      13.00433830      11.46522895
Te      12.96557196      12.07715351       6.25767645
Te       8.73525067      12.03628654       7.46102297
Te      16.31972986       8.71604127      15.00303556
Te       5.56175401      11.61688928      13.77408642
Te      11.57376567       8.65866196      14.71329725
Te       8.33171568      11.71600210      14.71174284
Te      11.41938913       9.05218973      11.93934595
Te      14.47084605       7.08903526      11.26049243
Te       7.25588010      10.38844631      10.17927619
Te      13.52981192       7.80961437       7.93269989
Te      10.87544522       8.01191483       8.49595947
Te       5.98135660       8.63678730      11.94394146
Te      14.65222647       6.77499838      14.01365980
Te       8.96508334       9.08749428      15.48414419
Te      10.01301406       5.36671721       8.77754532
Te       6.15465707       6.15061369      10.73193352
Te       8.71542363       5.25610032      11.18915921
43
Properties=species:S:1:pos:R:3 config_type=qcd gap_pre_relax_energy=-128.05053799943263 gap_pred_energy=-129.96479219157615 gap_fmax_final=0.0009030692264977064 gap_converged=1 pbc="F F F"
Te      14.46587357      11.87191150       5.13331642
Te      16.73428260      13.12293071       6.00311456
Te      12.97531234       7.94548666       7.21180103
Te      15.97111534      15.71904359       6.67243313
Te      15.95045000       7.93003889      12.25389251
Te      16.35538079      15.26674870      10.08174140
Te      13.27311157      15.85150470       6.61658446
Te      12.74660924       6.44898683       9.55669347
Te      12.47238418      12.61900575       6.91958116
Te      17.30572985      14.69147177      12.61741514
Te      13.70528638      18.73191337      10.27913789
Te      11.57368959      10.20876069       8.14373534
Te      10.42858799       7.88645461      10.28974115
Te      16.34485995      18.04982273       9.86152196
Te      14.19588679       7.07990068      14.23206975
Te      15.02026730      14.72210186      14.30143529
Te      12.39644201      16.38914976       9.45000800
Te      15.25863633      12.05285646      10.79705757
Te      14.37682433       9.40589201      10.53423633
Te       8.03775829      14.97070520       9.60829259
Te      12.40070617       5.34969185      12.89058287
Te      13.28352071      13.15046094      12.64117720
Te      12.42504728      16.08984428      15.43094396
Te       9.85611504      12.84824304       9.14948492
Te      12.92328396      16.53306440      12.53993879
Te      13.65433303      10.61525326      13.95459154
Te      13.62398441      11.98152682      16.42523066
Te       8.10452509       9.82871055      11.89816877
Te      10.15301653      11.69633142      11.70469551
Te       8.66699912      16.01350752      12.05822379
Te      13.72126109       8.10460120      18.54631816
Te      10.02158954       6.74790737      12.85484366
Te       6.20854828      13.59940751      13.26823428
Te      12.30467191       6.25488618      17.09901152
Te      10.87163951      13.63588245      15.57241133
Te      10.64048734      17.91690137      11.46224691
Te       6.33593200      10.89946626      13.78174844
Te       9.07909232      15.86232889      15.66259627
Te       9.66122021       7.08941981      17.15783684
Te       9.44842788       9.21987808      15.38202221
Te      12.28595393      10.48020611      18.33473761
Te       9.33041750      11.39793312      17.00875497
Te       6.51279396      14.82191635      15.71444592
43
Properties=species:S:1:pos:R:3 config_type=qcd gap_pre_relax_energy=-127.96096287286466 gap_pred_energy=-130.1413737153409 gap_fmax_final=0.0009102842367783695 gap_converged=1 pbc="F F F"
Te      14.96812147      17.13370830      10.61210669
Te      10.89357814      18.78028174      11.26826010
Te      14.40171554      16.85879883      13.60955716
Te      14.07832120      16.91283846      16.93860897
Te      12.56845252      17.73984587       9.34996065
Te      15.15666554      14.47634731       9.69838305
Te       8.50434049      18.47420695       9.81639755
Te      16.31841003      11.63239433       7.98312410
Te      15.76823480      14.31166559      13.99245479
Te      16.11131643      15.06928492      16.92227202
Te       7.96251717      15.79680867      10.07646708
Te       8.24768040      14.63091098       7.53551386
Te      16.77042184       9.26463485       6.62878452
Te      11.20925514      16.56985421      13.66226927
Te      11.25411318      13.00086102      13.11821877
Te      16.41713197      11.52217775      15.19413455
Te      16.97877609      11.08805890      10.65085315
Te      11.68383425      15.61525489      16.44399113
Te      11.93337082      11.41912633       6.97177592
Te      14.96293110      12.36055014      17.62715510
Te      14.29955728      12.77024705      11.80548389
Te      12.81072448      10.22035595      10.26108600
Te      12.51095890      12.65992211      16.26180527
Te       7.97681389      13.47228139      13.96087657
Te      12.52976300       9.17551880       5.50234384
Te       8.33698743      16.15463958      13.57369939
Te      14.48306001       9.80924027      14.26781252
Te      10.89561590      10.30891249      13.29241911
Te       7.58885281      12.01071187       7.84949040
Te      15.30120390       8.98502908      11.18125338
Te      13.28135218       9.75573774      16.93204028
Te      14.44938532       7.80799692       6.92816748
Te       7.70728504       9.75209739      11.34702852
Te       9.91975810      10.60999432       8.72511449
Te       9.86472299       9.93765359      15.92002327
Te       7.43924993      12.51175367      11.32661741
Te      12.94510307       6.90750259      16.38679439
Te       6.24410277       8.91021639      13.54520942
Te      11.67135062       7.77156445       9.49765124
Te      13.38146428       5.91615502      10.67694690
Te      11.96106564       4.72175990      12.70732030
Te       7.14609510      10.43917938      15.63581688
Te      11.12429619       6.79187697      14.37266758
44
Properties=species:S:1:pos:R:3 config_type=qcd gap_pre_relax_energy=-131.48684728072897 gap_pred_energy=-133.10455362187645 gap_fmax_final=0.0008768756055126273 gap_converged=1 pbc="F F F"
Te      14.07851880      11.45075252      15.63635409
Te      10.92646724      13.24512464      16.24899963
Te       9.07552185       7.33373705      15.35214044
Te      15.62852165       7.48829242      14.99848546
Te      10.94005541      10.25864734      18.29574610
Te       8.63054626       9.59024194      16.80726897
Te      14.02129702       7.47150458      12.76388384
Te      13.06555987       9.09994165      17.09528728
Te      15.57057303      14.03843405      14.53963381
Te      16.46721966      10.09394334      15.24102190
Te      11.52539782       7.16080407      10.00896905
Te      14.46288166      15.82900503      16.28310357
Te      10.21082451      15.69412202      15.08957906
Te       9.67590912       8.19545494      12.71905450
Te      10.16301942      12.63141371      11.68643941
Te      17.82444655      12.89991671      10.63833621
Te      11.97313998       9.64473311      13.62892358
Te       7.18177656      13.64665158      14.94841425
Te      15.25754493       9.30352365      10.70374336
Te      13.11948882       6.82702466       7.74708402
Te       6.40623131       9.70012454      13.26790255
Te      16.22177432      15.16136234      10.41350704
Te       5.13549007      11.90441375      14.36301369
Te      16.72139686      11.28916295       8.72192116
Te      14.09366715      14.79717498      12.11328558
Te      12.77789099      11.40653337      11.50937483
Te      12.55794820      17.12115884      14.77544891
Te       9.59126979      11.61655796      14.35410129
Te       7.16297545      11.68708899       9.40844506
Te      10.48977199       9.80583111       9.95064908
Te      12.83180882       9.99160765       6.23654150
Te       9.64355280      13.22972762       7.25557615
Te       7.82398115      14.87126927      12.40029242
Te      15.63417015       7.52103524       8.57547957
Te       5.67708567       9.67514675      10.62297164
Te      14.99247759      13.46974113       7.71264317
Te      13.08462010      16.00335439       6.94521432
Te      12.04479828      16.09852726       9.50408851
Te       6.03197582      13.97680292      10.50964996
Te      13.80754749      12.42726641       5.32455671
Te       8.82962797       8.90507232       7.71961198
Te      11.37378929      14.31615873       5.36240671
Te       9.41382981      15.28691436       9.12550977
Te      10.09985431      10.08094373       5.64158545
44
Properties=species:S:1:pos:R:3 config_type=qcd gap_pre_relax_energy=-131.084151956955 gap_pred_energy=-132.75387794198696 gap_fmax_final=0.000868711309405323 gap_converged=1 pbc="F F F"
Te      17.95858143      16.70515583      13.54501249
Te      14.21102501      16.61050273       9.16204682
Te      11.54854295       9.51695852      17.99113569
Te       9.74684999       8.98300416      16.03164113
Te      17.79389904      14.85191154      16.85820615
Te       9.73391434      17.09529770      17.32618025
Te      15.38073729      19.50707745      16.02402846
Te      16.14904370      12.06306326      19.89824407
Te       8.13271752      12.14386815      13.38775183
Te      20.73823288      14.45453073      13.59646050
Te       9.85251564      15.37784966      10.91791025
Te      11.63853209      18.14181841      12.23403495
Te      15.85944134      15.16555094       7.44216458
Te      19.34418660      10.69153362      11.72504878
Te      18.07386825      13.96746171      19.57248998
Te      16.13362025      18.50149564       9.93874242
Te      11.22758425      13.29033082      18.79778855
Te      13.48405016      15.39418484      19.09691796
Te      11.86480575      14.02893822       9.50706089
Te      13.03581997      20.54126107      12.50867422
Te       8.03662488      11.18527620      15.95055743
Te      16.18025560      12.70322474       8.64726011
Te      16.03823388      18.56591045      12.69335558
Te       9.34330023      14.35354664      17.08837607
Te      15.98923763      16.91832919      19.36252649
Te      14.01402708      13.40595362      21.02918879
Te      19.57236544      13.07251468      15.66488784
Te      17.14207893       9.84206786      10.38076072
Te      12.34859866      17.59375375      16.74113908
Te      13.21632400      12.57195535      13.58417887
Te      13.17502839       9.68209187      10.06328561
Te      13.71746028      11.45858114       8.11807839
Te      12.77679105      16.39460511      14.03900784
Te      19.65450260      13.40408180      11.25361316
Te      13.21447598      11.57177732      16.88772477
Te      14.96438318      10.35520140      12.31522200
Te      15.62520338      10.04106541      16.76547568
Te      15.05315942      13.82155571      15.37943065
Te       9.90443308      14.29734372      13.45895158
Te      13.24301041      21.05690604      15.18619461
Te      16.78973486      14.20689039      13.11752443
Te      15.12567715      19.43839920      18.80216475
Te      17.02991203      10.61738197      14.52045737
Te      13.94402896      14.41660703      11.39591381
45
Properties=species:S:1:pos:R:3 config_type=qcd gap_pre_relax_energy=-134.1745093832715 gap_pred_energy=-136.35468587478024 gap_fmax_final=0.0008816529911233486 gap_converged=1 pbc="F F F"
Te       6.12211669      10.43757547      14.84181115
Te       7.80860700       8.64191844      12.13539704
Te       8.60386100      11.19887160      15.96266053
Te       5.15493484      12.63794677      13.53033779
Te       7.89252903      11.41090201      10.38411613
Te      10.10870955       9.27853655      14.17241656
Te      11.63915536       6.62440217      14.01830869
Te      11.32491375      10.83611624      17.79189710
Te       9.18421373       7.03184620      10.40497892
Te       6.59939637      14.80014114      14.41601224
Te       8.64440214      15.12985625      12.54518834
Te      12.80146718       9.51796511      15.42769005
Te       9.53889034      12.05795619      13.21737125
Te       7.60500397      14.22939114      10.13644329
Te      12.65131385       8.95566534      12.53396606
Te      10.36970010       5.16236933      12.07661439
Te      12.63932398       9.87620612       9.31831420
Te      12.39173769      13.31815201      17.96652257
Te      10.39042389      15.10408244      17.26143070
Te      11.25517448      16.00370109      14.76033924
Te       6.43798848      10.84309165       8.01895768
Te      12.48726806      13.44939406      14.30014395
Te      15.17437523      13.77808500      15.43644852
Te      10.93620375      12.59009705      10.59520365
Te      13.26736065      16.67153576      12.06649296
Te      14.96012492      10.76706447      11.41008180
Te      10.29406414       9.15536144       7.74045170
Te      15.73037823      10.17081873      16.19983877
Te      11.36812288      17.68747651      10.35309142
Te      14.82065758       8.70352443       7.94838351
Te      16.91875430       7.93220885      15.25850071
Te      16.68300735      12.01655273      13.56475049
Te      16.25301201      15.98351785      13.80228372
Te       7.70586907      12.23012388       6.04964724
Te      16.80561996       8.70341915      10.89304579
Te      13.45836213      13.83493111      11.37080028
Te      17.13356543      14.34516819      11.83790715
Te      10.19111910      10.98793100       5.73519998
Te      12.44454046      17.38588895       7.82436459
Te      16.11199253      10.78487126       6.72508120
Te      14.58267854      14.53433910       8.51686162
Te      18.45644063       8.75366438      13.10361373
Te      10.97069691      15.38444923       6.66168915
Te      16.63398528      12.67224030       8.69493903
Te      12.14442998      13.07713589       7.68689764
45
Properties=species:S:1:pos:R:3 config_type=qcd gap_pre_relax_energy=-134.0453181938456 gap_pred_energy=-136.80202126703503 gap_fmax_final=0.000962104278457441 gap_converged=1 pbc="F F F"
Te      13.77802588      19.54291300       9.94097507
Te      13.67352992      17.30914882       8.33285943
Te      16.92235896      12.79273704      11.99300812
Te      15.35245333      13.16896406       9.76399184
Te      11.17929717      18.89201344      10.98658179
Te      16.64641194      14.88204567      16.18047937
Te      14.39042337      15.85120434      14.85214647
Te      17.56110993      10.67851271      15.48327514
Te      17.57872868      10.10994802      11.85308159
Te      15.62514216       8.97524825      14.26894146
Te      17.88973587       9.92616700       9.03524682
Te      11.97106959      15.05209248       6.71616745
Te      12.75799662      13.96443931      10.79977193
Te      15.96509712      12.33525152      17.01024473
Te      11.91050656      17.08321170      13.08593778
Te      16.37303561       7.86907665       8.12885725
Te      13.82206760       9.76096779      18.23544191
Te      13.27544531       8.81834925       5.86610940
Te      13.19128343      13.30865167      13.86594256
Te      11.00880948      16.41904361       9.24988221
Te      12.41313778      13.67109387      16.63571782
Te      11.00435557       9.55968712      17.32891044
Te       7.08885190      11.02757970      11.07686316
Te       7.53014309      11.71592333       7.24614677
Te       7.78356317       8.56743513      10.06427554
Te       9.28766767       9.66934053       7.79159503
Te       7.19650370      14.62356385      10.55397659
Te       5.49509404       7.99494945      14.84456300
Te       4.39836891      10.84102183      11.66666722
Te       8.00829798       8.62330857      15.75832238
Te       9.65602042       8.53655240      13.35843792
Te      13.55505582       8.19097471      11.87646084
Te      12.50258978      10.73973229      10.91637864
Te      11.51313989      10.83505504       5.72575480
Te      12.65749993      12.69327457       7.86096911
Te      10.16256520      12.15996357      17.04283597
Te       9.06896768      16.59072403      11.62052589
Te      10.96714955       8.29066117      10.50322941
Te      12.35822534       8.91598389      14.44639719
Te      13.65809686       8.48392509       8.71517896
Te      10.59739936      14.40255731      12.90170833
Te       8.70833823      13.99979622       8.37021282
Te       4.23176167      10.39848858      14.37496967
Te      10.91699187      11.29296520      13.31554298
Te      14.67836886       7.74613905      16.66610001
46
Properties=species:S:1:pos:R:3 config_type=qcd gap_pre_relax_energy=-137.53496059746303 gap_pred_energy=-139.4133982503998 gap_fmax_final=0.0009742102351053328 gap_converged=1 pbc="F F F"
Te      20.00793166      15.90538589      16.06206468
Te      21.86320338      14.06412153      17.03026015
Te      17.82008089      12.55727786      18.10601035
Te      17.69454446      14.26511981      20.29118884
Te      16.81090593      19.42459557      16.79042900
Te      13.51638802      17.46416659      16.92583465
Te      14.30512612      13.38949885      18.47652197
Te      20.00757367      13.53667516      13.38045159
Te      20.49693860      17.61513125      11.62896525
Te      17.07991012      16.70870953      19.17660854
Te      13.61441612      15.95702341      19.24835480
Te      20.49719463      11.82720466      17.81446282
Te      21.86278655      15.37761242      12.41158436
Te      19.57141278      17.58740075      18.22410431
Te      14.94685179      21.14392099      15.71230898
Te      18.33841487      18.66743863      14.51451973
Te      15.07718076       9.90916999      17.70844006
Te      17.41823453       8.85252795      16.70004499
Te      18.33834514      10.77497386      14.92879858
Te      14.30433216      16.05423420      10.96753295
Te      13.61294532      13.48685766      10.19574844
Te       9.32539661      11.87300311      13.92181765
Te       8.15187839      17.41500425      11.26913314
Te      12.31726414      17.80457925      10.03483427
Te       9.32559194      17.57200828      15.52225468
Te      10.67375183      11.26433081      17.23721892
Te      17.07827992      12.73411479      10.26662173
Te      17.81966021      16.88552035      11.33741915
Te      10.67401454      18.18083209      12.20644606
Te       8.15160832      12.03025273      18.17442168
Te      13.51564939      11.97927357      12.51789415
Te      17.69296591      15.17764522       9.15216069
Te      13.38400690      19.62224983      13.99550145
Te      15.07740673      19.53437449      11.73509469
Te      13.38353697       9.82203135      15.44838978
Te      14.94582793       8.29939087      13.73179442
Te      11.19074925      10.46912464      12.43572062
Te      16.81003655      10.01797341      12.65313913
Te      12.31736138      11.63991448      19.40874431
Te      11.19172760      18.97451035      17.00860389
Te      17.41866810      20.59026891      12.74332382
Te      19.56994168      11.85496542      11.21840745
Te       7.75845863      13.15564353      12.04138344
Te       7.75833505      16.28963188      17.40276692
Te       7.24234844      15.64359883      13.15862946
Te       7.24202276      13.80191763      16.28525012
46
Properties=species:S:1:pos:R:3 config_type=qcd gap_pre_relax_energy=-137.40409063095203 gap_pred_energy=-139.33154102718024 gap_fmax_final=0.0009747621955877913 gap_converged=1 pbc="F F F"
Te      12.13629717       6.33315302      12.39146129
Te      10.20566564      11.99860499      12.71738660
Te      10.21128148      11.35470913      17.27844742
Te      15.85557553       9.00931527       7.86479543
Te      15.08446993      15.66134254      11.11192567
Te       9.51319489       5.54266495      12.01113799
Te      10.94914502      15.89257508       8.30399790
Te       6.69335656      11.93143656      10.48242026
Te      14.14634315       7.89464485       9.72560602
Te      10.87409470      17.17295250      10.80504630
Te      10.29584576      10.33623528      10.26494677
Te      14.47260978       9.50774435      11.98615249
Te      14.52253221      12.70416425      17.19881245
Te      15.53017145      13.42713041       8.88116696
Te      15.49888505      15.03313090      16.19095855
Te      13.04163833      12.06405831       9.61004521
Te      12.04085759       9.37280149      17.82262888
Te      11.30186761      18.72253915      13.86382170
Te      11.66970392      13.54755677      16.41227619
Te       7.64534267      11.25637531      14.70920425
Te      12.07755277       9.40153387       5.72031981
Te      14.64176903      11.26512857       6.91188943
Te      13.21708356      16.44951263      15.04310615
Te      14.96005662      17.62899527      13.24473830
Te      15.52826302       7.16615433      13.39759852
Te      12.23926799      13.69585156      11.76251999
Te      10.84079267      11.86714593       5.98465397
Te      11.91406912       7.63426112      15.63452091
Te      16.09002373      13.31210721      13.28457887
Te       9.07046163      17.59750895      14.71003906
Te       8.91875516       7.96831313       8.35123734
Te       8.76154297      11.52781970       7.76356474
Te      16.91142315      12.10930810      10.90283901
Te       5.80149389      12.43691873      13.04754365
Te       9.10202639       7.01322363      15.47362939
Te       8.46731285      16.09773080      11.82309574
Te      15.61733816      11.10031325      15.04493910
Te      14.33118589      18.01052653       9.64274765
Te       8.17445241       8.65672358      13.52289693
Te      11.35482390       9.19198840      12.72437178
Te       9.20590369       5.34091053       9.28337738
Te       9.91477178      14.86256115      14.07277180
Te      13.26918806      17.09194426       7.31001471
Te      15.13992351       7.90411834      15.90464394
Te       8.50627618      13.93942293       9.71824155
Te       9.93514750       7.64662645       5.76766606
47
Properties=species:S:1:pos:R:3 config_type=qcd gap_pre_relax_energy=-139.97405596589624 gap_pred_energy=-142.7837303622349 gap_fmax_final=0.00072936933082503 gap_converged=1 pbc="F F F"
Te      10.49576462      16.89409577      12.34856795
Te      12.83940346      10.53411341      11.24705124
Te       9.34590146       9.75133575      15.88944109
Te       9.29013639      15.10329563       7.67602016
Te       7.36653577       5.30865396       7.03462661
Te      12.18325900      16.85003632      14.53023988
Te      13.94832432       9.64344124       7.50591862
Te      16.60786950      13.43485248      15.30331484
Te      12.53429590      16.71823159      10.06728842
Te      14.68368115       7.41125568      11.19840340
Te      13.86705947      13.25824312      11.39485482
Te      11.25064130      14.20388198       9.56370213
Te       7.25029808      10.48529940      13.70128389
Te      10.35540019      13.11975305       5.86507388
Te       6.22864199       6.59223826      11.73400859
Te      11.16262576       9.72859395       8.42772533
Te       7.88736160      12.75809392      15.57845555
Te      11.88387988       7.45462706      10.95857846
Te       8.94794639       7.94838435      13.55407775
Te      13.75519394       9.43541404      15.48594711
Te      14.74708538      16.68705928       7.88636620
Te      12.52429012      14.42188417       4.80084850
Te       8.91491086       5.76750728      11.16262333
Te       8.13725174       3.87213909       9.22129309
Te       7.86470492      16.23519985      10.20260603
Te      10.24175682      10.59186360      13.18820750
Te      14.43603391      14.17999142       6.81500760
Te      10.52937336      14.54894246      15.56961060
Te       5.96038699       9.23697047      11.13555797
Te      11.37926021       6.16390138      13.41987103
Te      16.42163562      16.12215343      14.77142717
Te      16.12873590      13.21005821       9.73593258
Te       8.84727889      12.12212982       8.68547499
Te      15.29377621       7.00014729      15.57567713
Te      12.33980490      12.38315494      14.90770936
Te      14.32559897       5.44596296      13.60403984
Te       7.63845185      13.79927906      11.28788321
Te       9.68196729       6.38978132       5.97425004
Te      14.48396483      12.79420341      16.86830689
Te      10.57155037      13.66429802      12.79604350
Te      14.75176425      16.34985712      12.50524671
Te      11.60039303       8.12886966      16.57127224
Te       9.41947553       9.09829768       6.20619055
Te       6.68331727      14.58009345      13.94914638
Te      15.38766630      10.01176576       9.76938324
Te      16.51341572      16.08577131      10.19090262
Te       8.19011508       9.37306308       9.03272846
47
Properties=species:S:1:pos:R:3 config_type=qcd gap_pre_relax_energy=-140.1327355269069 gap_pred_energy=-141.4201196499272 gap_fmax_final=0.000982769486516555 gap_converged=1 pbc="F F F"
Te      20.06449442      16.10445284      14.29330401
Te      20.40552817      12.67463238      15.46065963
Te      19.83856822      14.09857344      11.37888692
Te      20.06688504      11.80194146      12.82963143
Te      17.24896921      10.28355641      17.44409257
Te      19.78488342      18.26166143      12.67299345
Te      19.06344126      16.80584941       9.10985455
Te      17.88939607      16.35963776      18.16127918
Te      17.88484835      12.87774426      16.54485978
Te      20.20979548      17.17301984      16.86709544
Te      15.86050467      14.43019212      13.79397656
Te      16.09654559       9.05178489      15.29033528
Te      16.86645512      14.03695362      11.15830886
Te      14.55254612      13.44908845      17.76553265
Te      17.77309914      14.82752365       7.73169229
Te      16.71066580      11.20750823      11.59402764
Te      13.99816155      10.91023064      18.80981665
Te      15.27493233      14.87919306      19.99713223
Te      15.54826959      19.28057201      13.55530314
Te      13.66440533      17.16573759      20.02757075
Te      17.29013887      17.72607774      11.14612182
Te      14.42235910      17.36477288      15.54767536
Te      16.11080909      18.38929396      17.82312892
Te      15.37668094      15.85606217       6.85669462
Te      14.27967866      11.84846720      14.46137561
Te      13.50231477      19.38079040      11.74983230
Te      13.96597005      10.18353673       8.30333550
Te      13.59696004       8.20690382      16.09486379
Te      14.04983057      10.75288253      11.00740853
Te      13.16691930      15.82995327      13.04181665
Te      12.09823049      18.61613852      16.44291112
Te      11.48978782      11.24616409      19.91285523
Te      13.45785579      14.58643576       8.44635067
Te      11.51110768      16.46694710      21.50439702
Te      10.21718298      14.30675158      19.81240716
Te      10.59466665      17.29566735      12.56751432
Te      14.57149215      17.75426990       9.78537556
Te      11.98742936      13.47548443      14.04873081
Te      12.69802278      12.30283765       7.09702519
Te      10.03830796      16.80859366      16.04939187
Te      11.97405276      10.39622633      15.42900013
Te       8.71921650      15.42681486      11.98087833
Te       7.87891859      12.72561566      19.08809751
Te       8.92400064      16.50194540      18.55550557
Te      10.13573710      12.22644156      17.51712362
Te       7.80076696      14.39966098      14.39342532
Te       9.08612523      11.99236868      14.59736218
48
Properties=species:S:1:pos:R:3 config_type=qcd gap_pre_relax_energy=-143.39804619540953 gap_pred_energy=-146.05064415711777 gap_fmax_final=0.0009114145994015034 gap_converged=1 pbc="F F F"
Te      11.43554213      10.22971701      18.58107569
Te      10.56111536      12.86135002      18.26106498
Te       8.96570674      17.32745179      14.57638360
Te       9.81108929      12.68955426      15.57871071
Te      15.93118912      15.72376104      20.58675782
Te       7.42402467      15.68910404      12.98101860
Te       9.37548723      15.64152302      16.81086415
Te      14.07903661      10.44328847      19.30429783
Te      12.66344881       9.42226097      14.59744720
Te       9.99066519       9.91378716      15.06795451
Te      10.81854874      20.70834256      12.19854331
Te      15.87312843      13.02648482      21.28164734
Te      13.98568087      12.21941924      15.20735803
Te       8.78805142      19.08485917      11.54835467
Te      13.35758127      16.35357199      19.92001767
Te      13.34997507      16.98122152      14.06289727
Te       9.51370383      13.90266046       9.62274844
Te      12.09475983      15.02270852      16.25979398
Te      18.88883019      11.93683469      18.29326011
Te      13.47704950      17.30013323      17.25721826
Te      15.58171352      10.72654595      16.99016133
Te      18.45706071      12.14193326      21.02184590
Te      12.82050426       9.48763641      11.80677258
Te       9.03322222      13.50930085      12.30315915
Te      12.59858763      14.10042821      12.43648647
Te      18.88108232      16.25829037      18.40344754
Te      15.31997481      14.79027102      15.70398887
Te      12.36805234      14.57224110       9.61390462
Te      15.28778128      10.50458050      11.17959074
Te      20.54829369      14.13109967      17.74509690
Te      11.14931927      20.34602762      14.99974499
Te      18.35640071      11.33727833      14.84795997
Te      15.38366149      13.17764366      12.24368766
Te      12.89268830      18.40326155      11.42638248
Te      15.51225331      14.21184361       9.54004578
Te      10.66763147      16.95490861      10.45111540
Te      13.80190317      19.68797937      14.95489106
Te      21.04923401      11.66506076      13.84848412
Te      17.99231353      14.27738566      14.84986508
Te      17.54021328      17.00381472      16.08093956
Te      17.92150651      12.61530374      10.54803493
Te      15.48524359      16.35680565      11.61036384
Te      16.81094415      18.72249081      13.25982641
Te      21.30132567      14.30267640      14.29959442
Te      20.94004713      12.31399785      10.60960981
Te      18.15454517      15.51436932      10.61197533
Te      19.09248212      18.01157453      12.04617826
Te      21.19921293      14.92902942      11.10124558
48
Properties=species:S:1:pos:R:3 config_type=qcd gap_pre_relax_energy=-143.2080645680384 gap_pred_energy=-145.21575280116954 gap_fmax_final=0.0008620366764844859 gap_converged=1 pbc="F F F"
Te      10.20710514      11.47116488       5.26122831
Te       9.23894924       7.31622371      11.38439907
Te       7.99175677      12.91755593       6.19351063
Te       8.08021331       9.75601106       8.02240433
Te       7.04991136       9.51115101      11.33110954
Te       5.17520616      11.75177723      11.75253115
Te      13.09907545       9.37590441       5.02955294
Te      12.63595054       7.75237035       7.11726710
Te       8.07135621       7.12646577       8.83798924
Te       8.00905145       7.74509522      15.25035337
Te      12.24928753      13.23901937       5.08580051
Te       6.74938704      13.90057359      12.19505309
Te       9.02807111      14.47171820       8.24461133
Te       8.94318094      12.68093541      10.36075818
Te      11.45279318       9.17690045      11.14554533
Te      11.91078698       7.01733154      13.56024957
Te       7.53318857      15.65124361      16.02446202
Te      10.75562348      10.57476939       8.71929135
Te      14.34938964      11.66898921       6.51903831
Te       6.59457568       9.90365182      14.12241155
Te      15.14937185       6.21516444      10.42396819
Te      15.21209877       6.84466233       7.78881340
Te      12.75324200      16.86408781       8.94357685
Te       7.02194402      12.95250070      15.36382207
Te      10.81079450      16.26801306      10.69932735
Te      11.40536535      13.63257229      12.02300894
Te      13.44819154      11.89594025      10.53804637
Te       6.70101780      10.86376652      17.32587365
Te      14.58811939      11.31503396      13.78569034
Te      14.12375331      14.24495028       8.25221847
Te      10.55985429       8.71770381      15.66259645
Te      11.13481960      11.10353872      13.80770840
Te      14.49205013       7.35848753      14.37621434
Te       9.02175547      16.31972924      13.81106600
Te      14.97676379       8.68409865      11.78200267
Te      15.36584539      10.32012282       9.07736051
Te      12.98097922      14.54387224      14.36335851
Te      15.21682512      15.76782590      10.46570822
Te      10.38059742      12.66637333      16.17647708
Te       9.31837849      10.54053912      17.94877503
Te      16.66494315      12.78143468       8.28381245
Te      17.39396804      11.87878576      13.83525837
Te      13.95354292      10.21604988      16.35623321
Te      11.57290327      16.82105600      14.85213056
Te      12.88409906      12.42039754      17.54675879
Te      17.55133303      14.14044293      10.93125182
Te      17.58160864      14.27659784      15.12323814
Te      17.34634700      16.07277257      13.03350922
49
Properties=species:S:1:pos:R:3 config_type=qcd gap_pre_relax_energy=-146.27285590770776 gap_pred_energy=-148.5660467193855 gap_fmax_final=0.0009427555214392235 gap_converged=1 pbc="F F F"
Te      13.93367439       6.62767512       7.56155247
Te      12.68457546       5.73413642       9.79875640
Te      14.07860031       6.78801406      11.93748756
Te      17.71997596       9.79792035      11.24516717
Te       7.43410806       5.18081127      12.82559956
Te       7.40035886       6.49702127      10.38230398
Te      12.67547631       9.33720373       6.80541502
Te      16.49422814       9.71489576       6.97297723
Te       5.08530261       7.95234766      10.39618913
Te       8.49971886       8.18915591       7.48786723
Te      14.79608774       9.07113260      14.56381362
Te       8.15304334       7.15341559      14.63964506
Te      16.07627670       8.40755395       9.33915788
Te      10.83914226       6.81417752      15.03764301
Te      10.86789925       8.94338790       8.87186370
Te      15.96159156      11.29737916      12.67876905
Te      12.17985584       8.57606091      13.24823673
Te       7.09403202      10.49963206       7.43806258
Te       8.31193054      10.82827407      13.98077791
Te      11.43699685      11.90123724       5.71769299
Te      15.34881559      13.27327213      15.74881163
Te      14.74570028      11.99533486       7.04005677
Te       5.27525629      11.81683787      13.08276221
Te       8.21357245      10.06679849      16.80301027
Te       5.92250370      10.65830025      10.19569933
Te       9.59592793      12.46885285       7.85033843
Te       8.93524652      11.47779829      10.96732020
Te      13.32886353      10.47223773      10.73479458
Te      10.51408458      11.19036699      17.76636306
Te      12.19049947      13.82754451       7.74412818
Te      11.03588654      11.46887513      14.33811930
Te      18.40034725      12.83995289       9.29000507
Te      14.09755749      10.96095941      16.50446066
Te      11.73214984      12.47196962      11.59972777
Te      14.29659370      14.79077667      10.14467052
Te       9.91246368      13.88413008      18.07007866
Te       9.02489814      16.30852655      13.81159112
Te       7.29224623      13.54357364       9.93410456
Te       6.30231132      14.24390691      12.55246720
Te      16.99714124      13.65500389       7.06194999
Te       9.94590696      15.31134853       9.64749094
Te      16.98898969      13.99331236      11.34547589
Te      12.30871239      15.19291156      18.25695706
Te       8.39105932      17.07558246      11.24753178
Te      13.37964961      15.26877250      15.69699467
Te      11.19545948      17.84379790      14.50764304
Te      12.35661056      16.78194829       9.31387966
Te      12.67430399      18.24327410      12.09811615
Te      14.66753556      16.35576936      12.50964146
49
Properties=species:S:1:pos:R:3 config_type=qcd gap_pre_relax_energy=-145.62310893103887 gap_pred_energy=-149.28218517076624 gap_fmax_final=0.0009960163735696658 gap_converged=1 pbc="F F F"
Te      12.99371496       7.22770165      12.51838666
Te      17.30653592       7.35561583      13.76482860
Te      14.74809400       6.97856747      14.67912297
Te      13.67929956       9.65471229      16.89132679
Te      16.60452845       9.18513018      11.20077192
Te      11.52482763       7.92450988      16.47960916
Te      10.78414038       5.80624868      13.38490003
Te      17.57175231      10.20907832      13.75292751
Te      14.69314247      14.03082432      16.89030464
Te      14.24736268       6.94978350       8.04055895
Te      12.83487093      11.60509166      18.57005384
Te      16.76471464      13.34506847      13.05045453
Te      16.29528776      12.00147090      10.38573577
Te      10.10329214      12.20905798      17.44983086
Te      11.70983504       7.46177556       7.28983753
Te      10.30973322       7.75914053       9.95759029
Te      16.29119835      15.49507711      15.13381108
Te      14.13321404      10.75423133      12.12610445
Te      11.44692528      11.41296132      13.59413844
Te      15.33617444       9.58806997       8.51451113
Te       9.52296696       9.45276424      15.33099827
Te       8.75648402       7.64900417      13.15777072
Te      13.53306468      13.54597021      13.03998802
Te      12.77604734      15.81793435      17.73010674
Te      12.53043685      10.29694105       6.33527641
Te      10.38998065      14.92931765      16.64868084
Te      15.24622697      14.91867524      11.03641646
Te      14.26657271      16.61771729      13.19747047
Te      10.21281426      17.01281396      14.09965350
Te      12.75745333      10.45890889       9.56182392
Te       8.45869049       9.63867426       9.36138887
Te       6.60265013      10.37523727      12.54142488
Te       9.05437468      13.23083797      13.35379258
Te       6.06880444      10.81395633      15.22911562
Te      10.29466554      11.95180604      10.97335994
Te      15.18446820      13.82336864       5.16167135
Te      14.38763162      16.24897849       6.22177864
Te       7.54666017      13.04190207      15.98577484
Te      10.92423987      14.78882863      11.52516883
Te      12.90505698      12.57610227       4.23430105
Te      12.99901967      16.88705224      10.47133167
Te      10.39464179      11.70165481       7.63231665
Te       7.72969402      16.26040719      13.82220677
Te       6.00431004      12.14359798       8.60347091
Te      10.76624438      13.82349856       5.60390401
Te       5.25452703      12.41772649      11.22599583
Te      12.12650607      15.75886088       7.63791248
Te       8.15385200      15.24336857      10.74687212
Te       8.07171706      13.91842343       8.15366865
50
Properties=species:S:1:pos:R:3 config_type=qcd gap_pre_relax_energy=-149.44469925557587 gap_pred_energy=-152.35434093435583 gap_fmax_final=0.0009861427124537325 gap_converged=1 pbc="F F F"
Te       8.53354483      11.05463819      15.25118976
Te       7.42549352       8.90545258      13.83121800
Te       9.58418381       8.19364343      12.04933082
Te       7.72861125      13.27195313      13.38496553
Te       8.16993798      13.31367559       4.85571954
Te       5.58145129      11.15236890       7.52152796
Te       9.65812982       9.11463594      17.51848645
Te      11.71493833       7.14888877       9.93430273
Te      11.37487759       6.91197485      14.01075226
Te       9.77202748       7.85641830       5.92819172
Te       9.08299151      13.46731488      17.36777387
Te      10.09373953      14.34665022       6.76929377
Te      12.71721784      12.75714424      14.57960603
Te       9.02178636      15.60105092      14.61895839
Te      12.49155515       5.03507627       8.07938993
Te      11.51679260       5.70822053       5.64449829
Te      12.22706401       9.99597969      11.08120849
Te      11.60491802      12.06386590       6.43325860
Te       9.54090341      16.87713694       9.03731800
Te      10.08549289      10.84178090       9.11472459
Te      15.23135745      15.38028639       9.69270106
Te      17.76906782      13.99074101      10.23145881
Te      16.24852185       7.85519553      10.48933559
Te       9.15772770       7.95498329       8.62431774
Te      17.01658575      10.50854830      10.72976288
Te       7.63767493      10.77455464       5.69889134
Te      13.89767116      13.23013119       8.05325431
Te      13.91065575       7.55238083      12.00597907
Te      14.58676236      11.34139589      13.01343582
Te      18.44220099      14.83803875      12.72072073
Te       7.89125477      10.80670945      11.12416927
Te      11.97965209      12.90175670      10.28089805
Te      12.18216631      15.57723810       8.76125612
Te      15.23233618       9.09920712      14.65809173
Te      19.02673867      10.53677163      12.64375199
Te      18.33823951      12.57909140      14.35112857
Te      12.03520629      18.94042436      13.92608641
Te      14.08599147      14.53150677      12.19865410
Te      10.34889277      11.97773974      13.01303349
Te       8.37555159      15.20894661      11.04494220
Te      10.13516324      17.15555969      12.50339036
Te      15.46166415      16.09599375      14.11095582
Te      15.88217545      10.47051675      17.02548087
Te      12.00746663       8.72312660      15.95996400
Te      11.43589618      14.96716514      16.72698451
Te       6.69403036      12.80926355       9.46465662
Te      13.61410302      14.09313747      18.31032019
Te      15.45762574      13.15015355      16.46151867
Te      13.45425772      17.40744674      15.63467216
Te      10.02269584      11.40910995      19.01346379
50
Properties=species:S:1:pos:R:3 config_type=qcd gap_pre_relax_energy=-149.1437228112469 gap_pred_energy=-151.4116531481784 gap_fmax_final=0.0008963052129776888 gap_converged=1 pbc="F F F"
Te      18.30139955       9.01861558      15.32541985
Te      18.60194895      12.12018554      13.30716892
Te      17.43694546      14.55506893       9.82870672
Te      19.24843395      14.67901784      12.78075538
Te      15.02974262       7.41092398      12.85912849
Te      18.90602509      18.18636024      11.72322798
Te      18.17175947      17.14329972       9.24038479
Te      15.37380649      14.08768445       7.96202930
Te      19.03962744      17.98784718      15.45210788
Te      18.00985888      20.80901944      11.84246595
Te      13.24149280      15.15559940       9.23759099
Te      21.61013791      14.39086893      15.25544662
Te      14.64329638      17.87866385       9.84747497
Te      17.09564983      11.03840664      16.84099341
Te      20.50499910      11.86150504      15.45857533
Te      16.40698144       7.00018923      15.19247421
Te      15.81079090      12.76644294      14.94129833
Te      13.72030884      21.54565154      11.95173269
Te      17.00638420      15.87110997      14.94394573
Te      17.38547110      21.10361351      14.47390006
Te      13.36003899       9.59436106      13.30032624
Te      14.35978894      13.77843204      12.07841825
Te      15.85438139      16.84948485      12.45829781
Te      13.76313119      11.19789821      11.10780030
Te      18.48726642      17.69708670      19.58779537
Te      20.31492337      16.06347869      17.06966555
Te      13.61811010      13.78157278      16.43565610
Te      14.09645971      10.34189602      20.36905561
Te      14.51886950      20.68034746      14.55665625
Te      12.53516468      19.33945250      10.84404351
Te      12.12235038      10.74656057      16.42581908
Te      15.60675597      12.45507325      21.24325404
Te      13.18508619      17.79268487      14.26163790
Te      14.72916050      16.84712596      16.78790426
Te      18.03666509      19.69026329      17.84230300
Te      16.55580136      13.68941633      18.95019030
Te      10.60354398      16.28192413      11.44576227
Te       8.28425307      10.01960493      14.38217980
Te      10.06891396       8.88248870      16.12762224
Te      12.13237205      14.91282183      13.53636344
Te      11.91490866      11.50069108      19.13132702
Te      15.15658510      19.59002037      17.56745046
Te      10.58501512      18.48451001      15.14376579
Te      13.09215154      14.88722278      20.10192458
Te      15.73222753      16.32674594      19.60767486
Te       8.94515591      17.72659394      13.07605516
Te      10.21366944      15.36773624      16.77185466
Te       7.28335111      12.29068504      15.58441335
Te       9.04720479      12.97149185      17.59203571
Te      11.19862927      16.54925037      19.09491526
51
Properties=species:S:1:pos:R:3 config_type=qcd gap_pre_relax_energy=-152.50376709865557 gap_pred_energy=-154.58365337470755 gap_fmax_final=0.0009754928145570972 gap_converged=1 pbc="F F F"
Te       7.50430339       9.52110432      16.80010271
Te       6.82467088      13.36298053      14.81061429
Te       9.79913780      10.97392221      17.27956898
Te       7.17146932      15.48255383      12.65114427
Te       7.75984737       8.40774466      14.27819196
Te       9.43957873      13.33006061      15.72588688
Te       5.61818627      13.15143005      11.05558661
Te      15.73996973      11.58450912      17.87321547
Te       6.85668673      10.98151531      12.68051689
Te      12.26205913      16.66096690      16.93259705
Te       8.91089327      16.70431130      14.61145658
Te      10.68459173       7.69250887      13.91543709
Te      12.67865711       9.05717994      16.12863927
Te      10.28752993      11.39804212      13.02181512
Te      13.11236937      12.30639353      18.01182372
Te      10.66261720      17.88497492      12.93742961
Te      10.34484852      13.62582405      11.49074345
Te      14.60169848       7.20178232      15.56182314
Te       6.04331151       8.92639080      10.81219705
Te      13.45820510      11.30445939      14.02006783
Te       8.84895155      16.90913491      10.63711563
Te      14.87161033      17.25100484      13.43395389
Te      12.80589550      14.12069893      15.86795654
Te       7.31025122      15.83744970       8.22142026
Te       9.36809047       7.21469824      11.44784246
Te      14.06441442      18.38182675      15.79403213
Te      10.14946273       9.85765739       9.92458818
Te      14.24054044      13.00161524      11.86859547
Te      12.84164808      15.46251651      12.67461402
Te      16.88557387       8.57194664      14.83401409
Te      16.30940449      11.27000031      15.12905533
Te       6.89195408      13.08408213       8.62107618
Te      12.99135447      10.91040137       9.75823950
Te      10.07527143      15.53641654       7.62624370
Te      13.18573390       6.85930213      12.48067206
Te       7.50007878       9.53454929       8.63562727
Te      11.87769068       6.63723039       9.98866133
Te      17.90284227      11.86851596       9.02733191
Te      10.76864247      12.51934356       8.75008822
Te       8.21712233      12.55774751       5.19668163
Te      17.61409120       8.08049486      10.26858281
Te      16.12716897      10.46646819      10.66154548
Te      12.82891754       9.04803212       7.35180052
Te      16.42199272      12.81139994       6.91608684
Te      15.92375453       6.00320711      11.01544722
Te       9.96562286      10.67297524       6.22757235
Te       9.84861111      14.75603166       4.97713938
Te      12.79024199      10.93215816       5.26876212
Te      14.60734381       5.74956486       8.61789286
Te      15.82834290      10.67879913       5.31494940
Te      15.54144581       8.22077403       7.22825166
51
Properties=species:S:1:pos:R:3 config_type=qcd gap_pre_relax_energy=-152.07088302778178 gap_pred_energy=-154.73750927976724 gap_fmax_final=0.0008804165114923041 gap_converged=1 pbc="F F F"
Te      16.56174049      12.75468510      12.30616362
Te      18.51448252      15.27991913      13.04065617
Te      20.54546766      13.29726872      15.24009412
Te      21.00803962      17.27484792      12.89962201
Te      20.06766441      15.82246408      16.92339680
Te      21.56568241      17.67460296      15.59372295
Te      19.69984822      13.37301201      21.21241710
Te      21.11513615      11.72260437      17.40307500
Te      16.99060519      16.56934808      19.76550509
Te      17.30567680      13.81688642      22.43772535
Te      17.88026561      11.70786196      14.66144902
Te      19.01950575      15.50513778       8.93021227
Te      17.06350168      18.43867000      11.59956223
Te      19.53122775      19.52094589      12.16176587
Te      17.15678847      15.94862428      15.45486250
Te      16.57791795      18.79476151      14.95132534
Te      18.87172793      20.20704695      15.62814354
Te      18.81403968      11.99581347      18.92985543
Te      16.30571810      12.83921252      16.52589584
Te      14.42222430      14.37589708      19.27212510
Te      17.25502893      17.60251148       8.92534487
Te      19.42166098      17.99170306      19.43361789
Te      15.06421146      18.51736704      19.99833438
Te      15.64854499      12.32526629      20.75661005
Te      15.06581550      10.36717450      11.64503879
Te      18.70823303      20.43829952      18.38446182
Te      12.20387322       8.85035707      16.76590445
Te      14.89786363      14.02577838       9.25877246
Te      11.57003282      19.74979676      11.72166424
Te      13.81480274      18.69391683      17.54517130
Te      14.34932951      16.07053763      14.57915161
Te      12.08733908      12.67966532      19.06295058
Te      17.52421626      13.20650991       8.74163416
Te      12.39449794      19.33817743      14.34179672
Te      12.96565109      10.31312788      13.92986903
Te      13.82717314      13.10331990      14.26846825
Te      13.62108587      10.37376134      18.53181340
Te      12.49189545      16.18725239      17.18518836
Te      11.95219251      15.80650594       9.90916346
Te      13.51725804      11.66238135       9.61656644
Te       9.98036241      19.07220406      15.67201452
Te      10.25014906      13.54460074       9.54541946
Te      10.32804635      10.72583254      15.36389484
Te      10.44870060      15.97683974      19.22521152
Te      10.10170674      17.48241367      11.13418540
Te      11.10636467      13.32938251      16.26588371
Te      11.83361313      12.51080951      12.19048838
Te       9.16412881      16.48685609      15.14474961
Te       8.30978839      14.44831574      11.17296986
Te       8.27620807      15.61648096      17.63770446
Te       9.43478768      13.21506693      13.74020336
52
Properties=species:S:1:pos:R:3 config_type=qcd gap_pre_relax_energy=-155.421918768461 gap_pred_energy=-157.96898491234361 gap_fmax_final=0.0008731304922642255 gap_converged=1 pbc="F F F"
Te      17.90605564      10.18887151      16.49981299
Te      18.84799559      10.78729785      14.06821446
Te      18.44155203       8.08079755      12.72264839
Te      16.44451765      13.32697679      17.45210966
Te      18.95501306      15.60061338      10.98177952
Te      16.56567144       9.52872301      10.92620480
Te      15.31789582       8.82205253      15.94227039
Te      19.48761810      13.61403882       9.21761093
Te      16.36351399       6.88098255      13.99593042
Te      16.24108044      14.41441782      14.53178229
Te      14.87344410      18.66091282       9.04571995
Te      17.52466448      13.77947204       7.24835044
Te      14.12036927       8.43729155      12.15038283
Te      16.53283837      12.17311675      12.71634878
Te      14.90468245      15.23662816      18.61768477
Te      12.69682774       7.26544146      16.18753320
Te      14.48947670      10.92967749       8.85805081
Te      16.16949644      15.29140192      11.65208962
Te      15.56897169      18.13747919      11.61548918
Te      12.31432485      14.20797341      18.57203187
Te      16.63718873      11.26436789       6.85700373
Te      12.12846012      18.24675875       9.07716455
Te      13.94926364      11.11253601      17.79278803
Te      12.35232153      15.19615018       8.70670123
Te      14.23642021      17.11303148      15.34829589
Te      12.57523272       6.11689068      13.77078742
Te      13.07851731      14.44926111      12.12717426
Te       9.92092301      14.98196732       7.39145420
Te      13.18036494      14.35908887      14.91033361
Te      10.74255876      16.46662285      18.28927211
Te      13.48666128      11.31776349      14.97327890
Te      11.67658150       9.57939206      18.67030816
Te      12.04854631      18.65769248      15.25600991
Te      12.28321627      12.41019382       7.50628483
Te      12.24455863       9.21518873      10.05492083
Te      12.01102240      18.70909402      12.04926796
Te      13.35566904      11.43878282      11.65811585
Te      10.77056045      12.41626065      15.31085866
Te       9.55793573      10.38848062      17.19279593
Te      10.89824171       8.20306405      12.56436216
Te       9.35993092      19.32987314      12.39828819
Te      10.24405152      11.18759042       8.93543737
Te       8.65777310      17.32617378       8.17209421
Te       9.75253959      16.42258552      15.70699423
Te       9.19037525       8.07157467      15.24319727
Te       8.08181003      16.86987377      12.55292854
Te       8.25877606       9.80806933      11.46399957
Te       6.82351393      16.58380673      10.08575432
Te       7.04832038       9.07077851      13.89134391
Te       8.09443435      13.97320300      15.85869502
Te       8.64904326      12.60841718      11.62013905
Te       6.84106056      13.64318260      13.46378795
52
Properties=species:S:1:pos:R:3 config_type=qcd gap_pre_relax_energy=-155.35647178329413 gap_pred_energy=-158.00885166133895 gap_fmax_final=0.0008533693246275921 gap_converged=1 pbc="F F F"
Te      17.39583093      17.32093908      19.97004102
Te      12.84724125      18.19133726      20.80719180
Te      11.99227389      19.86137396      18.76554737
Te      15.87815211      18.51797508      14.23159442
Te      10.22286864      18.37712091      17.23679646
Te      18.87592303      18.41538378      14.59209218
Te      17.55283599      14.61384192      20.34339638
Te      11.07912450      16.16143379      20.87840705
Te      15.63734814      14.08417415      22.27398206
Te      13.65883894      19.31978644      12.40244161
Te      16.82379458      17.65798479      17.19479360
Te      14.21229975      16.77930928      17.64402309
Te      11.29559830      18.30076476      14.44329131
Te      16.49976654      18.72583462      11.40442186
Te      19.41981564      11.30861390      15.20872618
Te      20.66872918      14.31399356      13.71848997
Te      18.59629997      15.61808478      15.17190369
Te      10.86551872      15.37288497      18.01787239
Te      13.41194192      13.23713194      20.83576045
Te      14.40500232      11.24908430      19.17254341
Te      18.16746145      12.90076020      17.29779453
Te      19.36877318      18.60978987      11.82553388
Te      12.36944216      16.73965147      11.74400809
Te      13.40313989      16.36319690      14.90609301
Te      18.94822230       8.75359897      16.25676031
Te      16.93566270       7.69264636      14.77650685
Te      11.54958111      10.90569905      17.29848464
Te      15.92375298      14.01180899      13.84511911
Te      10.44481776      12.71940579      19.14382071
Te      18.29504256      16.15558659      10.04406515
Te      19.56474481      13.50495679      11.38086872
Te      17.52022290      18.26305797       8.30942994
Te       8.80287909      16.79768623      14.56157835
Te      15.45217697      12.56447645      16.91413574
Te      13.57037695      14.02407174      10.31883149
Te      14.70779606      17.77252885       8.52818882
Te      12.11969012      13.82346482      15.68513088
Te      11.58657932      17.19501671       9.03990232
Te      12.67600438       8.82811475      14.99707792
Te      15.21673819       9.85053868      14.15852884
Te       9.38648276      10.91529937      15.55399607
Te      17.40329655      13.87334976       8.38510699
Te       9.25518091      14.27518990      15.59549286
Te      17.41942553      11.92512675      12.80178630
Te      13.16532202      12.28646563      13.12890555
Te      10.76733619      14.60581722      10.24093732
Te      11.01582267      10.29505947      13.08127197
Te      14.65671606      15.05643505       7.79672965
Te       9.79599907      11.64849955      10.21710283
Te      16.12366201      12.00205941      10.01424254
Te      13.56687704      10.01515018      11.31345610
Te      11.98985328      10.70672057       9.03407946
53
Properties=species:S:1:pos:R:3 config_type=qcd gap_pre_relax_energy=-158.1167394315745 gap_pred_energy=-160.63227615685366 gap_fmax_final=0.0009905497328425495 gap_converged=1 pbc="F F F"
Te      13.10354808      11.23210543      12.00525638
Te      11.81366233      14.52090787      10.47425576
Te       9.76221098      12.06236276      12.22800448
Te      15.33542665      12.89824775       9.30783421
Te      15.31740284       8.46967724      14.68660246
Te      16.48453481      11.62361792      11.48306134
Te      13.18348130      10.29487003      14.53746732
Te      19.21850193      12.29805438      11.14357676
Te      17.61048737       9.93740377      14.48497741
Te      15.36040585       9.60565794      19.75489006
Te      13.16720077      14.31547853      13.17306460
Te      13.15407192      16.54579785       9.34295535
Te       7.82079232      15.62467514      10.46543653
Te      12.71499287       9.57614228      20.46192541
Te       7.31404632      13.45774876      12.06706014
Te      15.93502420      15.59080962       9.60746273
Te       9.70542043      11.11209673      14.81525224
Te      17.60380157      14.26270803      14.48627428
Te      20.62638791      16.43524225      11.94836119
Te      15.42305015      16.04709257      12.65168190
Te      17.44495539      13.32753232      17.32093632
Te      14.98579139      13.20064814      15.35190915
Te      18.25643936      10.62190067      17.16074922
Te       9.67994276      13.36446704      16.43976408
Te      20.43073168      11.91516798      13.51151815
Te      11.48347367      11.47171814      18.85313738
Te      20.68303333      14.67157136      14.64008841
Te      17.69804870      18.63496794       9.34594887
Te       7.62984430      17.87155758      12.04399525
Te       7.70604047      14.96643241      15.28290258
Te      16.54018708      11.60348804      21.26459459
Te      22.28819216      18.45840389      12.80455698
Te      12.27290385      18.83759910      11.86395381
Te      18.08077478      17.88467600      12.06521061
Te      14.19320123      16.04617604      15.39508199
Te      15.43347738      20.05536631       9.60728884
Te      18.80651047      12.30973553      19.85829895
Te      20.28256378      14.03322283      17.48411642
Te      11.41787594      13.76160929      20.41834881
Te      15.07889815      14.59102850      20.00641497
Te      17.65707391      17.09615781      16.32092640
Te       8.94833720      17.27771007      14.40071883
Te      20.43908182      17.05895046      16.56545740
Te      10.79302506      20.23403505      13.74069298
Te      14.90546922      19.56776103      12.45070942
Te      21.10716833      19.44011642      15.04285394
Te      14.70109213      19.17080837      15.61427096
Te      11.21758101      15.84675529      18.67381006
Te      16.44880870      15.93525533      21.96799501
Te      18.22192569      17.62359841      20.69277618
Te      12.19799192      20.20006548      16.10449242
Te      13.89389628      16.77068070      18.48579807
Te      16.88266453      18.70159188      18.55673464
53
Properties=species:S:1:pos:R:3 config_type=qcd gap_pre_relax_energy=-157.96595233577693 gap_pred_energy=-160.70373779329998 gap_fmax_final=0.0009323083701344988 gap_converged=1 pbc="F F F"
Te      12.57194145       9.81539925       9.35321025
Te      13.52292525       7.35852198      13.72233447
Te      15.26752889       7.31437949      11.62504977
Te      11.19307120       9.15796948      12.50452939
Te      12.13176962      14.67454668       9.83054040
Te      15.07779561       9.82244046      10.36526476
Te      16.04535507      15.73065368       7.82106253
Te      13.90830977      12.50120607      12.65270376
Te      11.51614031       8.14413612      16.65834706
Te      15.45262476       8.25551927      16.00914362
Te       9.51118004      13.83486560      12.70660533
Te      11.47499822      11.90513093      11.20313502
Te      13.52244914      19.01173937       9.15121736
Te      10.10616791       9.76619874      14.98359993
Te      17.73416486      11.40806114      11.98026813
Te      18.10924432      13.48454817      10.19544227
Te      14.99250399      14.32815244      10.01878622
Te      11.36741225      16.14411777      12.15394484
Te      16.13269768      18.35607380       8.59897206
Te       9.36504096      15.76136070      16.76308578
Te      10.51711618      13.64908815      18.91731486
Te      13.69295862       9.83173961      17.60414095
Te      13.19116583      14.45651792      14.51154666
Te      17.25046921      10.38348087      15.09464492
Te       9.85364549      18.07045436      14.38927335
Te      10.08160699      13.35356985      15.33899813
Te      10.96071667      19.98219271      12.70352859
Te      11.76858597      11.29580629      19.92867912
Te      13.35200435      18.59376662      11.94740205
Te      19.54468127      15.24085886      12.26792454
Te      18.99291438      12.82422928      14.03714455
Te      16.69689383      10.36601392      17.87473000
Te      18.87068972      12.26143686      19.10749599
Te      11.74738564      17.31487710      16.49912121
Te      14.09811960      13.22887143      17.31684027
Te      18.67993907      17.84244613      11.26000317
Te      15.50847846      16.75277717      14.19797832
Te      16.18773865      15.99169343      18.64371824
Te      13.04671973      20.27295838      15.66872782
Te      17.76310768      19.10948144      13.45672401
Te      15.48485960      20.86198189      12.07364295
Te      12.81736970      15.35247502      18.72609256
Te      21.19977082      16.06370508      14.65772881
Te      14.94001883      18.11347579      16.45686272
Te      14.56029769      12.01414685      19.92634840
Te      17.12089697      13.79379063      20.49114339
Te      19.86731199      14.19157486      17.03329775
Te      14.68141204      22.18529139      14.25802704
Te      19.93003083      18.18931445      15.70060526
Te      13.32448275      21.33619143      18.28512343
Te      15.06043226      17.89749787      20.42255079
Te      19.13682355      16.63711809      18.15815709
Te      15.65273616      20.35085691      19.33194195
54
Properties=species:S:1:pos:R:3 config_type=qcd gap_pre_relax_energy=-161.21810169527615 gap_pred_energy=-163.18735940180048 gap_fmax_final=0.0009180113252036373 gap_converged=1 pbc="F F F"
Te       5.92411522      12.62638698       8.01528965
Te       7.62778527       8.42620561       9.47374380
Te       7.48392504      16.47203545      10.52026377
Te       8.51409171      13.55930884       6.62645565
Te       8.17838094      10.78385811       7.25422237
Te       6.49238739      12.91467785      10.65566198
Te       8.29114077       6.09729913      10.98855411
Te       5.97185286      10.25227044      11.63310269
Te      10.49653220       9.06498883       6.01748754
Te      10.09877637       7.43648194       8.36881903
Te       7.63538141      16.36458587      13.28146433
Te      10.09069141      11.58180983      10.14264185
Te       6.59369727       6.45523686      15.52518579
Te       9.13902257      16.63259982       7.50075382
Te      11.39784533      13.50231280       5.80469742
Te      11.34006664      16.27896517       5.84368226
Te       7.81507531      13.70438361      13.85742602
Te       7.93938715       9.93396319      13.52010795
Te      10.09175797       7.00716058      12.83805892
Te      12.58750944      13.34836628       8.79770647
Te       6.87567735      10.84705872      15.91980990
Te       9.96129527      15.12510682       9.92015062
Te      13.62752057       6.53844334       8.77708245
Te      12.86006695      10.36737331       6.57732072
Te       9.24072913       5.79206391      15.23048006
Te       6.48269300       8.49638710      17.36357861
Te      11.30146954      17.02587210      11.51241102
Te      10.51212977      13.23324116      12.49003596
Te      15.07974557       7.06155531      11.22951311
Te      13.46006702      13.12833942      11.63208336
Te      10.27413473       8.56115847      17.15554779
Te      17.64225709      16.72550255      10.15522003
Te      14.70252835       8.24636183       6.96703465
Te      11.53770092       9.21162273      10.27691227
Te      14.02628639       7.07633792      15.49225767
Te      14.34599811      15.24918707       7.61241356
Te      13.60249424      17.75837437      14.64695216
Te      11.31166296      15.94442585      14.13068542
Te       9.69488445      12.85715466      16.95740230
Te      13.97461766      10.50442320      12.31846496
Te      16.84780338      14.60685657       8.57676577
Te      10.44457569      10.85634790      18.69194720
Te      17.48356747       7.82315222      10.16981192
Te      16.28147471       7.98216400      14.26384774
Te      14.78624562      13.74054092      15.48639515
Te      16.10001641      16.64352158      12.42644883
Te      12.11014394       9.03433845      15.09978417
Te      16.91030208      10.21517290       8.91848470
Te      14.74947851      16.39069804      16.63324469
Te      11.91951664      14.55069856      16.88793834
Te      16.11563732      10.98444467      14.30280288
Te      18.53543094      10.35315121      12.80932340
Te      18.20192107      12.01670221      10.66096175
Te      16.69330577      14.01212461      13.44436237
55
Properties=species:S:1:pos:R:3 config_type=qcd gap_pre_relax_energy=-164.52276099630825 gap_pred_energy=-166.86890456046632 gap_fmax_final=0.0009901798488318567 gap_converged=1 pbc="F F F"
Te      14.10874460      15.98285039      14.51248619
Te       6.93884541       7.17908334      10.79678472
Te      12.71598861       9.15655428      15.27203671
Te       9.85001348      16.03080538      16.78790400
Te      13.25407879      12.75624960      12.55977250
Te      13.32057215      13.17236178      16.24122892
Te      15.17340137      20.11459218      15.32320163
Te      14.25332009      18.91351674      12.81465015
Te      17.74818808      19.30352677      15.43238559
Te      14.97139538      11.20643125      14.35034469
Te      14.61260814       8.36792820      10.89075177
Te      12.09686453      14.91897695      18.24346351
Te       9.05533630      11.70445312      16.60045134
Te      16.35828219      14.47288537      11.79261915
Te       7.99573416      14.06467781      17.42374699
Te      14.08309999       6.99394657      14.20628415
Te      16.57423925      10.11484756      12.12681736
Te      19.01591343      10.49302396      15.62050506
Te      10.79255184      12.83728878      14.07862636
Te       6.08981549      14.11677132       9.82370419
Te      16.44487528       6.93153847      15.67058475
Te      10.79594834      16.33794652      13.59559405
Te       6.78319304       9.67255711       9.64788764
Te      13.94294623      17.32985703      16.78212050
Te      10.86205011       9.35050925      12.80823993
Te      11.40537181      12.99247107       7.93188481
Te      18.45722226      14.96990114      15.59238345
Te      17.52560375      12.67811987      13.74987642
Te      15.64776485      12.18684060      10.29831305
Te       8.05284761      12.71635243       8.39739774
Te      17.67123606      16.95629402      13.88855481
Te      12.72805639      18.26742060       8.37433576
Te      12.11833238      16.80739938       6.12604693
Te      18.34832006       8.28096145      14.15912210
Te       7.28103502      16.47894461      10.62867820
Te      10.00454687       8.69755218       7.89681630
Te      11.67202271      14.84440317      10.74904954
Te      12.54255195       7.83574828       7.14301453
Te      14.34456800      15.28612678       5.58784768
Te      11.55676501      19.01694111      13.00961388
Te       9.36181223       6.17850985       9.96407701
Te      10.05971997      11.11217853       6.33187087
Te       9.29112364      10.80484993      10.33767271
Te      13.87546897      16.45212427      10.12377070
Te      14.07672126      12.94027410       7.03266962
Te      11.35377520       6.81977311      11.90366592
Te      14.22730979       9.61394834       8.44822476
Te      18.16926940      12.97645440      18.62480061
Te       8.71385437      12.98102785      12.21627244
Te      11.73412676      11.48812117      17.87842098
Te      16.45380386      15.08172589      17.94864702
Te       7.91014515      16.10437314      13.25936644
Te      14.60644556      13.98203755      20.03121360
Te      16.79442592      10.82594674      17.60110212
Te      14.41393631      11.33618809      19.59928753
