3
Properties=species:S:1:pos:R:3 config_type=qcd gap_pre_relax_energy=-13.496787129542183 gap_pred_energy=-13.559899077293922 gap_fmax_final=8.768134524970127e-05 gap_converged=1 pbc="F F F"
Ti       7.75206292       7.33974270       7.81712682
Ti       6.43638084       7.72117450       5.94098960
Ti       6.48570819       5.61323473       6.91603552
4
Properties=species:S:1:pos:R:3 config_type=qcd gap_pre_relax_energy=-19.95400502428058 gap_pred_energy=-19.99550482454271 gap_fmax_final=0.00016889692215019638 gap_converged=1 pbc="F F F"
Ti       6.28834533       7.26647022       7.93594732
Ti       7.95560883       8.98390187       8.42706533
Ti       8.63679442       6.64788257       8.20494004
Ti       7.92232743       7.90482134       6.23512331
5
Properties=species:S:1:pos:R:3 config_type=qcd gap_pre_relax_energy=-26.245661678656372 gap_pred_energy=-26.26419363220656 gap_fmax_final=0.0004807413906535592 gap_converged=1 pbc="F F F"
Ti       9.33115713       7.54022347       8.85988220
Ti       8.53825639       9.82113032       8.33987718
Ti       8.88196167       9.06944806      10.74704252
Ti      10.89101043       9.42063009       9.22427366
Ti       9.54295553      11.33390919      10.01426559
6
Properties=species:S:1:pos:R:3 config_type=qcd gap_pre_relax_energy=-32.519561644140595 gap_pred_energy=-32.667604330690544 gap_fmax_final=0.00040860979248665664 gap_converged=1 pbc="F F F"
Ti       7.18115065       9.36794505       9.56998714
Ti       8.32947293       7.40677270       8.05588372
Ti       9.62299441      10.54551355       9.89670815
Ti       9.21464793       8.12652365      10.25735770
Ti      10.77139652       8.58480528       8.38241693
Ti       8.73774119       9.82584338       7.69505000
7
Properties=species:S:1:pos:R:3 config_type=qcd gap_pre_relax_energy=-39.46689764777876 gap_pred_energy=-39.55997683371732 gap_fmax_final=0.0009107955605805538 gap_converged=1 pbc="F F F"
Ti       8.60451588       7.20850190       8.43877225
Ti       8.79599861       6.97109016       5.88183739
Ti       8.98245340       9.31578481       7.00933921
Ti       7.33795127       9.36968129       9.03297408
Ti       7.03849428       5.57569003       7.21037948
Ti       6.71206358       8.10798669       6.87764991
Ti       6.13628740       7.05902957       9.15681212
8
Properties=species:S:1:pos:R:3 config_type=qcd gap_pre_relax_energy=-45.64898749121735 gap_pred_energy=-45.795001409806844 gap_fmax_final=0.0006653263585366084 gap_converged=1 pbc="F F F"
Ti       8.61704317       6.50254556       7.91250895
Ti       6.64953806       5.34222330       6.92476442
Ti       8.33466826       8.44270556       9.35801906
Ti       6.21047733       6.96191825       8.99316156
Ti       6.59299602       9.67354760       8.31740222
Ti       6.60881803       7.82730314       6.62513522
Ti       8.51490579       6.72309783       5.43571521
Ti       8.89144217       8.94654759       6.85318221
9
Properties=species:S:1:pos:R:3 config_type=qcd gap_pre_relax_energy=-52.461185422534776 gap_pred_energy=-52.502882375379365 gap_fmax_final=0.0007863073535500924 gap_converged=1 pbc="F F F"
Ti      10.26746010       7.30265965       9.59642461
Ti      11.36578651       9.66775048       9.66501198
Ti       9.10974739       9.49468984      10.62252243
Ti       9.64184796      11.46282219       9.25144231
Ti       9.41513757       9.16329724       7.91361626
Ti       7.28418086      10.40582503       8.87985767
Ti       7.63676750       7.82443623       9.52174894
Ti       8.67192018       6.61235310       7.65205606
Ti       6.94636865       8.40538299       7.23653649
10
Properties=species:S:1:pos:R:3 config_type=qcd gap_pre_relax_energy=-59.210608224899595 gap_pred_energy=-59.269432886534815 gap_fmax_final=0.0007288403987219625 gap_converged=1 pbc="F F F"
Ti       8.44137372      11.20054299       7.91540247
Ti       9.92252414       7.86418466      10.76409347
Ti       5.86677477       7.41056646       8.57666221
Ti      10.46813298       9.83840978       9.02956576
Ti       8.05725853       6.28934374       9.64880949
Ti       6.67197439       9.41221902       6.98063699
Ti      10.10363154       7.33088616       8.41231383
Ti       7.80853733       7.07362494       7.17439312
Ti       9.26592753       9.21902399       6.80007840
Ti       7.96557507       8.93290828       9.26975424
11
Properties=species:S:1:pos:R:3 config_type=qcd gap_pre_relax_energy=-65.95197566771742 gap_pred_energy=-66.02016035743387 gap_fmax_final=0.0008510374619803789 gap_converged=1 pbc="F F F"
Ti       9.09700725       9.18262625       7.33741536
Ti       9.15679643       7.03771189       5.45388983
Ti       7.18787697       8.67962788       5.68583600
Ti       6.58579330       9.29143769       8.10006696
Ti       8.19702549       8.58790960       9.83912736
Ti       7.88296641       6.85776061       7.78274590
Ti       5.88436115       7.18749452       9.50740025
Ti       5.17615165       7.43025915       7.04456975
Ti       8.30884694       4.60691182       6.34323816
Ti       6.67239540       6.18900175       5.37544110
Ti       5.94421804       5.04269788       7.62370838
12
Properties=species:S:1:pos:R:3 config_type=qcd gap_pre_relax_energy=-72.93737814289004 gap_pred_energy=-73.03784853551635 gap_fmax_final=0.0009863630657446132 gap_converged=1 pbc="F F F"
Ti      11.12160201       9.27954077      12.12642018
Ti      10.14182460      10.12308685       9.89425047
Ti       9.16175369      11.42912573      11.89113355
Ti      10.37330337       7.48005928      10.35320246
Ti      11.23782624      10.88055853       7.68547105
Ti      10.43821860       8.37660871       7.86659642
Ti       8.66253431      10.32404327       7.65353866
Ti       8.15779887       8.23388954       9.16134573
Ti       8.55751250       8.87343596      11.67693796
Ti       7.50019689      10.63119731      10.00831407
Ti       9.23343120      12.41856675       9.14657670
Ti      12.40468033       8.94056991       9.52689539
13
Properties=species:S:1:pos:R:3 config_type=qcd gap_pre_relax_energy=-80.26327545792617 gap_pred_energy=-80.32917042574445 gap_fmax_final=0.0006896479467310222 gap_converged=1 pbc="F F F"
Ti       8.72320200       6.51695898       5.54679840
Ti       6.37662913       7.86545605       5.34692135
Ti       6.46801748       5.48807774       6.65410232
Ti       8.67243967       9.20775113       5.88718834
Ti       8.81988674       5.36209400       8.00190484
Ti      10.18245057       7.66132541       7.52803078
Ti       7.60299685       7.60333935       7.60270993
Ti       5.02362279       7.54479427       7.67799955
Ti       6.38522384       9.84388954       7.20523364
Ti       6.53420759       5.99723882       9.31781131
Ti       8.73791224       9.71765701       8.55331459
Ti       8.82967958       7.34079880       9.85872477
Ti       6.48325415       8.69014158       9.65878281
14
Properties=species:S:1:pos:R:3 config_type=qcd gap_pre_relax_energy=-86.86202591104899 gap_pred_energy=-87.08403883110213 gap_fmax_final=0.0009714125227763271 gap_converged=1 pbc="F F F"
Ti      11.80579684       8.36472336       8.87981925
Ti      10.92374391       8.47042496      11.62780993
Ti       9.62373083       9.00012592       7.42454201
Ti      12.43254066      10.47442171      10.38654334
Ti      10.53315300      11.29740965      12.06817663
Ti       9.92633770       9.93578801       9.88150841
Ti       8.35093185      11.93260688      10.61307433
Ti      10.77542255      12.48796409       9.72230473
Ti       9.53504023       7.28519939       9.31104409
Ti      11.51165764      10.79160185       7.87798425
Ti       8.91996160      11.49688541       8.04394609
Ti       8.35914726       7.74199820      11.27369113
Ti       8.39974387       9.90153047      12.15585708
Ti       7.53896614       9.45549420       9.36987279
15
Properties=species:S:1:pos:R:3 config_type=qcd gap_pre_relax_energy=-94.469411886773 gap_pred_energy=-94.52637126195697 gap_fmax_final=0.0008727665778873545 gap_converged=1 pbc="F F F"
Ti      10.04471200       8.66525179       8.62660955
Ti       7.92334646       9.57899757       9.62997294
Ti       8.23514654       9.92531243       6.81348413
Ti      10.04485569       7.78634359       6.26608794
Ti       9.84214817       6.06741185       8.24979148
Ti       8.61713229       7.10225253      10.19201010
Ti       5.80169297       9.61425154       8.27316681
Ti       7.65772456       7.65778008       7.65758256
Ti       5.80170520       8.73528859       5.91267877
Ti       7.92322225       7.82144281       4.90927261
Ti       6.16726977       7.65032761       9.98794495
Ti       8.61729396       5.58021468       6.10381913
Ti       4.94245040       7.16331848       7.84192401
Ti       7.08045161       5.39033764       8.50220822
Ti       6.16736362       6.12798432       5.89996230
16
Properties=species:S:1:pos:R:3 config_type=qcd gap_pre_relax_energy=-101.45976608125035 gap_pred_energy=-101.56998038997712 gap_fmax_final=0.000700929109426081 gap_converged=1 pbc="F F F"
Ti      11.04802482      12.56905839       9.69044787
Ti      11.87002018      11.07090406      11.56332060
Ti      12.26730783      10.28405936       8.87546741
Ti      10.04432375      11.50374174       7.62044826
Ti       9.57455045      12.13094545      11.74632461
Ti      12.07817905       8.69141408      11.20567357
Ti       8.50119600      12.38557625       9.42841519
Ti      10.25271624       9.12437215       7.26283016
Ti      11.47529055       7.68827362       8.95680773
Ti       9.92156479       9.92143731       9.92149170
Ti       7.53766709      10.75889576      11.11712525
Ti      10.00136080       7.25026509      11.01243123
Ti       9.68825957       9.51741567      12.47309751
Ti       7.80940957       9.96303677       8.41603010
Ti       8.92826294       7.50476635       8.69460034
Ti       7.74567737       8.37964894      10.75929947
17
Properties=species:S:1:pos:R:3 config_type=qcd gap_pre_relax_energy=-108.43517340309413 gap_pred_energy=-108.68951039137374 gap_fmax_final=0.0007041256792032341 gap_converged=1 pbc="F F F"
Ti      12.63639722      10.76403047      10.10158287
Ti      11.89817596       9.20004506       7.97858129
Ti      12.15565309       8.07006758      10.20046098
Ti      11.75079341       9.31036232      12.24660061
Ti      10.24019814       7.46568643       8.70186938
Ti       9.25644526       9.69743901       7.45727416
Ti      11.07538563      11.72106337      12.13757144
Ti      11.24396520      11.53434177       7.87306393
Ti      10.82607949      12.81513393       9.98606904
Ti       7.98076246       8.12068265       9.29682580
Ti       9.71087228       7.70354395      11.37794104
Ti       8.91068897      12.21071178       8.48767716
Ti       9.41734296       9.98674531      12.86088199
Ti       8.51891338      11.95743243      11.18575560
Ti      10.03077387      10.03058037      10.03066988
Ti       7.56278173       9.40136077      11.40975916
Ti       7.30537313      10.53137498       9.18801787
18
Properties=species:S:1:pos:R:3 config_type=qcd gap_pre_relax_energy=-114.27945235253782 gap_pred_energy=-115.35355731357623 gap_fmax_final=0.0008738306685240299 gap_converged=1 pbc="F F F"
Ti      13.08021866      10.08341445      11.37182188
Ti      13.01189473      11.32121484       9.40006890
Ti      11.49308354      10.70146481       7.56505938
Ti      12.19976841       8.66822387       9.19167285
Ti       9.94065534       8.86486246       7.76246624
Ti      11.11321526      12.80501239       8.89867073
Ti      11.53549024      12.34655570      11.52380200
Ti      11.31391213      10.22778023      13.09132152
Ti      11.70503553       8.06193605      11.71810431
Ti      10.28206397      10.26497900      10.28848070
Ti       9.64568732       7.61982090      10.11813093
Ti       9.49499280       8.61128384      12.67254805
Ti       7.83478299       9.19973874       8.89191403
Ti       9.20054383      12.96362923      10.36101425
Ti       8.97810173      11.45488686       8.04017809
Ti       8.98156680      11.29793413      12.45006183
Ti       7.64981777       9.11984763      11.34501712
Ti       7.45497974      11.30322570      10.22547799
19
Properties=species:S:1:pos:R:3 config_type=qcd gap_pre_relax_energy=-120.3212933321732 gap_pred_energy=-120.52626119067087 gap_fmax_final=0.0008690830421856859 gap_converged=1 pbc="F F F"
Ti      13.58800032      12.32340484      10.50809066
Ti      11.76455119      12.69354075       8.69307931
Ti      13.15506118      10.50822388       8.59056371
Ti      12.69575115      11.39913587      12.84077064
Ti      13.71752942       9.66547258      11.08550290
Ti      10.39442014      10.37113003       7.81483499
Ti      10.90406440      13.14322119      11.33850555
Ti       9.32134501      12.58284241       9.08798353
Ti      11.57672965      10.83304638      10.60237001
Ti       8.01893641      11.79285112      11.28051783
Ti      10.18023151      11.29023873      13.11146272
Ti       7.62668869      10.77135208       8.68193103
Ti       9.43040202      10.00563914      10.30059721
Ti      11.36235273       8.97530738      12.53454213
Ti       8.77855544       8.26036274       8.58871110
Ti      11.39415446       8.35149208       9.40362613
Ti       8.62229071       9.38164135      12.77583037
Ti       7.13773701       9.08887291      10.67513422
Ti       9.30468127       7.53570725      11.05942868
20
Properties=species:S:1:pos:R:3 config_type=qcd gap_pre_relax_energy=-127.79259824469499 gap_pred_energy=-127.90169115437742 gap_fmax_final=0.0008367993927973912 gap_converged=1 pbc="F F F"
Ti      11.63470716       8.22218056      12.13809257
Ti      12.58300896       9.52963325       7.88048877
Ti      11.00993550      10.86136916       9.44412487
Ti      11.30742253      10.89108551      12.89563126
Ti       8.80567722      11.69077528       8.45664851
Ti       9.99188656       9.36586211       7.46143987
Ti      13.23756714      11.93818148       8.74604291
Ti      11.12091025      11.60157684       6.98465982
Ti       8.17946292       8.86395633       9.41223665
Ti      10.98330868      13.39458592       8.91984796
Ti       9.28026290       7.27757041      11.44486686
Ti       7.43006654      11.20450573      10.74002468
Ti       9.64454389       8.82781127      13.61214953
Ti      13.08192149       9.92896274      10.61003989
Ti       9.62690838      12.70943994      11.17434973
Ti       7.37156306       9.00711286      12.03178035
Ti      12.31807192      12.58222020      11.03518727
Ti       8.52813412      11.17290850      13.12950584
Ti      11.06091747       7.97794167       9.51336400
Ti       9.67743691       9.82603381      11.24323226
21
Properties=species:S:1:pos:R:3 config_type=qcd gap_pre_relax_energy=-134.85731068714534 gap_pred_energy=-135.05673669714358 gap_fmax_final=0.0008994785297675005 gap_converged=1 pbc="F F F"
Ti      11.03233320       6.73479151      10.02020841
Ti      10.64366982       7.06583967       7.33725632
Ti      12.82472707       8.23100921       8.39366774
Ti       8.27791830       7.32284706       8.70958076
Ti      10.61667942       8.47555329      12.11361994
Ti      12.62497885       8.98926601      10.76346246
Ti      11.40084741       9.53425717       6.65226453
Ti       8.70113826       7.38612050      11.27865920
Ti       8.90524110       8.88863109       6.74310901
Ti      10.45825835       8.98208050       9.07607086
Ti      12.23205902      10.87696594       8.87726492
Ti       8.76492728      10.24955048      10.13692891
Ti       6.94496505      10.00296447       8.29233492
Ti       6.64564643       8.55179114      10.54609979
Ti       9.56335699      11.31719085       7.49669355
Ti      10.97085590      11.00811740      11.62027882
Ti       8.26645744       9.79140877      12.54793579
Ti      10.25515479      12.58315254       9.69180172
Ti       6.39808417      11.02370777      10.79157906
Ti       7.74441853      12.48009349       9.11113971
Ti       8.57463975      12.35101828      11.64640070
22
Properties=species:S:1:pos:R:3 config_type=qcd gap_pre_relax_energy=-142.1549133596336 gap_pred_energy=-142.2912552037598 gap_fmax_final=0.0009606192449193058 gap_converged=1 pbc="F F F"
Ti      11.73949905       8.22586020       8.99019599
Ti      11.46053885       7.07657402      11.11509787
Ti      13.12308660       9.26087165      11.10644901
Ti      12.68421910      10.59961040       8.46281159
Ti      10.05043265       9.65134608       7.60410482
Ti       9.16451361       7.83564664       9.81597453
Ti      11.79439044       8.34425848      13.29597101
Ti       9.36477661       7.46938694      12.50385290
Ti      13.03677057      11.85684422      10.86269342
Ti      10.92360580      12.18216424       7.12303491
Ti      10.50005503       9.57067750      11.30668261
Ti      12.21843698      13.24281510       9.03961232
Ti      10.41495008      11.34436583       9.60834361
Ti       9.65702927       9.60891909      13.84991895
Ti      11.84760347      11.05200304      13.04057246
Ti       7.88910935       9.62649394      11.74982823
Ti       7.83364368       9.98339881       9.16625733
Ti       8.49397210      11.90170148       7.82539065
Ti       9.74713708      13.83410613       8.90707764
Ti      10.76757705      13.29123125      11.36957941
Ti       9.22000143      11.76371731      12.81066344
Ti       8.13343557      12.34279200      10.51067162
23
Properties=species:S:1:pos:R:3 config_type=qcd gap_pre_relax_energy=-149.24422112910264 gap_pred_energy=-149.34160515134042 gap_fmax_final=0.0009205523958635482 gap_converged=1 pbc="F F F"
Ti      12.66107171       8.88282753       7.72605622
Ti      11.35274957      10.82064551       7.13649401
Ti      13.25652745      11.19217086       9.11986908
Ti      11.06996057       9.81228396       9.69254609
Ti      11.59279370       7.19246190       9.27901571
Ti      13.53536172       8.70314588      10.10226233
Ti       9.79259180       8.62890056       7.80531945
Ti      12.99035520      10.58406327      11.90385636
Ti      12.53414113      12.92157595      10.94154022
Ti      10.92209788      12.81096207       8.87300463
Ti      11.58253286       8.09589987      11.81986817
Ti      11.18494665       9.88674918      13.64650552
Ti       9.39437608       7.60618024      10.28099068
Ti      11.36298855      12.56743507      13.30606984
Ti       8.93074773       8.97267930      12.43031206
Ti       9.07477986      11.18827520       7.95427237
Ti      10.37437730      14.04891222      11.18164034
Ti      10.07533526      11.31788780      11.46901434
Ti       9.12055960      11.16200663      13.99338214
Ti       8.64216619      13.26273712      12.66350615
Ti       8.03628547       9.78366335       9.83756301
Ti       8.30736637      12.62841808       9.99590723
Ti       7.40848079      11.13271191      12.04359750
24
Properties=species:S:1:pos:R:3 config_type=qcd gap_pre_relax_energy=-156.08062184135747 gap_pred_energy=-156.21759272996397 gap_fmax_final=0.0007272320189497912 gap_converged=1 pbc="F F F"
Ti      10.70442962      12.66880370      12.75570500
Ti      12.20207579      10.72437685      13.74432471
Ti       9.76044458      10.06650870      13.32056386
Ti      11.65402450      13.69972635      10.55375096
Ti       8.21554085      12.08046507      12.57334004
Ti      13.23201103      12.11852314      11.65952526
Ti      11.87346971       8.13090516      12.97571756
Ti       9.05086282      13.92822534      10.75319398
Ti       9.73221915      11.46228578      10.27349225
Ti      14.01992698       9.68576923      12.47679528
Ti       7.84366092       9.71788721      11.29633051
Ti      10.50553734      13.46340408       8.45665019
Ti      11.65420319       9.91681780      11.09492152
Ti       8.26841563      12.74461557       8.29394837
Ti      14.20110125      10.23680181      10.00413744
Ti       9.54084797       7.96127960      11.79316499
Ti      12.49118146      11.77661183       8.86784814
Ti      13.58010219       7.95442638      10.71360465
Ti       7.06890976      12.13123502      10.41170596
Ti      10.18201491      10.83158976       7.68366725
Ti       9.54295010       8.64931756       9.19160966
Ti      11.36679097       7.20062826      10.42934475
Ti       7.70802003      10.37305432       8.69388169
Ti      12.20279084       9.07827308       8.58430756
25
Properties=species:S:1:pos:R:3 config_type=qcd gap_pre_relax_energy=-162.783180340223 gap_pred_energy=-162.98844013220585 gap_fmax_final=0.0008193993780138838 gap_converged=1 pbc="F F F"
Ti      10.40696541       9.51867695      11.33132650
Ti      11.20290873       7.03897873      11.63756308
Ti      11.08138250      13.26140568      12.29546807
Ti      12.49714352       8.87289450      13.10388518
Ti      11.42081104      14.59620673       9.92717220
Ti       9.01643471       7.38491288      10.02494308
Ti       7.70576596       9.66557430      10.76368941
Ti      11.19930031       7.77866413       9.08605938
Ti       8.40366511       9.77837528      13.35546186
Ti       8.68098806      11.92144791      12.02493412
Ti       9.14296976      13.94571159      10.56591701
Ti       9.24925407       9.47992408       8.47312830
Ti       9.87892029      13.73164672       8.19712209
Ti      10.32584980       8.28432353      13.87669284
Ti      10.16569588      11.56358366       7.26151186
Ti      10.75779528      10.97144357      13.67962210
Ti      10.91298930      11.78066894       9.96740103
Ti      12.41284023      12.78515873       8.06545788
Ti       8.55595846       7.56626899      12.30511391
Ti      13.05280783       8.88382418      10.56108439
Ti      12.05311376       9.98282481       8.10641943
Ti       8.22565420      11.82941712       9.24312906
Ti      13.24073739      13.31231859      10.62239348
Ti      13.78210953      11.16815591       9.66800238
Ti      12.97122144      11.24087514      12.19978398
26
Properties=species:S:1:pos:R:3 config_type=qcd gap_pre_relax_energy=-168.81728325290302 gap_pred_energy=-169.17152140379002 gap_fmax_final=0.0008936188025762989 gap_converged=1 pbc="F F F"
Ti      13.67784773      12.60292670      10.16409463
Ti      13.63966799      10.65699477       8.55889715
Ti      13.51054407      10.01717992      11.22285585
Ti      12.22334015      12.76660487       8.01363537
Ti      12.51177072      12.27235968      12.33281212
Ti      11.13329522      13.72334460      10.43731835
Ti      11.36622698      11.29225346       9.94909418
Ti      11.47337617       9.91316292      13.41499169
Ti      11.07865763      10.37248962       7.41869631
Ti      12.44738284       8.43233405       9.37852688
Ti      10.16893815      12.17559629      12.49741521
Ti       9.47821889      12.36243296       8.15126577
Ti      12.26188770       7.69420178      12.08424035
Ti      10.53320960       9.24992581      11.12350920
Ti      10.31640627       8.03845162       8.11286347
Ti       8.49073773      12.54399064      10.61089338
Ti       9.82781083       7.78713263      13.04548441
Ti       8.73636234      10.05113137       9.58277788
Ti       8.55212479      10.26505804      12.67993576
Ti      10.20978226       6.76747386      10.56940928
Ti       6.86515207      11.56878610       8.66085310
Ti       8.15419699       7.40875646       8.78645224
Ti       8.28568492       9.63671506       7.16859765
Ti       6.48907408      10.60927568      11.04658894
Ti       7.66849565       8.15060134      11.34159900
Ti       6.31705770       9.05806919       9.06444127
27
Properties=species:S:1:pos:R:3 config_type=qcd gap_pre_relax_energy=-176.26732888126955 gap_pred_energy=-176.53629955557483 gap_fmax_final=0.0009296663551974622 gap_converged=1 pbc="F F F"
Ti      13.01237416      12.19194239      13.21426583
Ti      11.48471411      13.73636625      11.37664639
Ti      11.98195090       9.80126647      13.65409193
Ti       8.53294284      13.23102312      11.21661019
Ti      14.22542837      12.88754582      11.19644141
Ti      10.34409249      12.09226976      13.16700981
Ti      14.42538445      10.25754993      11.88625427
Ti      10.27043969       7.75710154      13.39980070
Ti      12.32738423       8.06427647      11.73803242
Ti      12.36559116      11.14106087      10.78193387
Ti      12.50684970      13.15326625       8.91571277
Ti      10.04612943      14.32201820       9.22568563
Ti      10.09295932       9.77711260      11.54385763
Ti       9.29497381       9.84166408      14.17174008
Ti      10.35900970      12.60169718       7.29995282
Ti       8.04717862      12.75873156       8.53993510
Ti       7.86287119      11.21708840      12.75490887
Ti      14.52016659      11.16776682       9.32134770
Ti      13.57282520       8.93296603       9.63419906
Ti       9.86009147       7.08626147      11.10112038
Ti       9.06446750      10.27237561       7.90879774
Ti       7.86148259       8.61215445      12.20321214
Ti      10.04611234      11.77333194       9.74254165
Ti       7.43842475      10.73814858      10.24377340
Ti      12.05215845      10.65728795       7.96811292
Ti      11.00038116       8.52895813       9.17348219
Ti       8.40146529       8.39661764       9.61838260
28
Properties=species:S:1:pos:R:3 config_type=qcd gap_pre_relax_energy=-183.27598295217956 gap_pred_energy=-183.53343381950006 gap_fmax_final=0.000988457550252146 gap_converged=1 pbc="F F F"
Ti      10.83301284      10.78770285       7.21226898
Ti      13.05322808      10.79439837       8.44213553
Ti      11.69712214      13.18366959       8.35506919
Ti      13.95841980      12.86344501      10.04185602
Ti      15.03777547      10.29014858      10.14741497
Ti      10.94426625       8.87834042       9.12783096
Ti       9.09241978      12.53190154       7.72811964
Ti      13.35896170       8.53026812       9.90561793
Ti       8.64817757      10.05939532       8.32116465
Ti      15.11948898      11.60485500      12.20917674
Ti      10.35643140      11.46399003       9.80790576
Ti       9.41753708      14.05898275       9.58079350
Ti      11.51051718      13.84939105      11.12012043
Ti      12.67665295      10.90574474      11.25522876
Ti      13.49378112      13.37816740      12.61833594
Ti      14.11141267       9.07376320      12.38663045
Ti       7.75818775      11.91407484      10.03807104
Ti       8.97972114      13.43499359      12.16418552
Ti      13.26918818      11.31480391      14.12359534
Ti      11.27759913       8.39934661      11.76644565
Ti      10.47859398      11.24032100      12.58672577
Ti      11.14759281      13.36001774      13.93714535
Ti       8.86333455       9.30737011      10.89884504
Ti      11.96255467       9.14810417      13.99020583
Ti       7.70137396      11.04036074      12.47529217
Ti      10.90858029      10.99722313      15.28312808
Ti       8.82105807      12.00227466      14.45938182
Ti       9.26490682       9.32884184      13.75920534
29
Properties=species:S:1:pos:R:3 config_type=qcd gap_pre_relax_energy=-189.8486237508968 gap_pred_energy=-190.28239869453068 gap_fmax_final=0.0006127653234101513 gap_converged=1 pbc="F F F"
Ti      11.71859052       8.56822142      13.77918985
Ti      12.79833405      10.22510387      15.45337061
Ti      10.28629705      10.16982995      15.44403631
Ti      14.13335013      10.11210950      13.26061944
Ti       9.04758882       9.64679402      13.23079176
Ti      10.42561315       8.62918355      11.44199200
Ti      12.91671954       9.24249241      11.22267150
Ti      11.39768323      12.41140808      15.60834766
Ti      11.46130606      11.08894993      13.15368833
Ti      13.49297850       9.24399030       8.51032640
Ti       9.23116831      12.33830546      14.12782763
Ti      13.58814489      12.39526718      14.42738375
Ti      10.72080823       9.18868794       9.00203290
Ti       8.28610076       9.85844025      10.40201297
Ti      12.33513986      11.36690513       9.61931770
Ti      11.79785572      10.61612482       7.07655480
Ti       7.62503647      11.68522214      12.26942741
Ti      14.87628802      10.79212693      10.12853770
Ti       7.75037773      12.48284045       9.97122810
Ti       9.49151152      11.40465295       8.22562249
Ti      10.06010114      11.63842458      10.93170097
Ti      13.62211696      12.39215817      11.88179136
Ti      14.08437690      11.60417303       7.65372188
Ti      11.49537921      13.82266708      13.39476302
Ti      14.12075174      13.33795609       9.43593204
Ti       9.14909685      13.93532950      11.83202788
Ti      11.89333581      13.24108455       7.88397475
Ti       9.71270407      13.83946615       9.23868648
Ti      11.80857380      14.04941360      10.71975134
30
Properties=species:S:1:pos:R:3 config_type=qcd gap_pre_relax_energy=-196.73063928376052 gap_pred_energy=-196.9852731302886 gap_fmax_final=0.000869727978482169 gap_converged=1 pbc="F F F"
Ti      13.85715410      10.02968400      12.08118844
Ti      14.32382054       8.98814304       9.62755778
Ti      13.09560263      12.59864336      12.26386709
Ti      13.61880127      11.42383550       9.72210354
Ti      12.85853417      13.82792331       9.86376379
Ti      13.51719358       7.41475130      11.37475422
Ti      11.39780749      10.68793530      13.30884888
Ti      11.42637355      14.68181514      11.70158281
Ti      12.13794533       8.19007810      13.07858189
Ti      12.62790232       7.21455484       9.06212298
Ti      12.36697730       9.62070160       7.90466714
Ti      11.46909279      12.22755190       8.18651661
Ti      11.73949639       9.38737560      10.51914417
Ti      10.69149728      13.19684840      13.38194275
Ti      10.85911396      12.10015895      10.85249776
Ti       8.85288278      13.79341774      11.46145027
Ti      10.50592047      14.47471862       9.40295872
Ti      10.22339767       7.87329510       8.58888249
Ti       9.72441404      10.40416693       7.60353121
Ti       9.62997983       8.83908331      12.71856266
Ti      10.85446722       6.88937015      11.07946466
Ti       8.73851575      12.76398290       8.92858637
Ti       8.77989273      11.45264363      12.91761800
Ti       8.98364408      10.13890382      10.22597482
Ti       7.82876875       8.56823167       8.18674833
Ti       8.29165371       7.57473400      10.66134101
Ti       7.16252275       9.50670646      12.20479015
Ti       7.13604676      10.95112586       8.27915839
Ti       7.00677782      11.86300923      10.84560963
Ti       6.33006650       9.35287381      10.00244708
31
Properties=species:S:1:pos:R:3 config_type=qcd gap_pre_relax_energy=-203.85047618190026 gap_pred_energy=-204.3269859561765 gap_fmax_final=0.0009805881595525135 gap_converged=1 pbc="F F F"
Ti      13.56149668       9.80154305      13.15744722
Ti      13.97004343       8.17903828      11.05204478
Ti      11.91884578       7.52013108      12.66645957
Ti      11.30084842       9.71163232      14.13594109
Ti      14.26633419      12.28979845      12.42755413
Ti      12.42780120      12.17521873      14.40672516
Ti      14.13147395      10.86225497      10.29913025
Ti      12.02897318       7.12648229       9.98731996
Ti      11.71294432       9.50733526      11.22600689
Ti      13.04634055       9.26101847       8.56552886
Ti       9.22119066       8.85464208      13.02267858
Ti      11.42676918      12.06519552      12.07829280
Ti      12.80444908      14.23065221      12.70988632
Ti       9.44578301      11.50861901      13.91688605
Ti       9.50846394       7.72039398      10.68776835
Ti      10.48968399      13.99641361      13.56829090
Ti       7.19204357      10.92494771      12.68248459
Ti      13.38538621      11.91155761       7.87993559
Ti      11.18151033      11.44794437       9.37346728
Ti       9.17540756      10.63464393      11.00618214
Ti       7.10443202       8.99636567      11.12608838
Ti      13.19622663      13.37939837      10.11745078
Ti      10.49984276       8.77151891       8.41707829
Ti       8.57795766      13.15250684      11.96321257
Ti       7.99865005       9.14455114       8.85418984
Ti      10.80983738      14.27937298      10.68130909
Ti      11.43375365      10.86693458       6.82648522
Ti       7.00743127      11.41220132       9.94291410
Ti      11.08895102      13.34913350       7.81044366
Ti       8.89052693      13.30046644       9.39433812
Ti       8.99189617      11.41338206       7.81175417
32
Properties=species:S:1:pos:R:3 config_type=qcd gap_pre_relax_energy=-210.48785343083242 gap_pred_energy=-211.16466805181093 gap_fmax_final=0.0009740349286894604 gap_converged=1 pbc="F F F"
Ti       7.55909978      12.59051747      13.00110811
Ti      10.17886158      12.78638700      13.93156571
Ti       8.99401430      14.29347858      12.07960129
Ti       7.70739020      12.76580642      10.22673852
Ti       7.01336898      10.56572453      11.67865675
Ti       8.68016702      10.30842268      13.80939407
Ti       9.53212048      11.55277006      11.60689134
Ti      11.55906396      14.68693218      12.31580135
Ti      13.12872716      12.86336296      13.82326787
Ti      11.42612887      10.52029676      14.20104853
Ti      10.17432228      14.05612610       9.78344597
Ti       8.62230183       8.53936585      11.59179141
Ti       8.37477115      10.18700470       9.34653529
Ti      10.01632931       8.07965091      13.70236572
Ti      12.58693186      14.55108870       9.76198094
Ti      14.11784262      14.17091784      11.66576354
Ti       9.20874723      12.36006089       8.00233226
Ti      11.46385073       9.50922123      11.66864305
Ti      12.40409389       7.89799998      13.62035275
Ti      14.11022499      12.55538638       9.40027114
Ti      14.98474542      11.92753716      11.95963619
Ti      13.77292653      10.17488345      13.14520810
Ti      11.19831694      11.13244362       9.46059846
Ti       9.97741507       8.33216714       9.37887835
Ti      11.76191106      12.83968271       7.65840897
Ti      13.64345564       7.85639522      11.51164025
Ti      12.23955596      12.31025943      11.55647796
Ti      11.08586862       6.97792314      11.47336018
Ti      10.63964760      10.30273925       7.23638268
Ti      14.08800643      10.03655334      10.24798681
Ti      12.30619022       8.39910711       9.19683912
Ti      13.21116536      10.63735032       7.72459040
33
Properties=species:S:1:pos:R:3 config_type=qcd gap_pre_relax_energy=-217.56270949388016 gap_pred_energy=-217.93865511890675 gap_fmax_final=0.0008425785627075958 gap_converged=1 pbc="F F F"
Ti      11.25757402      14.36891510      11.53583009
Ti      11.99069046      12.55022567      13.43993172
Ti      11.81483177      13.40950775       9.00979277
Ti       9.38903334      12.95944327      12.66592662
Ti      13.44095184      13.36730614      11.27387451
Ti       9.41722005      13.62832362       9.74267881
Ti      11.32061384      11.67146208      11.16219616
Ti       7.61342761      12.37315867       8.10941490
Ti       7.45658369      12.26516880      10.72531934
Ti       9.95439489      12.44348252       6.89154626
Ti       9.96175966      10.59394321      13.91734641
Ti      13.61139722      11.30393157       9.50356256
Ti       7.47537847      11.41749194      13.36239429
Ti      12.21626738       9.55176270      13.04534329
Ti       9.88630930      10.95708098       8.90977187
Ti      13.94163199      11.17657659      12.15073365
Ti      12.30540264      11.46391511       7.35116085
Ti       7.75239721       8.94086949      13.51015020
Ti       6.28528111       9.98087815      11.72391494
Ti       8.96603242      10.08471775      11.42612845
Ti      13.95909120       8.92127925      10.78632718
Ti       8.19812204      10.40317974       6.84426779
Ti      11.40895216       9.03411465      10.14185827
Ti       7.00854181       9.95346961       9.29029385
Ti      13.11043277       8.99405794       8.03825722
Ti      12.38321060       7.14349547      11.93709496
Ti      10.05564596       7.94510233      12.76534773
Ti      10.65993059       9.66296888       6.68141671
Ti       7.76437628       7.78058874      11.07784575
Ti       8.80670154       8.27606092       8.58324996
Ti      12.78231306       6.83685251       9.54802093
Ti      11.04056264       7.33584606       7.90963901
Ti      10.19260170       6.63248400      10.36702420
34
Properties=species:S:1:pos:R:3 config_type=qcd gap_pre_relax_energy=-224.34106243121548 gap_pred_energy=-225.02350456324362 gap_fmax_final=0.0009839412319168478 gap_converged=1 pbc="F F F"
Ti       8.82475005       7.43131847      11.37952086
Ti      11.21734623       6.86876135      10.84944588
Ti      10.70752483       8.35367064      13.36686540
Ti       9.68187552       8.12131408       8.91831994
Ti       8.44675602       9.72405523      13.04419516
Ti       7.71634555       9.36188536      10.34863333
Ti       7.89525551      11.83747222      11.28241802
Ti      10.36216353      10.74389258      15.06744428
Ti      10.48569637       9.37573252      10.90387924
Ti      13.14470602       8.26686157      11.86713945
Ti      12.70179266       9.79603285      13.94961570
Ti      11.32260494      10.41930785       8.22327543
Ti       8.47529728      12.27714016      13.88920411
Ti      10.67614980      11.32884434      12.80535626
Ti      12.78070771       8.52175693       9.26243168
Ti       8.82898595      10.95695216       8.63091741
Ti      10.42592049      12.22767418      10.32926371
Ti       8.60877748      13.67361341       9.37624062
Ti      12.87875389      10.75751151      10.83522953
Ti      10.57249680      13.01297053       7.90655084
Ti      12.94945558      12.20972358      14.64700333
Ti      10.72009377      13.63697215      14.36698141
Ti      14.73078647      10.97938864      12.77933082
Ti      15.07946210       9.64685874      10.31484600
Ti       9.27206483      14.10778240      12.00918032
Ti      13.97367309      10.91675944       8.43746498
Ti      12.58472282      13.16919034      12.18537768
Ti      11.08401125      14.84514121       9.98882796
Ti      13.22159391      14.96276265      13.94675168
Ti      15.05803274      13.50202394      13.08066082
Ti      15.01051548      12.40512779      10.54366061
Ti      11.37481620      15.66621611      12.48834352
Ti      12.95902722      13.30176663       9.21890591
Ti      13.79660446      15.16228499      11.32548468
35
Properties=species:S:1:pos:R:3 config_type=qcd gap_pre_relax_energy=-231.7212140906128 gap_pred_energy=-232.12993382710272 gap_fmax_final=0.0009741412705477987 gap_converged=1 pbc="F F F"
Ti       9.38096878      14.69993425      13.09188308
Ti      11.86985083      14.60756099      12.48803353
Ti       9.84910897      14.55390746      10.48728657
Ti       7.39700133      13.44742709      11.69118858
Ti       8.20922914      12.87729294      14.19816010
Ti      12.31289607      14.98561377       9.80555505
Ti      10.99650858      12.61960538      14.32060735
Ti      14.18101820      14.13206002      11.12614824
Ti       8.33722398      12.89965659       9.17874823
Ti      13.39400777      12.38596935      13.24377682
Ti       9.61213889      12.21474828      12.04783831
Ti      10.79640168      12.96300979       8.42200397
Ti       7.16607430      11.06886802      12.90527698
Ti       9.47697853      10.44888412      14.41806990
Ti      12.09802522      12.58102232      10.84340219
Ti      13.63306461      12.87384512       8.75010733
Ti       7.24798959      10.90019752      10.16731831
Ti      14.86557541      11.63254915      10.94434050
Ti       8.50351959       9.08364686      12.19254322
Ti      14.25339163      10.03256104      12.85952944
Ti      11.41519873      10.18973997      12.49704951
Ti      12.30130037       9.89255761      14.72478875
Ti       8.28410002       8.58737501       9.46466651
Ti       8.83777391      10.65120421       7.83391409
Ti      14.67728437      10.57021825       8.53257735
Ti      11.92901337      10.76237442       7.70036562
Ti      12.59095419       9.96238025      10.18800199
Ti       9.89091821      10.61373549      10.02247131
Ti      10.51613096       8.07993847      13.81523489
Ti      12.89556794       7.98159276      12.70277323
Ti      14.78450646       8.70313034      10.52248263
Ti      10.73501441       8.52119876       8.42549416
Ti      10.37434034       7.72258635      11.03740149
Ti      13.47261871       8.49181051       8.17768382
Ti      12.61588983       7.16338246      10.07486186
36
Properties=species:S:1:pos:R:3 config_type=qcd gap_pre_relax_energy=-238.81884322281758 gap_pred_energy=-239.2250248897782 gap_fmax_final=0.0009023820841010879 gap_converged=1 pbc="F F F"
Ti       9.60157257       9.12055612      14.69544099
Ti      10.66925521      11.56625297      14.97795906
Ti       8.11673064      11.02003451      13.68433083
Ti       9.55313654      13.29596375      13.11897358
Ti      12.24741738       9.24605093      14.76234257
Ti      11.70641840      13.99447855      14.70520379
Ti      10.73994887       7.46544255      13.27862223
Ti      13.54816805      12.06490422      14.71914893
Ti       8.43527182       8.62370455      12.29476028
Ti      14.11006059      10.10633425      13.01112455
Ti       7.23315798      12.77946715      11.83853615
Ti       9.26829408      11.09315954      11.23770107
Ti       6.73637729      10.40353986      11.34558294
Ti      12.22324690      12.48016012      12.61815590
Ti      13.02881932       8.07989415      12.18829983
Ti      11.32850739      15.01662644      12.08190578
Ti      11.11216961       9.98264683      12.65293448
Ti      13.74053778      14.41098177      13.39799342
Ti      13.52640361      14.28813713      10.70836429
Ti       7.73008840      11.88605510       9.33794291
Ti      14.80418913      12.23500910      12.00214009
Ti      11.27954772      12.77372952      10.13904001
Ti      14.44317878      12.17294666       9.20190001
Ti      12.68655893      10.41931158      10.15627645
Ti      15.17865910       9.77214997      10.53229994
Ti       8.26171159       9.15534497       9.69562146
Ti      11.23690451      15.27110674       9.42559946
Ti      10.81580418       8.17944704      10.58970661
Ti       9.99252720      10.62230562       8.50750825
Ti       9.02132714      14.18466189      10.51682140
Ti      13.44008835       7.86172076       9.60682552
Ti      12.22079810      11.47330322       7.54521630
Ti      12.72096341      13.87922595       8.10491225
Ti      14.22919098       9.76739876       8.10949186
Ti      10.04199944      13.33595837       8.00065774
Ti      11.80443152       8.80545184       8.04412163
37
Properties=species:S:1:pos:R:3 config_type=qcd gap_pre_relax_energy=-245.46877323834607 gap_pred_energy=-246.0899625994517 gap_fmax_final=0.0009505709635200006 gap_converged=1 pbc="F F F"
Ti      12.41437143       8.03471337      10.33145038
Ti      10.63725553      11.09555831       9.75526445
Ti      12.65209984      15.26018593      10.08216817
Ti       8.00406860       8.73983811      12.09419027
Ti      11.33693657      11.27016665       7.13078618
Ti      13.39993955      10.65280724       8.93484182
Ti      14.82407501       8.91577651      10.65091533
Ti       7.86042266      10.36679261       9.98756090
Ti      14.93166179      14.27934110      10.92387491
Ti       9.30985334       9.82841601       7.73108113
Ti       9.03224879      12.39020113       8.12183414
Ti      11.49602755       9.73106843      14.33477849
Ti      11.58807749       8.95861026       8.07379902
Ti       7.90961314      12.57563936      10.63958610
Ti      12.78382540      10.25073267      11.66417452
Ti      11.05107835      14.45987685      14.74569646
Ti      11.58636078      11.99305323      15.81616131
Ti      13.44083412      13.43293790      15.19577499
Ti       7.34731452      11.14183856      12.95207861
Ti      10.96548230      15.31596275      12.28833179
Ti      14.81475211      12.62946211      13.01669535
Ti      15.43199822      10.05923405      12.69582284
Ti      12.66906423      12.81799676      10.69073138
Ti      13.53915072       8.21207244      12.89547670
Ti       9.33201357      12.03265400      14.71560018
Ti      13.27467717      14.94758197      13.05478435
Ti       8.89140996      13.59885083      12.80338725
Ti       9.77109411      10.85275399      12.27974666
Ti      13.72607362      10.79479065      14.57331052
Ti      11.79190921      12.67915674      13.12293613
Ti      14.10373575      13.38601393       8.67534159
Ti      11.49905884      13.50806717       8.30186343
Ti       9.71120718       8.47359821      10.07936828
Ti      10.69228201       8.16688505      12.51651789
Ti      10.00493399      13.98258318      10.33306468
Ti       8.85208873       9.42184617      14.28811782
Ti      15.27304365      11.69297561      10.45292585
38
Properties=species:S:1:pos:R:3 config_type=qcd gap_pre_relax_energy=-252.3990983027485 gap_pred_energy=-253.17887127751297 gap_fmax_final=0.0009406126294211871 gap_converged=1 pbc="F F F"
Ti      15.51891922      12.70791286      13.56347600
Ti      14.68070783      14.52985056      11.80705803
Ti      16.09435193      12.33503149      11.12006484
Ti      15.17256450      10.18852444      12.90832800
Ti      13.57441709      14.16359744      14.38279413
Ti      14.05722059      12.92685726       9.13474596
Ti      12.64143465      15.88245034      12.57123619
Ti      13.28771406      11.13309942      14.46126247
Ti      12.16348126      14.50838225      10.09113704
Ti      13.66023180      12.16952507      11.74629669
Ti      14.74530427      10.47025056       9.76592058
Ti      11.07044313      15.17186239      14.43302120
Ti      13.38741443       8.30869452      13.90305511
Ti      11.50122929      12.80290280       7.81444895
Ti      14.71397560       8.24916936      11.39197338
Ti      10.23915558      15.40966064      11.62120262
Ti      12.44786003       9.68412275      12.02322885
Ti      11.72417770      13.39912012      12.76727002
Ti      11.08653321      12.37955926      15.23787518
Ti      11.92918450      11.15044316       9.78282485
Ti       9.96197339      12.64659129      10.75316880
Ti      13.22121645      10.81000748       7.60177948
Ti      10.90099948       9.52099867      14.95733316
Ti       8.72678636      11.01957867      14.90466884
Ti       9.11797820      13.44315919      13.85864493
Ti      10.29764374      10.98184301      12.88609787
Ti       9.08948642      12.01248487       8.16291882
Ti       9.45135317      14.48849863       9.12322345
Ti      12.60421214       7.06538911      11.57910963
Ti       7.96195667      14.37194106      11.53997307
Ti      10.68727219      10.01305923       7.96900866
Ti      10.88365401       7.66822572      13.19006022
Ti       7.70972859      11.69011963      12.36577346
Ti      12.83643739       8.61478556       9.32245612
Ti       7.46692621      12.72164034       9.83158907
Ti       8.73644021       9.07025671      13.06383544
Ti       8.70700927      10.27776992      10.32413349
Ti      10.46747810       8.53750687      10.56387809
39
Properties=species:S:1:pos:R:3 config_type=qcd gap_pre_relax_energy=-259.5771597538512 gap_pred_energy=-259.99206027896656 gap_fmax_final=0.00095724192513894 gap_converged=1 pbc="F F F"
Ti      10.97120551      12.57302933      14.95968846
Ti      10.52568059       9.80439296      14.93621505
Ti      10.78759632      10.65003952      12.72699416
Ti      13.17795760      11.16558508      14.17912404
Ti      12.92977686       8.64670498      13.37296340
Ti      13.29325023      13.99328578      14.03960872
Ti      15.17170546      10.18629641      12.53867124
Ti      10.51374456       7.87921414      13.01700570
Ti      15.41677862      12.65928650      13.17071156
Ti      11.15015897      15.34138355      14.08283616
Ti       8.65370361      11.68377971      14.09580231
Ti       8.49802353       9.22192795      12.83347277
Ti       8.93274774      14.38807155      14.31568487
Ti      14.81189074      14.59063544      11.82707008
Ti      10.40854447      13.30518741      12.37741476
Ti       9.18225363       7.28592352      10.67253094
Ti       8.14385627      11.52051801      11.30194392
Ti      13.01899908      10.03352734      11.07285221
Ti      12.07527387       7.28332537      11.07291463
Ti      11.00506965       7.47303943       8.68862734
Ti      10.32821360       9.56289759      10.35453799
Ti      13.23981535       8.65033194       8.85522451
Ti       7.53252707       9.31923846      10.21343528
Ti       7.63853720      13.76418054      12.35969699
Ti      15.40587027       9.82142749       9.84598740
Ti      14.58085203       7.94393144      11.14996835
Ti      15.30942663      12.30757322      10.46873229
Ti      13.09300404      12.62534429      11.80923302
Ti       9.46207345      15.66364822      12.00030159
Ti       8.88418713       8.59393066       8.33314716
Ti      10.92050111      12.17983713      10.03089499
Ti      12.36484242      15.44128754      11.76311429
Ti      13.34539554      11.48010442       8.71564110
Ti       8.79757810      11.31034655       8.54098746
Ti      11.08710554      10.24418340       7.80797486
Ti      13.24292841      14.01208654       9.51201566
Ti      10.87650270      14.96305751       9.73301501
Ti       8.75732906      13.77998602       9.79869018
Ti      10.85204484      13.03840488       7.81222132
40
Properties=species:S:1:pos:R:3 config_type=qcd gap_pre_relax_energy=-266.5467967257135 gap_pred_energy=-267.2412825630663 gap_fmax_final=0.000980104188861503 gap_converged=1 pbc="F F F"
Ti      10.85523100      12.84078105      15.39687198
Ti       8.39578306      12.17727595      14.78453476
Ti       9.16406599      14.37329450      13.86174155
Ti      12.63726179      10.68329852      15.82117390
Ti      13.63365057      12.85408337      15.36332390
Ti      10.25976706      10.18465797      15.02856097
Ti      12.01560979      14.40692969      13.69006995
Ti       7.62143729      12.72035887      12.30883455
Ti      10.15525748      12.31720214      12.68716038
Ti      12.40896334       8.64283193      14.13492378
Ti       8.16393157      10.02850774      13.36782507
Ti      14.75560124      10.63162034      14.29255407
Ti      11.46332038      16.00938894      11.39329032
Ti      13.83089109      15.50303005      12.01951489
Ti      12.75773286      11.62291524      13.13201294
Ti       9.36170817      14.46287532      11.23303513
Ti      14.83425965      13.32192924      13.23519923
Ti       9.87750321       7.84616266      13.86886943
Ti      12.29453459      13.47651166      11.06789287
Ti      10.73831308       9.73866572      12.24946989
Ti       8.81797113       7.93203922      11.68932748
Ti       8.16097221      10.42508705      10.81618589
Ti      10.46635314      11.72698606       9.85245459
Ti      13.20916357      15.38941034       9.54888995
Ti       8.23487864      12.94505993       9.34717060
Ti      10.67083297      14.56758106       9.05371424
Ti      14.89792799      13.47737805      10.57317808
Ti      15.38931370      11.07922197      11.71519754
Ti       8.67750269      10.61096522       8.23706921
Ti      13.85968554       8.88039626      12.03184596
Ti      11.50339035       7.35244506      11.79965215
Ti      10.10055846       8.71265739       9.64782819
Ti      12.64930645      12.90680442       8.35410280
Ti      13.01299362      10.78913758      10.36973704
Ti      10.08475466      12.53645340       7.40172590
Ti      11.27699762      10.13401781       7.77592339
Ti      15.20094511      11.74946472       8.93216520
Ti      15.08985411       9.31075387       9.66151065
Ti      12.71506047       8.26598943       9.43009503
Ti      13.69139046      10.30050639       7.76004267
41
Properties=species:S:1:pos:R:3 config_type=qcd gap_pre_relax_energy=-273.16707020006817 gap_pred_energy=-274.00204488831116 gap_fmax_final=0.0009933366919952498 gap_converged=1 pbc="F F F"
Ti      14.12534860      13.18474913       8.41180103
Ti      10.82339595       9.86901225       9.00469091
Ti      11.57726667      13.47418218      12.24585783
Ti      12.69369736      15.37258265       9.00933086
Ti       9.69570459      11.35611303      15.79858728
Ti      11.76329030       9.59165840      11.70341835
Ti      10.52305894      15.43162133      13.35234454
Ti      13.95496432      12.46718673      15.24525765
Ti       9.94251935      12.05061115       7.65753147
Ti      12.66985177       7.05408307      11.61954986
Ti       7.50731505      11.67359604      11.53459585
Ti      15.75658570      13.42489948      13.23409538
Ti       9.19560593      12.88526437      13.62459816
Ti      14.29924214      14.03667803      11.04547487
Ti      11.33529263      13.52621121      15.15784142
Ti      12.79145994       7.91702262      13.86826837
Ti      11.76927522      12.99227605       9.62644584
Ti       8.97408118      10.12185586      13.54517589
Ti      12.59887326      11.23583780       7.59407289
Ti       7.94956831      12.85830464       9.25307333
Ti       9.89650058      14.60846785       8.61097075
Ti       8.90029998       9.10986893      11.20959694
Ti      13.68183145      11.85333010      12.64529621
Ti      13.60728647      11.04035706      10.03967814
Ti       8.78087988      14.17246513      11.35879826
Ti      10.73052087       7.55139316      10.18150589
Ti      15.89312958      11.70987495      11.32782961
Ti      11.97040720      13.70165926       7.10388794
Ti      14.49443116       9.29299468      12.01106519
Ti      10.38126109       7.66564494      12.94573352
Ti      11.50384196      11.07541089      13.95322709
Ti      13.44553030      14.68525892      13.77069348
Ti      12.69550699      16.00596200      11.76741739
Ti      10.92830083       9.02577095      15.42299982
Ti      12.05192837      11.15420541      16.54011271
Ti      10.67500378      15.82189653      10.70469508
Ti      13.80446154       9.85502055      14.90990637
Ti       9.93834533      11.65837429      10.94761359
Ti      15.90655665      11.01070786      13.79218739
Ti      13.06567398       8.51305899       9.55418699
Ti       8.21188383      10.47451060       9.18056490
42
Properties=species:S:1:pos:R:3 config_type=qcd gap_pre_relax_energy=-280.19573897997924 gap_pred_energy=-280.8895930946299 gap_fmax_final=0.0007963498209507818 gap_converged=1 pbc="F F F"
Ti      16.21289844      12.77311703      11.09597009
Ti      13.84629976      10.99971142       8.74283278
Ti      16.30641785      11.46140245      13.34255112
Ti      15.61243771      15.36028421      11.42163751
Ti      14.36375717      11.09195036      11.42308763
Ti      14.13836863      13.65099549       9.44032439
Ti      16.75115926      13.96464663      13.32333537
Ti      14.60191068       8.67855901      12.60356738
Ti      14.20433700      10.44754785      14.60541669
Ti      13.03240545       9.04289261      10.25949721
Ti      11.97068351      12.08578422      10.33772060
Ti      12.19696644      12.49423245       7.79011365
Ti      15.35738930      13.18450596      15.37692100
Ti      12.81481467      14.61040288      11.67384646
Ti      13.84440143      17.15609139      12.14297954
Ti      13.62193323      16.32643658       9.81330891
Ti      14.15495282      13.07141662      13.17547775
Ti      11.67668776      14.78933193       9.22686980
Ti      12.45836316       7.21225557      12.24675864
Ti      12.95431434       8.00646335      14.50996391
Ti      14.88894737      15.58154853      14.13221592
Ti      11.09660939      10.13950616       8.70509042
Ti      11.31319683      16.57311917      11.29456044
Ti      12.30271225      16.51648240      13.83045726
Ti       9.67008269      12.22011122       8.90036649
Ti      12.24669054       9.84435827      12.72452155
Ti      10.51888246       8.21727319      10.76669117
Ti      10.37015992       8.17883636      13.66163118
Ti       9.87404196      10.79084668      11.59022350
Ti      12.55594699      14.31933721      15.21452298
Ti      12.79617466      12.09169685      15.81544478
Ti       9.94524218      14.01265596      11.16008443
Ti      11.29767002      12.35514203      13.39355949
Ti      10.37674993      14.94863507      13.57141825
Ti       8.34756240       9.91997354       9.76346846
Ti       8.32729507       8.62132227      12.11050909
Ti       7.83621143      12.49905936      10.54284724
Ti      11.35840568      10.03349119      15.37248582
Ti      10.17497202      12.72098865      15.55627714
Ti       8.59726982      12.91214499      13.28252930
Ti       7.22011368      10.78543545      12.08297976
Ti       9.02826779      10.57371118      14.23963858
43
Properties=species:S:1:pos:R:3 config_type=qcd gap_pre_relax_energy=-287.3827111127145 gap_pred_energy=-288.0311610370781 gap_fmax_final=0.0009666595589602831 gap_converged=1 pbc="F F F"
Ti      15.46712925      13.43359740      12.65192432
Ti      15.70621334      11.82550147      10.85314787
Ti      14.15395669      14.10677619      10.35152254
Ti      13.51371875      12.94164479       7.84081477
Ti      15.72246367      10.83467168      13.40267518
Ti      13.88013299      15.53766770      12.99524533
Ti      12.31487842      15.89311662      10.73251515
Ti      14.99127958       9.45504738      11.13345147
Ti      12.58422941      15.14430667       8.20889297
Ti      13.42577279      11.23264155      12.38937661
Ti      13.33105653      11.20458817       9.72874191
Ti      14.09849367      13.24948053      14.63473784
Ti      11.49581216      13.27361788       9.81273249
Ti      10.78660500      13.43848010       7.30562543
Ti      14.02300727       8.70891496      13.49427855
Ti      12.09041153      14.99307625      14.87144655
Ti      11.21480592      16.11834298      12.93824657
Ti      13.50902342      10.52168942      15.20270759
Ti      12.41358214       8.77567911      11.40915638
Ti      11.86916661      10.92964023       7.41568640
Ti      12.85415100       8.75427885       8.77651582
Ti      12.25111309      13.61985607      12.53971641
Ti      10.14748107      15.37132439       9.00266176
Ti      11.13001040      10.01260141      13.55135919
Ti      10.88314472      10.13897340      16.19247980
Ti      10.58507849       8.62170522       7.56855238
Ti      11.98700560       8.15443052      15.32804770
Ti      10.84023944       7.32847300       9.82036988
Ti      11.54027037      12.40497553      14.98342323
Ti      10.64614400      10.08677212       9.82033680
Ti      11.29969482       7.20285379      13.11390246
Ti       9.48734738      14.55691600      11.40801879
Ti       9.14251459      10.91353172       7.82622785
Ti       9.67156381      14.02821346      13.88963526
Ti      10.05266711      11.81997907      11.85081426
Ti       9.48629167       8.41149241      14.67787697
Ti       8.74635457      13.00015223       9.51038439
Ti       8.61354123       8.47346895       9.03183982
Ti       9.34268080       8.40593110      11.71839620
Ti       8.97475005      11.53898720      14.53917679
Ti       7.87342178      10.60938070      10.28101127
Ti       7.70205410      12.65773492      12.21849943
Ti       8.03420887      10.15295495      12.86129572
44
Properties=species:S:1:pos:R:3 config_type=qcd gap_pre_relax_energy=-293.7202425156022 gap_pred_energy=-294.7297078506605 gap_fmax_final=0.0008355388704012243 gap_converged=1 pbc="F F F"
Ti      17.11978535      11.73902250      11.44674649
Ti      16.51357330      10.19095762       9.52339392
Ti      15.44407858      12.88097308       9.49013281
Ti      16.52426108       9.33527903      11.91993135
Ti      15.44720956      13.58073377      12.02523204
Ti      15.56116490      11.28692417      13.70338158
Ti      14.19327696      15.13113390      10.10571928
Ti      14.25674320      10.59851444       8.09602153
Ti      14.58146256      10.96387820      11.27804770
Ti      13.11432149      13.20928600       8.25920440
Ti      14.49290922       8.61731178       9.88784970
Ti      13.46087836      12.97853201      13.53366838
Ti      14.24242470       8.81877336      13.07633023
Ti      12.86196203      13.12694939      10.88678952
Ti      11.55857402      15.32689865       9.89017852
Ti      13.46558534      10.26874332      15.10259283
Ti      12.42631922      15.41943023      12.39067185
Ti      12.12418760       8.81020011       8.18280548
Ti      12.22238132      10.71363134       9.76315187
Ti      11.76277514      11.21282439       7.19910437
Ti      12.04265155      10.52725527      12.87687251
Ti      12.38112040       8.24835962      11.29167551
Ti      10.43002443      12.88326017       8.93435908
Ti      11.72864471       8.43577633      14.25289228
Ti      12.25749427      14.79148520      15.00735314
Ti      12.75264938      12.60237462      16.01600322
Ti      10.27861772      13.76183322      11.75635532
Ti       9.85060794      16.33832710      11.68196983
Ti       9.64937680      10.37405494       8.57676838
Ti      10.04705216       8.43285836       9.91215819
Ti      10.00048857      11.00025477      11.23930274
Ti       9.96310792       8.22789162      12.26985142
Ti       8.84891121      14.89508490       9.84959656
Ti      10.63650845      12.55235711      14.08291569
Ti       9.91076179      15.46231986      14.15812283
Ti      10.95338201      10.63627707      15.93229101
Ti       9.26784505       9.85749044      13.87877554
Ti       8.04398537      12.47917387      10.31843750
Ti      10.29096930      13.56425890      16.38877520
Ti       7.89830890      14.63533833      12.33765155
Ti       7.91962562       9.71836432      11.18452882
Ti       7.85465459      11.90273173      12.85665958
Ti       8.51533871      11.65339909      15.62173611
Ti       8.12963794      13.83511465      14.83963296
45
Properties=species:S:1:pos:R:3 config_type=qcd gap_pre_relax_energy=-301.62142779050004 gap_pred_energy=-302.12803095895754 gap_fmax_final=0.0008952197029817164 gap_converged=1 pbc="F F F"
Ti      15.98008495       9.58719828      11.04882535
Ti      14.75314394       8.14351381      12.89743123
Ti      14.36319763       7.92724617      10.27606260
Ti      13.90758576       9.92964427      14.74917578
Ti      15.49833780      11.00342186      13.23994667
Ti      12.12200966       8.09252349      14.07303584
Ti      14.51460147      10.22607367       8.76987886
Ti      15.15117704      12.13316248      10.74631415
Ti      11.94808018       7.61821334      11.45032913
Ti      13.77919960      12.62882598      15.27540875
Ti      13.34704927       9.87816348      11.84356136
Ti      12.91330113      11.98962038      13.14087193
Ti      14.92430738      14.84480459      10.16372903
Ti      11.63264857      10.62660735      15.55338493
Ti      12.13587564       8.61690353       8.86869185
Ti      14.79986838      14.00535622      12.67615920
Ti       9.75197659       8.68889358      15.10577203
Ti      13.95088442      12.80484518       8.37052550
Ti      12.21909227      11.13847736       9.77013451
Ti      10.65880009      10.05807304      13.05514538
Ti       9.69110149       7.51379128      12.66631091
Ti      12.38643593      10.91274953       7.26212736
Ti      13.02997302      16.00855064      11.52974234
Ti      10.08091858       9.91457546       8.00035372
Ti       9.44512246       7.68669169       9.58558576
Ti       9.92769659       9.72641442      10.69365485
Ti      10.89206154      13.27951582      15.09752398
Ti      12.78969296      15.42867487       8.99802801
Ti       7.97670929       9.33106049      13.53518296
Ti      12.74377422      13.54993094      10.84091061
Ti      12.58819775      14.58248182      13.72499577
Ti      11.33255755      13.35996948       8.14168948
Ti       9.06931326      11.29868912      14.88244330
Ti       7.78200823      10.06461170       9.17776777
Ti      10.34546845      12.77590836      12.56169619
Ti       9.55226048      12.29178644       9.93048769
Ti       8.75004652      12.21004485       7.43221273
Ti       7.59554478       8.58199116      11.27680282
Ti       8.31013647      13.55683967      13.96197817
Ti       7.73479009      11.52048646      11.85847445
Ti      10.55012790      15.09332189      10.44334557
Ti      10.14685883      15.27344774      13.14956578
Ti       8.84197451      14.41827781       8.55165530
Ti       7.07503794      12.69736077       9.35612623
Ti       8.22246496      14.19275514      11.47844975
46
Properties=species:S:1:pos:R:3 config_type=qcd gap_pre_relax_energy=-308.1284877082167 gap_pred_energy=-308.82915481439386 gap_fmax_final=0.0009647190596454338 gap_converged=1 pbc="F F F"
Ti      11.42918186       8.36111199      16.01344289
Ti      14.13251279       8.52757277      15.72333019
Ti      12.51121367      10.26406042      17.17294761
Ti      12.46752782       7.53935194      13.75336938
Ti       9.95297827       9.12969397      13.99562125
Ti      10.25518287      10.82600753      15.80861849
Ti      14.52689255      11.21841305      16.25553910
Ti      12.64033973      10.22541919      14.50849622
Ti      15.17173431       7.75737219      13.04581440
Ti      15.77950385      10.23147906      14.17975810
Ti      12.20830214      12.57558744      15.82937955
Ti      13.08457757       7.33799471      11.22561638
Ti      11.32037934       9.13040799      11.80666739
Ti       8.83918473      10.11394891      11.32582239
Ti       8.12582107      11.67597463      13.34250003
Ti      10.87418599      11.62503283      13.08840336
Ti      14.03005450       9.86804800      12.07854861
Ti       9.39004621      13.48801268      14.33904193
Ti      14.24883276      12.56830203      14.02074000
Ti      16.63254247       9.68868063      11.71521070
Ti      15.19038380       8.15771423      10.35631470
Ti      10.26644932       8.97029795       9.35507906
Ti       7.10896424      12.12617816      10.98946910
Ti       7.50542231      14.35918867      12.29937909
Ti      11.89643457      14.05584452      13.42210048
Ti      12.97878438       9.38634399       9.37405512
Ti      15.16387750      10.89179773       9.80226190
Ti       9.56122815      13.27099002      11.43115729
Ti       8.71428650      11.25558145       8.93961283
Ti      13.19561162      12.31185673      11.42764797
Ti      15.77770099      12.10687771      11.99948713
Ti      11.01139192      10.58156555       7.62394859
Ti      11.13417872      11.33623221      10.08902055
Ti       9.71689623      15.63459451      13.27348142
Ti      11.76312916      14.49875352      10.39683406
Ti      14.03101412      14.86665824      12.06118456
Ti       7.99080149      14.10990284       9.52907490
Ti       9.21485641      16.18191465      10.92870247
Ti      11.85221612      16.55557674      12.12037928
Ti      12.87801388      12.49229267       8.35000671
Ti      14.45266927      13.97783551       9.64941204
Ti      10.35642635      13.16602202       8.03560098
Ti       9.83267428      15.62138351       8.44871501
Ti      11.37660922      17.10017103       9.53263389
Ti      12.44076865      15.13853381       7.96672658
Ti      13.66043822      16.38564199      10.06106818
47
Properties=species:S:1:pos:R:3 config_type=qcd gap_pre_relax_energy=-314.7330836154006 gap_pred_energy=-315.8568128921051 gap_fmax_final=0.0009720357521857351 gap_converged=1 pbc="F F F"
Ti      15.84199500      12.87352713      12.37180135
Ti      14.46571577      14.90953133      10.88170868
Ti      17.03890910      10.61003233      11.82350260
Ti      15.68957875      11.96240794       9.98761463
Ti      13.30621580      13.25079342       8.35215244
Ti      14.55299406      15.46113887      13.55679416
Ti      13.89836881      12.57368578      14.09573463
Ti      10.82567624      13.71257463       7.39693106
Ti      15.78011661      10.57286715      14.26117075
Ti      12.85938701      16.85189348      12.00946791
Ti      11.61948228      11.37762665       7.23076101
Ti      15.70794698       9.05027992      10.16365311
Ti      11.99926228      14.99417741       9.74608609
Ti      13.30298227      12.67793288      11.12898333
Ti      13.19851609      14.40626295      15.61383575
Ti      14.38876363      10.43220179      11.79666128
Ti      16.06044992       8.47828912      12.71122781
Ti      13.93697159      10.60298020      16.12438848
Ti      12.23538840      14.50555187      12.74972334
Ti      13.45471140      10.72574945       9.07529404
Ti      12.37835222      16.45157539      14.57914685
Ti      11.09080656      12.36000676       9.66267586
Ti       9.13945244      11.81706668       7.97384205
Ti      13.00088737       8.49561082       9.44131987
Ti      11.39197113       9.97773834      11.37435226
Ti      10.50999586      14.30820153      14.89124127
Ti      13.64031132       7.72527824      11.84383878
Ti      10.31799730      16.22290404      10.71355187
Ti      14.14794239       8.20325849      14.77289425
Ti      12.76292271      10.07207104      13.84305466
Ti      11.63115416      11.86341224      15.70535882
Ti       9.70671800      13.64240993      11.80306149
Ti      11.00535224      11.99390211      13.13999100
Ti       8.97184189      14.17447673       9.28059190
Ti      10.37732981       9.61057919       9.01888031
Ti       9.97346122      16.18363138      13.13835874
Ti      11.20625364       7.39419119      10.67807511
Ti       8.83180736      11.15525726      10.57347235
Ti      11.93999886       8.97074066      15.96904325
Ti       9.24785575       8.64610168      11.67812466
Ti      11.46088166       7.74735302      13.42425782
Ti       9.10301296      12.05361881      15.13957218
Ti       7.95583591      15.57158344      11.42448543
Ti       9.96239895       9.74087002      14.11287208
Ti       7.19442974      13.16231320      11.18745368
Ti       8.05755279      11.39324832      12.97795343
Ti       7.89967346      14.10272489      13.64466726
48
Properties=species:S:1:pos:R:3 config_type=qcd gap_pre_relax_energy=-322.275130595453 gap_pred_energy=-323.2088916407873 gap_fmax_final=0.000932679703560563 gap_converged=1 pbc="F F F"
Ti      16.38057176       9.84231887      12.50899344
Ti      16.17393204       9.31262480       9.88265868
Ti      14.86125298       7.88982423      11.43530394
Ti      14.64297573      11.06914787      14.41891812
Ti      16.61159003      11.86288133      10.41700056
Ti      16.18777749      12.71856841      12.97452056
Ti      13.56091959       8.78328500      13.63906034
Ti      14.93882960      13.67061574      15.32763598
Ti      14.31924616      10.47520055      11.30249626
Ti      12.34846806      10.16550627      15.48438707
Ti      16.67671987      14.49520439      10.92365442
Ti      13.68877924       8.70880149       9.15699612
Ti      14.54198090      11.15211860       8.51315464
Ti      15.19842825      14.02011582       8.65302142
Ti      11.83075550       8.32847657      11.58214076
Ti      14.36835895      13.31607222      10.86795563
Ti      15.11455186      15.26418917      13.21143592
Ti      12.14813056      10.88599419      12.94103837
Ti      10.60760972       8.90433830      13.94276810
Ti      13.35988330      13.21745793      13.38392967
Ti      12.25832363      12.69798852      15.77379416
Ti      12.05129289      10.75200174       9.93196232
Ti      12.21267966      10.24335569       7.52038562
Ti      14.83064599      15.97759461      10.41291010
Ti      12.99436017      15.21626268      14.95257077
Ti      12.55001265      12.89001903       8.28715521
Ti       9.70424125      10.79145165      16.17106066
Ti       8.91452622       7.94313079      11.79571711
Ti      12.66367155      15.73036926      12.15444848
Ti       9.86857653      11.86417523      13.98805935
Ti      12.64286464      15.17181340       9.40865960
Ti      11.69612598      13.27038135      10.96034555
Ti       9.76312374      11.21619514       8.64600881
Ti       9.79255983      10.16833629      11.48642757
Ti       8.08154296       9.77770341      13.94847072
Ti      10.46316545       8.67067945       9.30432906
Ti      10.89330787      14.38272754      13.58920085
Ti       9.67923589      13.56756440      15.95193664
Ti       7.64767076      12.19884952      15.37247194
Ti       9.25709407      12.73362402      11.48374471
Ti       6.97239269       9.78821063      11.60199411
Ti      10.06194553      15.35626492      11.16021812
Ti       8.02674139       9.28679656       9.56916452
Ti       9.60329709      13.86274061       9.14679811
Ti       8.27710654      14.21002008      13.71050379
Ti       6.96190956      12.16731640      12.70947891
Ti       7.41075590      11.98327487       9.80259237
Ti       7.50136691      14.33970947      10.93381978
49
Properties=species:S:1:pos:R:3 config_type=qcd gap_pre_relax_energy=-328.86492508988135 gap_pred_energy=-330.14519548733466 gap_fmax_final=0.0009766582782574456 gap_converged=1 pbc="F F F"
Ti      15.89429922      10.09364592       9.97397713
Ti      16.43472200      12.04142683       8.52327985
Ti      13.99446090      11.05977999       7.96520109
Ti      17.13141183      12.09355835      11.14136918
Ti      13.32716955       9.52082230      10.11365106
Ti      15.20121955      10.48000916      12.69220020
Ti      11.53508124       9.44448080       8.22315584
Ti      13.98324067      13.64332966       8.06041484
Ti      11.58992885       7.51198067      10.06328654
Ti      14.68144527      12.51705589      10.45002464
Ti      16.46616471      14.24626640       9.50305974
Ti      11.70296363      12.47047709       7.17172787
Ti      12.34507532       8.32586931      12.49878696
Ti       9.62184052      10.83589804       8.19574876
Ti      16.56632017      12.54754987      13.68094083
Ti      12.51477705      10.98655126      12.27011858
Ti      12.05822072      12.06458275       9.54878209
Ti       9.18600261       8.39625427       9.41674407
Ti      10.56964159      10.01108454      10.78366565
Ti      14.00504160      15.27513882      10.20476240
Ti      11.69596338      14.77821092       8.83240285
Ti      14.97723066      11.73002748      15.22178309
Ti      16.11348438      14.56785320      12.04034460
Ti       9.90384669       7.49433718      12.08805189
Ti      10.96918972       7.74771096      14.70144119
Ti      10.21231794       9.94214071      13.53375257
Ti      13.87320194      12.96562136      13.10114642
Ti       9.43580849      13.11050461       8.99536817
Ti      13.93596290      15.80662869      12.64980679
Ti       7.85690326      11.09524811      10.16311487
Ti      14.99266025      14.43404823      14.76618724
Ti       7.99424567       8.98034288      11.76725813
Ti      12.55816282      10.19029138      15.04037706
Ti       9.62773945      15.11643336      10.42567187
Ti      11.61104485      16.38999805      11.49460166
Ti       9.68348056      12.45598443      11.76162773
Ti      10.97773646      12.41622990      14.10674522
Ti       8.36234987       8.63565793      14.55830623
Ti      10.17563247       9.39200928      16.24640582
Ti      11.91688909      13.94706166      11.56525025
Ti      12.80839514      13.16217583      15.89984779
Ti      12.07738727      15.08579147      14.18673305
Ti       7.55119475      13.58675265      11.35397784
Ti       7.54335908      11.09758434      12.89258443
Ti      10.93987963      11.65161987      16.73918610
Ti       8.57597712      11.35487068      15.52266316
Ti       9.63806257      15.00535628      12.96628577
Ti      10.01293604      13.90067678      15.82910180
Ti       8.07693042      13.30006972      13.97607899
50
Properties=species:S:1:pos:R:3 config_type=qcd gap_pre_relax_energy=-335.8428442174645 gap_pred_energy=-337.0749582713795 gap_fmax_final=0.0007895737332198377 gap_converged=1 pbc="F F F"
Ti      16.76361789      10.55240032      13.64698633
Ti      17.22267331      13.10573917      13.01969804
Ti      15.77214756      12.19021483      15.51290451
Ti      17.06497001      11.12234810      11.24562311
Ti      15.00687289       9.43846686      11.91781228
Ti      14.30630252      10.09917586      14.42722207
Ti      13.15623769      11.10152308      16.54288377
Ti      14.93854069      12.17460294      12.35128139
Ti      12.21335274       8.66072886      15.54848897
Ti      13.94976551      14.11577396      16.56341389
Ti      12.03091942       8.43026141      12.78594950
Ti      15.81021041      14.63393981      14.80588667
Ti      14.72752815      11.02195612       9.83731024
Ti      16.15893270      13.35464846      10.34675175
Ti      12.57632057       9.22675617      10.35712534
Ti      13.57082648      13.06999034      14.39254935
Ti      11.62720155      10.83103455      14.25701361
Ti      10.43899572      10.30908553      16.38191120
Ti      11.48070793      12.83035817      16.51670300
Ti      12.59043853      11.17819799      11.97753623
Ti      15.18286373      15.06661094      12.31570765
Ti       9.77187699       8.50280107      13.95260573
Ti      13.81951670      12.88575396       7.98245578
Ti      13.55904077      15.97296549      14.28888630
Ti      11.46799715      14.95711897      15.26356761
Ti       9.90451981      12.77532197      14.25636909
Ti       9.99396564      10.28917656      12.01595773
Ti       8.44448602      10.50767461      14.36203190
Ti      13.56869527      14.08879807      10.52152381
Ti       9.90514802       7.86081415      11.16158275
Ti      11.17668027      16.76113559      13.02522003
Ti      10.91716822       7.98649330       8.75462048
Ti      12.45708614      10.08893103       7.80097538
Ti      11.96396335      14.29413627      12.68297360
Ti      13.03778413      16.51861187      11.51248450
Ti      10.00646297      12.92324646      11.30552671
Ti      12.07580464      12.22245033       9.60991508
Ti       7.73898190       9.31458622      11.99703940
Ti       9.23684441      14.93174339      12.88205604
Ti      10.10224597      10.56757002       9.19314088
Ti       7.76155542      12.13831084      12.57622943
Ti       8.30240198       8.80756406       8.97843846
Ti      11.92338903      14.46476188       8.26931928
Ti      10.60159528      15.50895942      10.66780204
Ti       9.93651097       9.33575617       6.91143030
Ti      11.13137169      12.14291874       7.06605456
Ti       7.72678128      11.61936428      10.06720186
Ti       9.30390975      13.26564323       8.59866162
Ti       7.96507810      14.29363394      10.71903825
Ti       8.24427664      11.09450921       7.46069698
51
Properties=species:S:1:pos:R:3 config_type=qcd gap_pre_relax_energy=-343.1664333388326 gap_pred_energy=-344.1725509167991 gap_fmax_final=0.0007420523826845419 gap_converged=1 pbc="F F F"
Ti       9.26489520      15.02323233       9.12117326
Ti       9.77795179      13.24950812       7.54468081
Ti       7.98163359      12.70127429       9.36236468
Ti       7.03130050      12.13259217      12.55697073
Ti       9.60467448      10.85140732       8.37671897
Ti      12.08897858      12.06840481       7.58095641
Ti       8.61797993      14.23980415      11.55616953
Ti       8.86274507      10.85456456      11.26436677
Ti      12.01793289      14.50587673       8.73352105
Ti       7.33791089      14.32212595      13.92310972
Ti      10.93329943      15.85550289      10.89672576
Ti      12.55070431       9.39379570       8.17937823
Ti       7.28706937      12.17327559      15.17340789
Ti       8.50090277      10.09930257      13.92693903
Ti       9.65580593      15.53003903      13.66731377
Ti       9.83929054       8.50383091      12.40515509
Ti      12.95395280      11.80983490       9.91724429
Ti       9.42071630      12.59045708      13.70901121
Ti      10.48533817      12.70361423      10.10535201
Ti      12.32927722       7.28144728       9.85635935
Ti      12.70313956      16.27805115      12.76163761
Ti      14.83885106      10.57617923       8.44650600
Ti      10.97481441       9.46873400      10.25319388
Ti      14.45165620      13.67067373       8.68397398
Ti       9.06446488      14.01635383      15.97396241
Ti      13.74739602      14.05807315      11.36276945
Ti      14.60855073       7.92761591       8.66092948
Ti       9.61795452      11.20572235      16.15126812
Ti      12.37660686       7.97129760      12.64779808
Ti      13.76299659       9.37041635      10.75835401
Ti      11.37333908      13.89578066      12.49835108
Ti      14.63806017       6.86023957      10.96678503
Ti      13.83594272      16.23808475      10.10440387
Ti      10.97388576       9.29347542      14.79054110
Ti      11.49328074      10.59553568      12.59802400
Ti      14.04897486      11.77426976      12.69179432
Ti      15.79561125      12.06228478      10.51025684
Ti      12.10546807      12.28661603      14.65683695
Ti      16.08244412      14.81159222      10.36741781
Ti      15.25971383      16.01133528      12.33154211
Ti      15.33453835       8.17376505      12.87463902
Ti      11.11853022      13.00974687      17.16783597
Ti      11.65394458      14.97766685      15.25730461
Ti      16.31002635       8.94589945      10.48453758
Ti      12.61326664      10.85212976      16.69823226
Ti      13.60976735       9.75046623      14.35523759
Ti      16.18587965      10.49754741      12.77896451
Ti      14.05856474      14.36835391      14.19860782
Ti      16.13683440      13.44382572      12.75389083
Ti      14.81836390      11.85691558      15.23026729
Ti      13.42432736      13.42101576      16.68677246
52
Properties=species:S:1:pos:R:3 config_type=qcd gap_pre_relax_energy=-350.1646277397063 gap_pred_energy=-351.26376957861044 gap_fmax_final=0.0008174887104021268 gap_converged=1 pbc="F F F"
Ti      17.37853038      13.86887267      11.45574392
Ti      16.89927220      11.23334666      12.16240918
Ti      16.25273884      13.26163118      13.76346588
Ti      16.52303251      12.47618342       9.25173060
Ti      16.51055842      10.78075238      14.85022316
Ti      15.29774846      15.34589272      12.49160139
Ti      15.95962365      15.07313690       9.82935186
Ti      14.10572101      14.75945764      15.29744422
Ti      16.15621687       9.56490941      10.02860159
Ti      15.84131778       8.99981533      12.89541328
Ti      14.88975454      13.04151291      11.06669036
Ti      14.29356290      12.15752363      16.10664263
Ti      14.15675826      11.30182226       8.53388252
Ti      12.83047052      13.82295695      17.49762079
Ti      14.01334910       9.60055191      15.76892208
Ti      14.15693786      13.84325000       8.49309936
Ti      13.16783602      13.65107670      12.91903541
Ti      12.36220465      15.91689958      13.71084247
Ti      14.43761225      11.26112842      13.57793281
Ti      14.58273615       7.66124234      11.09807899
Ti      11.79335580      15.72545854      16.27655494
Ti      13.40486544      15.36197045      10.62518503
Ti      13.99487403      10.23549419      11.12427585
Ti      13.17258318       8.55018272      13.38029054
Ti      12.10331468      11.15552058      17.25511379
Ti      13.83364410       8.69900104       8.99028072
Ti      11.97539506      10.86577503      14.59778742
Ti      11.57845841      13.39356380      15.03441093
Ti      11.64636220      10.42652935       9.21624721
Ti      11.17848556       8.97173301      15.85588682
Ti      12.21770593      12.98007422      10.19924241
Ti      10.16790869      13.76260766      17.10737795
Ti      10.70978696      15.18471263      11.63486406
Ti      11.05086105      14.99048642       8.82467649
Ti      10.63724793       8.63899092      13.11864538
Ti       9.75437210      15.22938509      14.69773304
Ti      11.35676306      12.69750914       7.70612255
Ti      11.94562891       8.34665824      10.92281328
Ti      10.04668933      12.86104411      12.77393524
Ti       9.75673758      11.14499100      16.43174823
Ti      11.64292776      10.92851053      11.95721643
Ti       9.28424872      10.47515823      13.91483848
Ti       9.45049334      13.11037204      10.16268287
Ti       8.62462693      12.95952319      14.94470567
Ti       9.42018603      11.05600206       8.06003025
Ti       8.78346156      15.65980670       9.77920485
Ti       8.06825761      14.58998508      12.17065515
Ti       8.68410637      13.68936281       7.83391133
Ti       9.29322402      10.32345331      10.81711451
Ti       7.51791280      12.08909183      11.89278592
Ti       7.41945853      11.60279030       9.19548508
Ti       6.90770999      13.90992880       9.93708114
53
Properties=species:S:1:pos:R:3 config_type=qcd gap_pre_relax_energy=-356.66031208484713 gap_pred_energy=-357.8578909360566 gap_fmax_final=0.0009692688287624203 gap_converged=1 pbc="F F F"
Ti      11.64163722      12.26745541      17.46799122
Ti      12.51962659       7.89200882      14.29789648
Ti       9.89184978       8.66447524      15.08321753
Ti      11.74917730      10.19588169      15.67356209
Ti       9.42504597      11.67793116      16.40459401
Ti      13.93001555      12.07907415      16.09063028
Ti      13.96522430      10.41806776      13.88768819
Ti      12.72167279      14.53854873      16.60288529
Ti      15.87624260      12.44196931      13.80949230
Ti      10.18738070       6.99516369      13.30106275
Ti      10.05316470      14.18426718      16.63357731
Ti      15.38214070      14.27326090      15.93778485
Ti      12.10197410       6.81208340      11.90905760
Ti      11.30585770       9.45725278      12.62555281
Ti      13.92414092       8.72482384      11.86716544
Ti      11.28789636      12.74578569      14.85816006
Ti       9.37957336      11.04383586      13.91472231
Ti       8.49927929       8.83767874      12.81780980
Ti       8.61126902      13.64498477      14.43210327
Ti      15.91738870      15.32387472      13.76718825
Ti      16.30999224      10.06842063      12.25413411
Ti      17.08777374      12.53638120      11.53205830
Ti      14.00016235      16.35914586      15.17083156
Ti      13.59292947      14.02565976      13.99488345
Ti      12.21195754      11.97125132      12.55247280
Ti       9.79058043       7.87224430      10.78494262
Ti      14.54658010      11.61254722      11.36931309
Ti      11.39300383      15.54853183      14.33966087
Ti       9.40907675      10.54773661      10.92926088
Ti      15.03632830      14.41380170      11.61764842
Ti      13.54131134      16.48765722      12.64479314
Ti       7.44180762      11.98728314      12.52536972
Ti      12.27793111      10.69647219      10.08619372
Ti      16.76119947      10.96928428       9.76579925
Ti      14.75790854       9.24546877       9.57413245
Ti       9.87720275      13.08699801      11.99319635
Ti      12.14076640       8.12658108       9.69607692
Ti      12.84181862       9.57897690       7.66958201
Ti      12.03149556      14.57437437      11.52268465
Ti       9.66127478      15.90511470      12.61066740
Ti      13.15653455      13.15283382       9.58365661
Ti      10.38498378       9.93283640       8.48898148
Ti       7.54889556      14.45567646      11.99949827
Ti      15.88706683      13.49434349       9.27673296
Ti       7.90367287      12.70417489      10.17675873
Ti      13.72169704      15.87942662       9.77739196
Ti      11.47221377      16.95180568      10.72941226
Ti      14.66945699      11.49744252       8.00499031
Ti      10.26064638      12.67482614       9.20727211
Ti       9.41650215      15.26613399      10.23248956
Ti      12.03367526      12.00440660       7.43991102
Ti      13.94893140      14.08176063       7.46991451
Ti      11.58167396      15.13958698       8.66475583
54
Properties=species:S:1:pos:R:3 config_type=qcd gap_pre_relax_energy=-363.3586573630866 gap_pred_energy=-364.8806194099295 gap_fmax_final=0.0009496525282133485 gap_converged=1 pbc="F F F"
Ti      17.29940673      15.55125911      11.20068736
Ti      17.00723027      13.32653420      12.59625698
Ti      16.45598548      15.62626098      13.77555225
Ti      16.53086744      13.44362726      15.34138168
Ti      15.99656650      11.05253555      14.43564171
Ti      15.91854389      17.52397591      11.83690449
Ti      15.87592982      13.25839711       9.91553622
Ti      15.43153607      10.97283233      11.50774442
Ti      14.84739037       8.54498077      12.73649029
Ti      15.31272802      16.38730296       9.53249746
Ti      14.75045272      15.05762803      11.61075194
Ti      14.51859768       8.61821603       9.97866072
Ti      14.60463658      13.26272825      13.70203570
Ti      13.99455293       9.39010698      15.64063203
Ti      14.11154654      17.35691907      13.75075618
Ti      14.27207394      15.23863441      15.45238568
Ti      14.27231245      12.12508500      16.15027574
Ti      13.13790008       7.06491239      11.47343028
Ti      13.96174497      14.11787666       8.80126865
Ti      13.87988869      11.36435359       9.25630494
Ti      13.51833890      10.76173430      13.73604251
Ti      13.45864325      17.63330240      11.28975791
Ti      13.37063695      12.71043523      11.29788233
Ti      12.46110992       8.03451070      13.86381934
Ti      12.86497569       9.78379731      11.43373596
Ti      12.73971659      14.33603556      17.31717726
Ti      12.59264540      15.37412571      13.07061332
Ti      12.48425852      15.88516562       9.86044845
Ti      10.96536732      14.12951626      11.38659390
Ti      10.85681975      11.55192255      10.50595873
Ti      12.49799455      10.33070621       8.51152275
Ti       9.69902834       7.93055231      14.26571861
Ti      11.26026837      10.07769232      15.13112120
Ti      11.60876638      12.00045965      17.20100520
Ti      12.00312107      13.42286709      14.97955937
Ti      11.63361022       8.15188466       9.54513291
Ti      10.32588118       9.37905553      12.10627510
Ti      11.66029978      16.12936297      15.34112386
Ti       9.91313549      15.75390251       9.63121491
Ti      10.47184833       6.83501468      11.80553584
Ti       8.48957374      10.26845820      13.80699467
Ti      11.40254085      13.44723453       8.71503627
Ti      10.71752836      16.77079725      12.16135147
Ti      10.29008944      14.27781965      16.78171003
Ti      11.12386815      11.86322583      13.10133016
Ti       9.75941585      10.15042402       8.88647278
Ti       9.58916850      12.15231972      15.40341806
Ti       8.09283145       8.04317545      12.36702985
Ti       8.95212985       8.09392168      10.02569707
Ti       9.80278318      14.81277996      13.95755565
Ti       8.05191742      10.43645767      11.00863076
Ti       8.55749648      15.27324262      11.62314871
Ti       8.92389528      13.27197331       9.78461439
Ti       8.72391184      12.68546751      12.44508352
55
Properties=species:S:1:pos:R:3 config_type=qcd gap_pre_relax_energy=-371.77738376629674 gap_pred_energy=-372.8469417419459 gap_fmax_final=0.0009689086069047839 gap_converged=1 pbc="F F F"
Ti       8.15539225      10.91929132       9.91332507
Ti      16.93883715      13.87507617      11.60830804
Ti      14.35247082       9.99667455      13.97081996
Ti      10.62485694       7.85838803      11.77216480
Ti      14.79849707      13.57972178      13.91263486
Ti      10.76961111      10.46449761      16.24451171
Ti      13.13659012      12.36453139       9.48109944
Ti      11.71544261      14.27488054      16.19899902
Ti      14.79302004       9.02020144      11.54123496
Ti      10.14192875      11.76623885      11.38983114
Ti      10.45859379      11.75641274       8.62191568
Ti      11.43090351      10.14760288      13.51706337
Ti       7.70968170      13.32757549      14.50437607
Ti       7.73957774      11.96255161      12.36038554
Ti       8.50137890      10.68998790      14.79421098
Ti      12.63325128      16.27196386      10.02978321
Ti       9.79019644      15.93139689      10.13481522
Ti      16.04679925      13.66838686       9.17284609
Ti      10.96217548      16.53570780      12.26980507
Ti      12.80328639       7.85923311      12.91299566
Ti      14.27915224      14.14731058      11.22100811
Ti      12.59904685       8.74288111      15.48802560
Ti      10.27122322       8.23060094      14.53985884
Ti      12.02399993      14.40887179      13.48590587
Ti      16.47626813      11.36844069      13.04430686
Ti      15.49027416      11.58491466      10.74186509
Ti       9.60600917      15.06471591      14.89566989
Ti      12.83532556      12.00065665      15.16205219
Ti      13.26199906      11.91173002      12.40135441
Ti      13.85622113      10.57434201      16.98486233
Ti       9.33689254      12.76787724      16.48164009
Ti      10.17485633      12.51659745      14.08810421
Ti      17.52894004      13.51088037      14.09861273
Ti      16.11290517      15.75175223      13.34075817
Ti      15.53569801      15.99859672      10.28934220
Ti      14.33933533      13.25893209      16.96369899
Ti      14.02732908      15.71239699      15.28643750
Ti      13.65221424      16.46147734      12.66834264
Ti      11.21117833      14.55378281       8.29992655
Ti      12.24968534      10.08865063      10.84966460
Ti      11.77764284      16.70638550      14.74954914
Ti      12.46988774      10.12868665       7.99140834
Ti       8.78817986       9.53759709      12.21155061
Ti      15.96534284      11.75601087      15.58795889
Ti      14.51980848       9.56906885       9.17110396
Ti      13.94188215      14.68793882       8.28638988
Ti      12.10426609      12.27379313      17.83830420
Ti      12.45865316      12.63986612       6.94272444
Ti      11.43791571      14.03511317      10.84254945
Ti      16.36255738      14.57555005      15.83991918
Ti      14.76612159      11.81383996       7.67124520
Ti       9.06395679      14.47055824      12.31267493
Ti      10.05946474       9.21664987       9.64815418
Ti      12.68192542       7.77998322      10.08755070
Ti       8.87505519      13.52693454       9.78005928
