3
Properties=species:S:1:pos:R:3 config_type=qcd gap_pre_relax_energy=-16.62215669307099 gap_pred_energy=-17.456215498871153 gap_fmax_final=0.0005365428775023545 gap_converged=1 pbc="F F F"
V        8.70210993       7.84554637       8.77921240
V        9.74434091       8.88321870       8.28739955
V        8.18074171       9.89842749       9.56058061
4
Properties=species:S:1:pos:R:3 config_type=qcd gap_pre_relax_energy=-24.171225600144837 gap_pred_energy=-25.02371421138916 gap_fmax_final=0.00024966161783293155 gap_converged=1 pbc="F F F"
V        9.05456153       7.71639760       6.76824976
V        7.55621467       8.21263991       6.70846327
V        8.31323148       8.46694306       9.22646499
V        7.02506861       7.55309571       9.24589826
5
Properties=species:S:1:pos:R:3 config_type=qcd gap_pre_relax_energy=-31.04016854637917 gap_pred_energy=-31.312711953183577 gap_fmax_final=0.0009256417224577152 gap_converged=1 pbc="F F F"
V        6.87835162       7.44275746       7.28327278
V        7.37451623       9.55098987       8.69157671
V        8.71589440       6.45514459       7.69623243
V        9.00159043       8.44987146       7.01313705
V        8.11377983       8.18536912       9.39991351
6
Properties=species:S:1:pos:R:3 config_type=qcd gap_pre_relax_energy=-39.03530899754974 gap_pred_energy=-39.62136843843255 gap_fmax_final=0.00025670260083577554 gap_converged=1 pbc="F F F"
V        9.25644063      11.03331082       9.30976892
V       10.56747984      10.15468516      10.04393237
V        9.64094051       8.79802853       7.93064167
V        9.64456237       7.59171931      10.31635308
V        8.36196420       8.69182734      10.24911963
V        8.03046822       9.23228459       7.65204009
6
Properties=species:S:1:pos:R:3 config_type=qcd gap_pre_relax_energy=-38.573596648881654 gap_pred_energy=-39.174944435560775 gap_fmax_final=0.0006077596252030469 gap_converged=1 pbc="F F F"
V        7.38273005       7.99597058       8.96395079
V       10.00567375       7.66039315       8.26397406
V        8.55136912      10.36393496       9.88562933
V        9.99043924       7.96715939       9.97466486
V        7.67751951       9.07714787       7.63544461
V        9.86783381      10.41095951       8.75190182
7
Properties=species:S:1:pos:R:3 config_type=qcd gap_pre_relax_energy=-46.927810095035355 gap_pred_energy=-47.09663931718195 gap_fmax_final=0.0009718507479872965 gap_converged=1 pbc="F F F"
V        8.40145997       8.05717829      10.56742811
V        9.72858801       7.47205195       9.48545041
V       10.18009831      10.98776898       8.54960691
V       10.87149327       9.35471449       8.18949597
V       10.10897648       9.66204981      10.48123430
V        7.82916290      10.52812201       9.73076538
V        8.27694985       9.33484329       8.39274770
7
Properties=species:S:1:pos:R:3 config_type=qcd gap_pre_relax_energy=-46.31564618876148 gap_pred_energy=-47.165623221438494 gap_fmax_final=0.00048381085058747073 gap_converged=1 pbc="F F F"
V        7.94214672      10.11613941      10.37890557
V        9.86636638      11.19814303      10.11107121
V       11.23673733       9.88619665       8.95106451
V        9.94832225       8.90570011      10.66971908
V        8.12362805       8.13518363       9.38493852
V       10.15988839       7.99303521       8.50267665
V        8.98307605      10.02576715       8.26178962
8
Properties=species:S:1:pos:R:3 config_type=qcd gap_pre_relax_energy=-54.6547863318432 gap_pred_energy=-54.85022637825367 gap_fmax_final=0.0005110161528416829 gap_converged=1 pbc="F F F"
V       13.73484491      15.69622380      13.50196515
V       15.34600076      16.86630460      14.14753292
V       15.62686666      14.36247746      14.05968471
V       13.19721722      14.02476597      14.64184954
V       16.80255768      15.97551788      15.35864619
V       14.65415643      13.13353103      15.85210634
V       14.37306038      15.63744405      15.94032334
V       16.26529597      14.30373521      16.49789180
8
Properties=species:S:1:pos:R:3 config_type=qcd gap_pre_relax_energy=-53.901216464357965 gap_pred_energy=-54.52160670114564 gap_fmax_final=0.0005255154087256207 gap_converged=1 pbc="F F F"
V        9.53011472       9.91170197       8.13740436
V       10.06408765       7.47339925       8.54454267
V        6.28309800       8.04428562       8.63596850
V        6.95643615       9.46902481       7.67649830
V        8.46678837       7.28518188       7.59123219
V        8.16963832       7.01994940      10.21033929
V        8.29275257       8.84776317       9.95981021
V        9.50888021       9.22048990       6.51600048
9
Properties=species:S:1:pos:R:3 config_type=qcd gap_pre_relax_energy=-61.78717708393695 gap_pred_energy=-62.33378225630481 gap_fmax_final=0.0005562672195441659 gap_converged=1 pbc="F F F"
V        9.57899147       7.45589305      10.16847235
V        7.61561320       8.03820867       7.18625610
V        7.49234600       7.30284329       9.13373323
V        7.00127802       9.78384618       8.92302582
V        8.02774224       8.99367251      10.65103058
V        9.50086072       9.39169957       8.93310474
V        9.79549018       8.74780988       6.74727889
V        9.77598761       7.03295522       8.05985335
V        8.24426321      10.28564427       7.22981758
9
Properties=species:S:1:pos:R:3 config_type=qcd gap_pre_relax_energy=-61.682265453278134 gap_pred_energy=-61.88955189778539 gap_fmax_final=0.0007497264303718016 gap_converged=1 pbc="F F F"
V        8.71289144      12.16063004      10.15345139
V       11.15907768      11.52064256       9.72618424
V        9.22971130      10.18953597       8.43044517
V        9.66112960      12.00018218      11.69942797
V        9.31147815       9.80242570      10.83324813
V       10.97842910       9.41136853       8.67452383
V       11.68345455      10.28008044      11.10797813
V       10.83086110       7.79191868      10.65739065
V        9.33545074       7.74569956       9.61983413
9
Properties=species:S:1:pos:R:3 config_type=qcd gap_pre_relax_energy=-61.72666032286752 gap_pred_energy=-62.16850096411078 gap_fmax_final=0.0006428112852322597 gap_converged=1 pbc="F F F"
V        9.70499336      10.08529810       8.69039036
V       10.26510359       7.79586160       8.93528867
V        6.73701250       8.15224849       8.86591862
V        7.69613970       9.42474131       7.11210334
V        8.25574684       7.13525943       7.35768767
V        8.36677023       6.77528629       9.57318561
V        7.52182938      10.23080922       9.20310714
V        8.74628713       8.81197383      10.44389971
V        9.81409428       8.69649873       6.92639586
10
Properties=species:S:1:pos:R:3 config_type=qcd gap_pre_relax_energy=-70.00596257360533 gap_pred_energy=-70.24568259306224 gap_fmax_final=0.0008265319627998364 gap_converged=1 pbc="F F F"
V       10.09831741       8.50734465       9.16363232
V        6.48187737       8.03105914       9.20765372
V        8.05220941      10.07740906       9.20626464
V        8.52801583       6.46086356       9.16500587
V        9.70802084       9.40307108       7.36148906
V        9.38191112       6.84434162       7.34132038
V        7.14948320       9.72883922       7.39898598
V        6.82335329       7.17017587       7.37882965
V        8.30777455       8.25655048      10.50041327
V        8.24801198       8.29932033       6.05538011
10
Properties=species:S:1:pos:R:3 config_type=qcd gap_pre_relax_energy=-68.33602868789909 gap_pred_energy=-69.483860803689 gap_fmax_final=0.0007634002688272296 gap_converged=1 pbc="F F F"
V        8.21340954      11.45700077       8.43495860
V       10.08564797       9.71805820       8.59029282
V       12.42154279       9.48942337      10.00694807
V       10.81005632      11.41517765       8.90175559
V        7.50694340       9.83265740       8.89253433
V        8.85779863       8.86674952      10.94310658
V       11.48044438      11.43098013      11.60194129
V        8.91625297      10.73383614      10.83010198
V       11.43320850       8.02312846      10.31341204
V       11.06121493       9.81950781      12.27146814
10
Properties=species:S:1:pos:R:3 config_type=qcd gap_pre_relax_energy=-68.34767987636633 gap_pred_energy=-69.86212607426964 gap_fmax_final=0.0006824531617224857 gap_converged=1 pbc="F F F"
V        9.16521560      11.91708608       8.55304187
V        7.90688698      11.74805669       9.79470035
V       10.21520108      11.39232424      10.76801778
V       11.11476651      10.16582913       8.68689372
V        8.32840397       9.56262560      11.25808072
V       11.00079588       9.53453819      11.18352243
V        9.75871013       7.36834658      10.77414448
V        8.88291189       9.39660104       9.46737233
V       12.33216938      10.90175454       9.67620211
V       10.95836205       7.67626135       9.50144768
11
Properties=species:S:1:pos:R:3 config_type=qcd gap_pre_relax_energy=-77.06351767452767 gap_pred_energy=-77.50922339970938 gap_fmax_final=0.0009620744944378528 gap_converged=1 pbc="F F F"
V       10.48061825       9.55606430       9.12973923
V        6.93265435       8.27997538       7.35469429
V        7.06401994      10.28279120       8.20124503
V        7.74564783       6.83653222       9.33968236
V        8.64323741       7.27972893       6.95596447
V        9.95718036       6.97129354       9.22341716
V       10.54669098       8.24610704       7.39017021
V        8.88438283       8.24863335      10.68775426
V        8.77038769      10.55650808       9.52787197
V        6.86303387       8.78107806       9.94463492
V        8.96060347       9.80974488       7.09328310
11
Properties=species:S:1:pos:R:3 config_type=qcd gap_pre_relax_energy=-76.88773471775012 gap_pred_energy=-77.5299742215724 gap_fmax_final=0.0009266819939966619 gap_converged=1 pbc="F F F"
V        6.19256369       9.19805231       9.21403465
V        9.44387853       6.89708164       9.08829274
V        6.96689958       7.71907542      10.01086115
V       10.82759025       8.19016201       7.19492226
V       11.30991373       8.76980656       8.98085478
V        9.50159979       7.96306630      10.62327639
V        8.03119168      10.76305639       8.04606240
V        8.11150606      10.08659261      10.64361102
V       10.47599987      10.32017175       7.36200959
V        8.55124971       8.87372009       8.22143826
V        9.86785959      10.49946743       9.89488925
11
Properties=species:S:1:pos:R:3 config_type=qcd gap_pre_relax_energy=-76.88599829887356 gap_pred_energy=-77.62529159423715 gap_fmax_final=0.0008891290760011778 gap_converged=1 pbc="F F F"
V        9.00463045       8.74967139       7.83170412
V       10.91366673       8.64167720       9.52055088
V        6.47700223       8.04988959       6.82228522
V        7.02938243      10.28138070       7.87047259
V        7.82041837       6.55132356       8.55716271
V        8.68791673       6.69727376       6.93141837
V       10.46971519       6.89950496       8.98350750
V        8.61731884       8.14202515      10.49111562
V        8.64843342       9.99364842      10.00037667
V        6.52963286       8.91346797       9.13045548
V        7.59117922       8.86943379       5.65024734
12
Properties=species:S:1:pos:R:3 config_type=qcd gap_pre_relax_energy=-84.42495021602251 gap_pred_energy=-85.19048823551971 gap_fmax_final=0.0009802054346900982 gap_converged=1 pbc="F F F"
V        8.44872220       8.81309624       8.04855537
V        8.32855496       9.40326023      10.42233512
V        8.19608158       7.52110480      10.42009642
V        8.25798113       9.70910586       6.40685697
V        8.83957440       7.13485909       5.99255436
V        9.74909126       6.50513491       8.46317507
V        6.38545728      10.24933744       8.52441072
V        7.08798161       6.56865347       8.08114847
V       10.45346084       8.05426324       9.28241217
V       10.39343378       8.08653740       6.56414887
V        6.08636852       8.64698176       9.45234356
V        6.40205443       7.93642756       6.97072492
12
Properties=species:S:1:pos:R:3 config_type=qcd gap_pre_relax_energy=-84.05606366423915 gap_pred_energy=-84.5736108268804 gap_fmax_final=0.0008920599269697171 gap_converged=1 pbc="F F F"
V        8.80548857      10.51523497      10.00180742
V        8.65867355       6.94782517       7.46983959
V        6.93026508       9.97184875       8.80549352
V        8.83414446      10.65892510       7.69814596
V        9.86470952       8.57605146      10.60016349
V        7.56285219       8.65360096      10.58111644
V        9.90159598       8.77660894       6.88288291
V        6.81846484       7.67804074       8.63289261
V        7.60263878       8.91632454       6.86823958
V       10.64365410       9.79882331       8.80536079
V       10.54182009       7.50141584       8.69040404
V        8.63497483       6.80458223       9.76293564
12
Properties=species:S:1:pos:R:3 config_type=qcd gap_pre_relax_energy=-83.95801532431473 gap_pred_energy=-85.27728149544345 gap_fmax_final=0.00077004608155538 gap_converged=1 pbc="F F F"
V       10.69544208       9.52292804      12.04124765
V       10.36201648      10.36342213       9.88763038
V        9.12652136      11.76015631      11.59968962
V       10.67048445       7.64580398      10.21565131
V       11.37321733      10.34561353       7.83924658
V       10.63116549       8.72494518       7.80592480
V        8.69340129      10.46872103       7.98783251
V        8.41133011       8.55489216       9.12801260
V        8.93895005       9.04262292      11.74709521
V        7.61029541      10.31694929       9.87842334
V        9.16656827      12.41206494       9.81544605
V       12.16489168       8.68616451       9.89808394
13
Properties=species:S:1:pos:R:3 config_type=qcd gap_pre_relax_energy=-92.592116115018 gap_pred_energy=-93.02806549800563 gap_fmax_final=0.0006885457307190606 gap_converged=1 pbc="F F F"
V        7.45631473       8.80164866      10.48734132
V        7.32110434       9.33220102       6.56965930
V        7.36871644      10.41884242       8.15525277
V        8.66212286       8.01887407       8.17087682
V        9.81772847      10.06815115       9.54845652
V        5.94681236       8.31969047       8.48133211
V        6.50867993       6.93045524       7.49706821
V        9.78814664       7.76961332      10.66675214
V        9.92465276       8.76258039       6.13888613
V       10.95154661       8.81241002       8.63510167
V        9.65067233      10.30621769       7.00870643
V       10.05133278       6.42317883       9.51243917
V        7.45096421       6.93493123      10.02692192
13
Properties=species:S:1:pos:R:3 config_type=qcd gap_pre_relax_energy=-92.3102131337842 gap_pred_energy=-93.35034475865321 gap_fmax_final=0.0009506781344402421 gap_converged=1 pbc="F F F"
V        9.24096271       9.35598047       7.89746217
V        8.74464596       8.18303933       9.30608031
V        7.63417195      10.56367123       9.63463634
V       11.82683400      10.92080137       8.49863176
V       12.65272846      10.17668978      10.02931580
V       11.25365206      10.70854841      12.21271663
V       10.10142889      10.10147535      10.10144541
V        8.74086789      11.45668718      11.78430707
V       11.37830001       8.20899176       8.95807924
V        8.62982109       9.58660186      12.04732013
V       11.15877387       7.96119100      10.82063842
V        8.79075355      11.93734031       9.03957296
V       11.16643088      12.15835328      10.98916509
13
Properties=species:S:1:pos:R:3 config_type=qcd gap_pre_relax_energy=-92.26972516741455 gap_pred_energy=-93.34003353317118 gap_fmax_final=0.0007179905090929829 gap_converged=1 pbc="F F F"
V        8.31666829       8.28447687       6.82673227
V        7.09748173       7.21243454       8.83306017
V        6.54832662       8.96928268       8.47758728
V       10.32488736       9.67292826       7.60248939
V       11.75223678       9.05650187       9.83670377
V        9.67542809       9.90709441      11.42977847
V        9.20161337       8.51082096       9.43060080
V        7.52162720      10.61984902      10.24626436
V        9.43390057       6.95889490       7.40160235
V        7.20708583       8.89636976      10.94530764
V       11.61640144       7.69654100       8.60699811
V        8.65662135      10.63445091       7.84399743
V       10.10865203      11.04128550       9.97980860
14
Properties=species:S:1:pos:R:3 config_type=qcd gap_pre_relax_energy=-100.09681275861489 gap_pred_energy=-101.43483348904333 gap_fmax_final=0.0008209588991000736 gap_converged=1 pbc="F F F"
V        9.27230268       9.50528068       6.08831238
V        9.87712606       7.04044745       7.27695226
V        8.15629639       7.09323899       6.71202236
V        8.34562968       8.90315724       8.41591398
V        9.32395219      10.96504314       7.29860215
V       11.09566021       9.12483634       7.97807222
V        8.42039851       6.19830847       9.24571105
V        6.17717566       7.51813956       8.56561610
V        7.98972140      11.01712596       9.70228775
V        6.04310775       9.09073783       9.62114149
V       10.60221304      10.22583100       9.56594407
V        7.81150914       7.37938284      10.61456879
V       10.26608661       8.00740188       9.81316675
V        8.41980145       9.73204938      10.90266942
14
Properties=species:S:1:pos:R:3 config_type=qcd gap_pre_relax_energy=-100.47011592702457 gap_pred_energy=-101.47984125003337 gap_fmax_final=0.0008953851011130582 gap_converged=1 pbc="F F F"
V        8.44972634       8.24499133       8.14576926
V        8.82557627       6.03563758       9.07248239
V        7.33044574       9.45508107      10.15445589
V        9.19056521       9.75857201      10.12373826
V       10.78859741       7.77667351       9.31794028
V        8.06553147      10.57566608       7.89664377
V        5.99435823       9.28590513       7.86734846
V        9.59958512       9.49040806       6.16973271
V       10.43669838      10.01096235       7.79391070
V        6.90070058       9.04985868       6.21442739
V        8.67754649       7.10565814      10.67872520
V        6.61811013       6.71915906       7.59562963
V       10.65249051       7.37758472       7.52883677
V        6.42000513       7.06377928       9.39029629
14
Properties=species:S:1:pos:R:3 config_type=qcd gap_pre_relax_energy=-100.47820817437595 gap_pred_energy=-101.23371198754812 gap_fmax_final=0.0007069320668287417 gap_converged=1 pbc="F F F"
V       15.99234932      15.41040071      12.40797509
V       16.21467085      13.15994130      13.55369546
V       14.44475334      13.32441244      12.81942628
V       14.67427873      15.18850067      14.73064491
V       15.85959181      17.48415308      14.01962906
V       17.31352836      15.41857983      13.80565314
V       14.43778904      12.43073555      15.19185208
V       12.76449258      13.31204109      14.84241960
V       14.17939517      17.47193030      16.04273333
V       12.63179541      15.38581760      16.45416029
V       16.63551371      16.94810970      15.69573433
V       13.75979492      13.96021620      17.08197832
V       16.23343866      14.28618285      16.02011498
V       14.85860811      16.21897867      17.33398311
14
Properties=species:S:1:pos:R:3 config_type=qcd gap_pre_relax_energy=-100.30989102859282 gap_pred_energy=-101.25958451955029 gap_fmax_final=0.0008536626689158072 gap_converged=1 pbc="F F F"
V       10.18897189      10.32302589      10.09545350
V        9.33965005      10.58269112      12.44332748
V        9.66831406      11.31329353       7.90863343
V       11.98134456      11.76931306       9.29609124
V       10.82521613       8.00835410       9.20739185
V        9.48819522       8.18556062      11.45870756
V       11.23513306       8.79628748      11.87486145
V        9.11531354       8.70638910       8.73751412
V       12.70627946      10.08430428       9.72610595
V       11.62843583      11.46739225      11.93720379
V        7.68773050       9.74610792      10.79059023
V       11.02393100      10.06596317       7.61279602
V        7.97249648      11.53248107      10.84863300
V       10.30657570      12.58642390      11.23027790
15
Properties=species:S:1:pos:R:3 config_type=qcd gap_pre_relax_energy=-108.90312672456182 gap_pred_energy=-109.74499264590644 gap_fmax_final=0.0009857009649311685 gap_converged=1 pbc="F F F"
V       11.26319510      12.11458040      11.96357101
V       10.88319918       9.55851241      12.72813888
V       10.03189339      12.84432837      10.74911147
V        8.70834612      11.10338818      12.30463931
V       12.92871560      10.22615735      10.98574399
V       10.34406507      10.34489582      10.33955998
V       12.05634881      11.70054324       9.47283796
V        8.68515456       9.02525999      11.35374172
V       11.21015479       8.21895514      11.45454508
V        7.86880549      11.20139424      10.52044864
V       12.50896100       9.27891104       9.30515311
V        9.60650377      11.77929901       8.33578792
V       10.69871301      10.34246012       7.75750202
V        9.91062821       8.12082598       9.12191172
V        8.49318383       9.33835663       8.80517514
15
Properties=species:S:1:pos:R:3 config_type=qcd gap_pre_relax_energy=-108.24623511583988 gap_pred_energy=-109.73986411022742 gap_fmax_final=0.0005686567802350153 gap_converged=1 pbc="F F F"
V       10.04479714      10.04472527      10.04466403
V       10.87729457      11.71161036      11.44018592
V        9.21227074       8.37776984       8.64922973
V        9.83627714      12.48277265       9.19776920
V       12.56378816       9.91980053      10.62969074
V       11.56107486       9.30989835       8.07879897
V       10.11290144      10.38684842       7.45834565
V       11.10376223       7.66021636      10.12083324
V        8.38197967      11.64331631      11.26622989
V        7.82570699      10.55995632       8.81424175
V       11.49106562       9.37977946      12.11275338
V        8.98184090      10.22879171      12.39845243
V        9.49946628       7.76718913      11.14953555
V        7.54183325       9.33386897      10.24893138
V       11.63683187      11.86434720       9.06122902
15
Properties=species:S:1:pos:R:3 config_type=qcd gap_pre_relax_energy=-106.6895942486219 gap_pred_energy=-108.90587882732318 gap_fmax_final=0.0007985590942330525 gap_converged=1 pbc="F F F"
V        8.90478068       8.90471493       8.90474349
V       11.53675647       9.54118419       9.15909037
V        6.27275529       8.26820818       8.65058147
V       10.05193297      11.30517610       8.96442867
V        7.74435245      11.35415627       9.13055611
V       10.06521619       6.45537295       8.67874379
V        7.75776909       6.50428416       8.84510838
V        8.34867192      10.78994168      10.68639869
V       10.69916980       9.66631542      10.70412292
V        9.12667278       7.29953770      10.88379439
V        7.49218371       8.08086464      10.87150608
V        8.68284353      10.51002938       6.92577914
V       10.31726020       9.72864954       6.93791203
V        9.46073809       7.01965667       7.12297048
V        7.11016935       8.14318070       7.10553647
16
Properties=species:S:1:pos:R:3 config_type=qcd gap_pre_relax_energy=-116.93003782493643 gap_pred_energy=-117.53473844789667 gap_fmax_final=0.0006040441922475096 gap_converged=1 pbc="F F F"
V       10.22898315      10.16776766      10.15130479
V       11.87105676       9.04201006      11.35104075
V        8.97303371      12.07862079      11.25701908
V        9.44620122       9.18940824       8.17746751
V       11.76898531       8.40493133       8.69970066
V       11.73364493      11.86739992      11.55760121
V       12.63831183      10.86854766       9.39257176
V       11.45839663      10.79686903       7.88456635
V       10.63057567      12.71933023       9.43319907
V        9.12175753      11.91362457       8.54130038
V       10.66658352      10.85362971      12.78526429
V       10.37189598       7.51266386       9.71250553
V        7.63529506      10.30746913       9.65801580
V       10.14816891       8.44416781      12.13898182
V        8.31665977      10.43973848      12.12690875
V        8.11879375       8.52216529      10.26089599
17
Properties=species:S:1:pos:R:3 config_type=qcd gap_pre_relax_energy=-125.24042166967095 gap_pred_energy=-125.8995114275447 gap_fmax_final=0.0009277738886423018 gap_converged=1 pbc="F F F"
V        9.05949467      10.19805088       7.79178475
V       11.12046324       8.52213240       8.34680721
V       11.68056222      10.78505084       7.99935569
V       12.68216059       9.61090545      10.14662188
V        8.56734259       8.62373544       8.83136764
V        9.55190470      12.32993315       8.66778393
V       10.24052953      10.24054355      10.24056670
V       12.03820154      12.09874796       9.39498094
V       10.78028711       7.77686451      10.16795976
V        7.81650446      10.90422276      10.01647341
V        9.68306107      12.67019201      10.63112014
V       12.02333863       9.19632797      11.98549217
V        8.36298003       8.46529223      11.09064630
V        8.26658257      10.91377991      11.96211920
V        9.76245917       8.69796912      12.42801526
V       11.99362682      11.77457235      11.64520587
V       10.45983329      11.28101172      12.74303136
18
Properties=species:S:1:pos:R:3 config_type=qcd gap_pre_relax_energy=-131.00782800974716 gap_pred_energy=-132.84151310156582 gap_fmax_final=0.0009460471945719939 gap_converged=1 pbc="F F F"
V       13.17027960      11.45262272      10.75441909
V       12.66142151       9.08778324      11.90906087
V       12.04470571      10.76563671      13.09451442
V       12.67876599       9.82058085       9.37997030
V       10.70399391      10.27547155       7.90779162
V       11.57699767      12.16479672       8.75959436
V       10.28622740      13.48318753       9.60255576
V       11.51460041       7.94748650      10.77318219
V       10.67230933      10.65538377      10.65357859
V       10.60676267       8.47498600       8.86414583
V       11.80564202      12.79637078      11.47044427
V       10.03381685       9.13831015      12.62433161
V       10.25071065      11.59332776      13.29316861
V        8.35808036      10.96377761      11.63126372
V        8.41386176       9.92639803       9.19514820
V        8.90300520      11.82355958       9.13241297
V        9.10523243      12.80870672      11.64311989
V        8.96957626       8.57760350      11.06728743
19
Properties=species:S:1:pos:R:3 config_type=qcd gap_pre_relax_energy=-139.65521543761702 gap_pred_energy=-140.63500928644504 gap_fmax_final=0.0009909772325931814 gap_converged=1 pbc="F F F"
V       10.95619497      10.27632176       8.00371236
V        9.11577746      10.56740400       8.24884774
V       10.43880998      12.86072064       8.46056167
V       12.58230013      11.89561551       9.14206258
V        9.93213765       8.39079436       9.57617586
V       12.32832211       9.43834083      10.07209966
V        8.05265332       9.65457118      10.28331546
V        8.42626806      12.35261562      10.08042079
V       10.83340374      13.42386368      10.31156509
V       13.86056023       8.49138611      11.73167469
V       12.50509780       7.49014075      11.61886308
V       10.42798660      10.99034602      10.57160144
V       12.95097710      11.86343971      11.05344114
V       10.14470606       8.73056936      11.57375617
V       11.34475968      12.34252608      12.71738480
V        8.14695500      10.54092132      12.01507799
V       12.10639771       9.85883810      12.46647506
V        8.87515033      12.94198376      11.89176403
V       10.06430138      10.98236055      13.27395970
20
Properties=species:S:1:pos:R:3 config_type=qcd gap_pre_relax_energy=-146.170252533094 gap_pred_energy=-148.58030682833 gap_fmax_final=0.0009186745943882093 gap_converged=1 pbc="F F F"
V       12.46839696      13.29289552       9.08868315
V       10.65097531      10.26605517       7.39864072
V       10.90844641      12.46195480       7.26619467
V       12.49985427      10.94388194       7.90160313
V       10.40613655      11.59501789       9.60762593
V        8.40835734      11.83173605      11.33695157
V       10.79689061      13.97214008       9.54545130
V       11.50023468       9.07423916       9.68451234
V        9.63033969       9.04058919       9.72454872
V       12.89427526      11.05074768      10.49797012
V       12.07546228      12.65020280      11.53660625
V       12.70678318       8.92936591      12.16509665
V       10.38442789       7.89863019      11.99220757
V       10.61788423      10.48620295      11.75821236
V        9.75273143      12.99816737      11.86203053
V       12.97971702      10.59232073      13.06691746
V        8.78213438       8.86087404      12.37601507
V       11.04272539      11.93246405      14.00345428
V       10.84694302       9.51538819      13.93160542
V        9.23792885      11.19777099      13.84631747
21
Properties=species:S:1:pos:R:3 config_type=qcd gap_pre_relax_energy=-155.07660863541327 gap_pred_energy=-156.8773624819003 gap_fmax_final=0.0008650617495421381 gap_converged=1 pbc="F F F"
V       14.04211755       9.96057135      13.01705623
V        8.17965650       9.98133686      10.42670859
V       11.70042748      12.13793366      13.44150403
V       14.19092146      11.74810402       9.80249767
V       11.05185336      11.29829165       8.55513326
V       10.86814237      10.38225521      13.45997212
V        8.82978538      11.02371612       8.89544284
V        7.99933418      12.72438509      10.86988474
V        8.30261566      10.70396358      12.68473362
V       10.65015532       9.37405011       9.79699481
V       14.91533769       9.81764681      11.28787189
V       12.34836955      10.75880474      11.23063663
V       10.13461873      13.99940601      11.98753494
V       13.36099221       9.18468519       9.44288598
V        9.20229249      13.55930673       9.64374424
V       10.11131853      11.63617397      11.10495816
V       14.33525779      12.27534026      11.55830156
V       11.69097544      13.77635544      10.65097332
V       10.32522145       9.06097746      11.83302761
V        9.02499518      12.33996971      13.35823249
V       12.85538318       8.37649758      11.07167678
22
Properties=species:S:1:pos:R:3 config_type=qcd gap_pre_relax_energy=-159.9883855579275 gap_pred_energy=-162.64390610548747 gap_fmax_final=0.0007489147574983928 gap_converged=1 pbc="F F F"
V       10.45775222      10.98414498      14.07304754
V        8.84835219      12.88420980      13.85364359
V       13.16310537      11.91792057      12.47024657
V        8.11662918      11.36717422      13.22175075
V       12.97117347      13.16990634      11.11455995
V        9.35758544       8.87629307      13.49512908
V       10.56168104      13.77292712      10.03210216
V       11.85934845       8.81976007      13.62137463
V        8.42880774      13.12283670      11.18302966
V       10.59265467      12.38951764      12.11876773
V       11.57103349       9.77767865      12.20064888
V       11.38667055      12.35256912       7.83980665
V       14.24534899      11.01284507      10.09965515
V       11.70251086      11.26166685      10.11697899
V        9.30228592      10.36968923      11.38347874
V        9.95113048       7.80766761      12.00173225
V       12.76486266       8.72954129      10.13801067
V       13.86299703      12.23946166       8.76536978
V        9.35187894      12.21916376       9.60428283
V       12.83221734      10.19795504       8.19435222
V       11.00323819       8.87403904       9.66961051
V       10.55147529      10.73577167       7.68516118
23
Properties=species:S:1:pos:R:3 config_type=qcd gap_pre_relax_energy=-171.38088685309324 gap_pred_energy=-172.77101036950035 gap_fmax_final=0.0009934619117986357 gap_converged=1 pbc="F F F"
V       11.52501818       8.63251100       9.75336263
V        9.19714688       7.80761258      10.96396151
V       10.61574307       7.73256677      12.16862078
V       10.02992714       9.28680494       8.79424346
V       12.24962755      10.37276435       7.62316019
V       13.89138293       9.99128526       9.66026914
V       10.01496954      10.14611856      11.48852774
V       12.55332788       9.63531776      12.01405023
V        7.54003846      10.03349024      10.81325342
V        8.63766541       9.16494784      13.14122360
V       10.92260640      11.84753234       7.62681081
V       11.65700071      11.25326528      10.02878443
V       13.18007020      12.26253776       8.56505299
V        9.21701773      11.85860702       9.73719772
V       10.69540914       9.55488254      14.06020993
V       14.11877531      11.43562131      10.86853225
V        7.88309659      11.42752756      12.02143804
V       11.21921043      13.69399083       9.49257433
V       12.04289590      11.45192423      12.67541797
V        9.61085114      11.19806819      13.93195639
V       12.60252960      13.50859103      10.84018604
V        8.72252344      13.35270899      10.30837195
V       10.26310272      12.74126000      11.81273085
24
Properties=species:S:1:pos:R:3 config_type=qcd gap_pre_relax_energy=-178.36537117087104 gap_pred_energy=-179.94181898482123 gap_fmax_final=0.0009145955941053205 gap_converged=1 pbc="F F F"
V       11.44907034      13.11543511      12.30125337
V       12.50025326      10.69918843      13.91578533
V       10.00853361      10.33252455      12.77480738
V       11.89629136      13.88067820      10.64645022
V        8.34684741      12.48843008      12.65354319
V       13.69106109      12.01979636      11.74981020
V       11.78775149       8.29341769      13.04217807
V        9.03911552      14.24607599      10.54091639
V        9.90718018      11.92291685      10.62322360
V       13.96740700       9.78013751      13.18323663
V        8.17409846      10.05503343      11.21278161
V       10.62376476      13.34541058       8.51676450
V       12.00880319      10.11652401      11.45794048
V        8.14423360      13.30911320       9.06214613
V       14.49737324      10.66884246      10.68081815
V       10.14374825       8.10374589      11.94041695
V       12.33718095      11.67972266       9.52353742
V       13.94233224       8.20072857      11.39106896
V        7.25325556      12.48431096      11.12391437
V       10.04072952      11.61526631       8.03077593
V       10.34016485       9.57756999       9.76343233
V       12.19361336       7.59122073      10.43999962
V        7.95085525      10.63363306       9.38620332
V       13.00131511       9.08525700       9.28397548
25
Properties=species:S:1:pos:R:3 config_type=qcd gap_pre_relax_energy=-185.2997975872653 gap_pred_energy=-188.01237367369077 gap_fmax_final=0.0007098051652613316 gap_converged=1 pbc="F F F"
V       11.00393031      10.13140064       7.50687042
V       11.25084935      12.19434011       8.95511191
V       12.75385764      10.22111782       8.08850111
V       11.67987977       7.98368432       8.85567181
V        9.07394691      10.70882566       9.07868432
V       13.22975172      12.10960778       9.75022093
V        9.31089035      12.22301764      10.51710225
V       11.36209028      10.08740127      10.28889256
V       13.97170183      10.98742860      11.23868678
V        9.30623958       8.19567595      10.02870339
V       11.84751890      14.23299739      10.74018082
V        7.12655754      10.80180371      10.67709018
V       13.14904376       8.18587859       9.98344392
V        7.29553743      11.80981745      12.16536524
V        9.72847195      14.13533775      12.31533310
V       11.48237778      12.01917359      11.81814354
V       13.46633739      13.79511012      11.70563566
V       10.67814125       7.80461563      11.21095965
V        9.25795934      10.05696941      11.76445154
V       12.85324498       9.84445852      12.70432418
V       13.48895964      12.32498585      13.58138822
V        9.63602144      12.07571289      13.33817850
V       11.40788133      13.96889240      13.36256854
V       10.98534511       9.65113501      13.13329037
V       11.91189460      11.70904211      14.44963126
26
Properties=species:S:1:pos:R:3 config_type=qcd gap_pre_relax_energy=-192.7781640878987 gap_pred_energy=-196.12310890160748 gap_fmax_final=0.0008910808799027348 gap_converged=1 pbc="F F F"
V        9.20904613       9.31008323       9.03185644
V       11.75255228       9.14587238       9.06637746
V        9.80160654       7.40987176      10.39360893
V       10.33689456      13.85530462       9.68823035
V       10.81384462      10.53171368      13.91761463
V       13.68955440       9.76222720      10.64021966
V        7.70329113      12.16384518      10.65685043
V       13.43891084      10.86011532      12.15406824
V       12.51084220      12.87818686      12.56162701
V        9.09999425       9.85299258      13.36023562
V       11.74808429      11.20828733       7.58540759
V        7.74225214      12.02303092      12.51300892
V        9.89465806      13.58381994      13.44945472
V       12.60503522       8.22882813      12.71589492
V       14.07250412      12.84297906      10.15680492
V        9.01579674      14.18684801      11.91227726
V       10.02527905       7.56797935      12.28013505
V       13.47735903      10.88468594       8.19779014
V        9.71327349      11.06030185       9.31541602
V       11.95530600      11.65424275      10.13217646
V       12.88223819      13.38682851       8.76125749
V       10.06152238      11.89547207      11.74556438
V       11.00277521       9.57910645      11.29330150
V       12.36050273       7.45999002      11.02216801
V       11.63610179      14.04450245      11.17162079
V        8.51608112       9.68819090      11.34233955
27
Properties=species:S:1:pos:R:3 config_type=qcd gap_pre_relax_energy=-201.49841328037607 gap_pred_energy=-203.7279839870925 gap_fmax_final=0.0008935793676411251 gap_converged=1 pbc="F F F"
V        9.67788536      11.16872681       9.69777741
V        7.94316004      11.97409569      11.42234649
V        9.30487934      13.69366481      12.85229224
V        9.31217590       8.66458908       9.74105034
V       11.73064349      14.56935303      10.45300354
V       13.79814998       9.91187786       8.94849423
V       12.28089224      11.67785223      10.34673322
V        7.98651346       9.40132191      10.78217741
V        8.83439455      11.44066543      13.78337301
V       10.63612140      11.70086470      14.21206269
V       10.99126342       8.98253335      14.05115597
V       13.43134449      13.70997368       9.63951137
V        8.52103908      13.45549418      10.35811409
V       12.89438905      12.09479196       7.79099015
V       10.87811878      13.20370611       9.03568773
V       14.52360920      12.36866155      11.65348958
V        8.32586073       8.63675936      13.37245706
V       12.54577308      10.77874767      12.65275812
V        9.41760823       7.74516764      12.23223685
V       10.52764005      12.66523929      11.85002565
V       13.08854571      13.46038779      12.24669392
V       11.50252964      10.78823414       7.94872211
V       10.09758497      10.08918116      11.96605548
V       12.00776161       8.23971878      12.66311036
V       14.84894877      11.42794642       9.49854461
V       13.96596847       9.80945902      11.45920250
V       11.83759713       9.25138451      10.25233204
28
Properties=species:S:1:pos:R:3 config_type=qcd gap_pre_relax_energy=-208.74516806307574 gap_pred_energy=-211.73064819266443 gap_fmax_final=0.0009287563823213814 gap_converged=1 pbc="F F F"
V       11.53348780      13.77277623      13.86378986
V        9.99099058      10.98675025      13.71071516
V       13.65055679      13.25014663      13.67622135
V       11.00869202       9.28405859      13.40304259
V       14.72812666      11.58904472      13.57925470
V       13.60000451       9.49890160      13.87014099
V       13.00034104      13.89051070      11.01511318
V       10.47015190      12.72356318      11.50141688
V       14.40059548      12.57303646      11.15417457
V       10.28883793      10.17584665      11.02027374
V       14.21916871      10.31205490      11.19426489
V       12.70731339       8.74136009      10.88282330
V       10.49586526      13.55283889       9.02419570
V       14.21457091      11.43883680       8.75904105
V        9.47066533      11.91059100       9.18034055
V       10.88758254       9.74010529       8.42494578
V       13.55447579       9.72039083       8.72034251
V       12.65359936      10.95079666      14.83442943
V       12.32440232      11.36806208      12.48675860
V       12.15050164      11.59431435       9.95023130
V       11.65534278      11.28716961       7.70498773
V        9.78898484      14.99014400      11.30839804
V        8.42275912      13.96549044      10.43362247
V        8.51116371      13.09477014      12.84407110
V        8.15860021      11.61125940      11.60716967
V        8.52009419       9.13617534      12.63555728
V        8.64042922       9.63026859      10.06563727
V        9.62190410       7.87994470      11.81824848
29
Properties=species:S:1:pos:R:3 config_type=qcd gap_pre_relax_energy=-216.8165256239916 gap_pred_energy=-218.9402115512211 gap_fmax_final=0.0008720025557943093 gap_converged=1 pbc="F F F"
V       16.18055953      12.52296968      12.32096661
V       12.67731749      11.16595927      14.99845772
V       15.64322290      11.25066417      11.10654483
V       12.74222579      13.46726803      13.90029740
V       10.65698257       8.74719200       9.54299856
V       14.13137341      11.06266657      13.12326644
V       13.76914892      13.11582233      11.59103051
V       13.79502351      12.03246480       9.26285206
V       10.18714234      10.39731745      14.32176730
V       10.20970208      11.21040712      10.44006451
V       12.67988671      15.47232694      12.01674735
V        9.55023930      12.98820853       8.64866091
V        8.22200431      10.16621164      12.26092813
V       13.04011761       8.94510244      11.96346359
V       14.31620999      15.30709345      12.82392404
V       10.83000730      13.58989755      12.19577874
V       11.45520947      11.24072234       8.50539690
V       14.52739605      13.11910390      14.44135905
V        8.95602120      11.86584761      12.44584872
V        7.83032885      11.31961224       9.79450928
V        8.86297717       8.83489602      10.20411422
V       11.70136220      13.30713430      10.10496508
V       11.78363802      11.42194819      12.50339677
V       10.53824619       9.32454082      12.13299871
V        9.06180789      13.67887721      10.38906065
V       13.04260449      10.65170770      10.38725282
V       10.42280942      12.27787088      14.58722187
V        8.90177256      10.54099181       8.34040910
V       12.52803353       9.21854580      13.88908896
30
Properties=species:S:1:pos:R:3 config_type=qcd gap_pre_relax_energy=-225.91907003850395 gap_pred_energy=-228.24326939886544 gap_fmax_final=0.0005953148775198829 gap_converged=1 pbc="F F F"
V        9.54267982      10.39360034       7.88329808
V       10.17000176      12.82468620       7.94532811
V        8.49184574       9.81537578       9.34970719
V       12.45580459      11.29440343       8.56861430
V       12.97456304      14.42058247       9.04479942
V        8.66208649      12.46805955       9.13271367
V       11.04036949       8.86939720       9.47337108
V       10.80125726      13.77282935      10.16923010
V       14.84805126      10.75173182      10.46452088
V       10.51530889      11.26009195      10.20242366
V       12.81627594      15.26263239      10.57484834
V       13.67118090       8.44056862       9.90743416
V       10.09140668       8.68178555      11.12554956
V       12.97622998      12.69845522      11.13737874
V        8.90449005      13.18157160      11.63240684
V       14.96119898      11.35095566      12.18306419
V       10.91566534      12.19844631      12.52599812
V       12.47337004      10.11919667      11.43688400
V       14.33546383       8.97810360      12.50628403
V       12.63213790       7.59861174      11.18098668
V       10.38766218       9.85006475      13.13421794
V        8.47493671      10.96552893      11.55672788
V       13.06259633      13.71408432      13.59456318
V       11.13024876      14.45879577      12.51502260
V        9.40647620      13.35727499      14.29912613
V       11.63297912      13.23754732      14.85160628
V       12.88247367      11.09760198      13.65044090
V       12.82438007       8.55699494      13.63713792
V       10.65302704      10.89745247      14.84380208
V        8.50120555      11.71894272      13.70788758
31
Properties=species:S:1:pos:R:3 config_type=qcd gap_pre_relax_energy=-233.35878701809008 gap_pred_energy=-236.1945074896286 gap_fmax_final=0.0009165969223845097 gap_converged=1 pbc="F F F"
V       10.93794553       9.73599436       8.97879512
V       10.76730286       9.68715078      11.75169898
V       12.83164117      10.62942212       8.40955335
V       12.91364992      10.55488843      10.98633513
V       10.91667987      12.01772651      10.13451462
V       11.17310753      11.93873574       7.37337936
V        8.90119353      11.79290907       8.75741634
V       13.09548030      12.77929958       9.07311978
V       10.69431226      13.60667969       8.15941676
V        8.83544095      11.72796305      11.39311883
V       12.98813322      12.84442104      11.73348744
V       10.40841582      13.99548458      11.71496589
V       10.50556851       9.56213103      14.29813388
V       12.77903943      10.57045233      13.58783233
V       10.84424934      11.96849790      12.99710699
V       11.10590448      11.74003404      15.61531281
V        9.30409867      11.73789345      15.05490362
V       12.90655620      12.96385631      14.43959575
V       10.30073670      14.00883102      14.34887416
V       14.97114282      11.91283632      12.68662003
V       15.14249124      11.59964318      10.78585375
V       12.39855059      14.44089170      13.32997839
V       12.46505694      14.40738166       9.91023996
V       12.27417672       7.95339938      10.43345298
V       12.78038557       8.15276337      12.22863836
V        8.69189618      13.62155835      13.23395198
V        8.68958551      13.49339256       9.79472740
V        8.91325714       9.87065286      13.32786907
V        9.17858636       9.68439031       9.90699851
V       14.71727135       8.93426011      10.60345454
V       14.98728211       9.48559799      12.36979272
32
Properties=species:S:1:pos:R:3 config_type=qcd gap_pre_relax_energy=-242.00190259970796 gap_pred_energy=-244.75792377720526 gap_fmax_final=0.0009300166683602744 gap_converged=1 pbc="F F F"
V       11.14518931      11.65428798      13.13157834
V       13.51130712      11.92165436      13.02401429
V        8.75569594      11.39610277      13.16292832
V       11.80399955      14.43021783      13.50966790
V        9.98354262      14.03583261      12.92253343
V       12.14251187       9.33637895      12.77164559
V        9.50242458       9.54715094      13.15387930
V       14.72815609       9.59079553      12.67329178
V       14.35389746       9.45894922       8.95291873
V       10.85853434      11.70711721       9.01901437
V       13.48699010      12.01844132       9.04197101
V        8.30994567      11.51082045       9.22789398
V       12.80478544      14.61717458       9.31838173
V       10.21635656      14.25388768       9.06454121
V       11.70559186       9.72854888       8.69981720
V        9.02014663       9.81291592       8.83459324
V       12.84673574      10.65433661      10.91454494
V       10.23137844      10.47975813      10.95996268
V       15.26111370      10.49315076      10.21226681
V        7.81536966       9.82366292      11.17859128
V       11.63082788       8.23035457       9.95048081
V        8.69421871       8.25703474      10.95662933
V       14.14874428       8.41638297      11.35203315
V       11.80092193      13.06774574      11.02339472
V       14.26065361      12.90615023      10.65126689
V        9.42565493      12.94570657      11.12409351
V       10.59831861      15.26101354      10.60772890
V       13.23034542      15.35866218      10.91371317
V       10.14808550      10.91945400      15.32571250
V       12.77703569      10.49711240      15.07109434
V       12.37696865      12.29055954      15.36154804
V        9.79570790      12.74979466      15.25942432
33
Properties=species:S:1:pos:R:3 config_type=qcd gap_pre_relax_energy=-249.15479116666612 gap_pred_energy=-251.7632412043575 gap_fmax_final=0.0009615283877954284 gap_converged=1 pbc="F F F"
V       12.60740881      11.89295369      13.45698911
V       12.25863701      11.37406813      15.68306221
V       13.20142365       9.51205818      14.23100484
V       10.75413719      10.58961083      14.61851917
V       10.66544432      13.34098189      14.72613740
V       12.37556206      14.08928947      14.92496722
V       14.84948465      12.30428162      13.75819696
V       11.60796499      10.15351179      12.00788297
V        9.97776341      12.20050604      12.72206351
V       11.89700158      13.88957191      12.19727272
V       14.52448049      14.06395700      12.53147831
V       14.26755258      10.24003851      11.95203708
V       13.33827687      12.17486930      10.95262127
V       13.14899317       8.04659020      12.85992794
V       10.73548584       8.31074115      13.70903688
V        8.91331955       9.91146826      12.51921239
V        7.86482245      13.53413719      12.65194146
V        9.98771114      15.22871878      12.83197514
V       12.62942557      16.25198063      12.67938241
V       13.22301463       8.24056369      10.72838419
V       10.68900773       7.97472071      11.81883068
V        9.33699075      10.16497069      10.73900203
V        8.01595725      12.39394629      11.21998262
V        9.67686593      14.44795496      11.02550055
V       11.71453214      16.17668846      11.02497988
V       13.97896722      14.77441951      10.76722928
V       15.87439032      12.12232650      10.74441469
V       12.24751921       9.56661166       9.64449131
V       10.72164358      12.28676788      10.19168572
V       11.99689662      14.11990955       9.60298141
V       14.25898516      13.11529288       8.77889201
V       15.12859866      10.80053348       9.57694936
V       12.82246977      11.99669345       8.41370159
34
Properties=species:S:1:pos:R:3 config_type=qcd gap_pre_relax_energy=-258.53599320501655 gap_pred_energy=-260.0355004552714 gap_fmax_final=0.0008717036256788625 gap_converged=1 pbc="F F F"
V       14.94734489      13.00584143      12.42647486
V       15.23689038      10.35425077      12.28778894
V       14.48337765      12.09175707      14.12138407
V       14.78499717      11.27948891      10.27452456
V       13.36159839      13.57415162      10.86180673
V       13.29375364       9.20065342      11.00151969
V       14.01762326       9.57010102      13.58543934
V       12.61024987      13.42613401      13.56533641
V       12.88671084      13.76160567       8.58866558
V       12.80552180      11.44313635      12.01087717
V       11.89623836       7.57928874      11.12871625
V       10.99462385      12.60086032      10.11928909
V       11.17216647      14.26277390      12.41102026
V       12.13013204      11.15756767      14.50887198
V       12.89671218      11.19690355       9.33103187
V       11.37645034      15.28249387      10.11902804
V       12.09662742       8.68399156       8.70019163
V       11.77036028      12.81275581       7.43930446
V       11.50147083       9.34232622      13.10414664
V       10.09965673      12.98817656      14.67905893
V       10.27568297       8.06460256       9.05864924
V       10.34226248      14.60174107       8.73211062
V       10.37247700      11.77539839      12.69022583
V        8.72211492      13.64255745      13.36129123
V       10.72146530      10.04057303      10.69380642
V       10.48335286      10.54699071       8.25358975
V        9.73739329      10.34470824      14.90639642
V        9.89881121       7.69051069      11.68605711
V        9.27433941      13.95270733      11.06164269
V        8.98646676      11.69763343       8.71243163
V        8.95553419       9.37204795      12.62121515
V        8.21071900      11.19959513      14.07670082
V        8.66743036       9.39217875       9.98237626
V        8.49726762      11.57232062      11.40685406
35
Properties=species:S:1:pos:R:3 config_type=qcd gap_pre_relax_energy=-266.2806350126073 gap_pred_energy=-268.459009274771 gap_fmax_final=0.000928784367404835 gap_converged=1 pbc="F F F"
V        8.51315817      12.63953761      12.61719160
V       12.63352094      15.07620151      12.36727895
V       11.08871516      14.77747960      14.42132881
V       14.21490531      11.17491938       8.69748253
V        9.40828776       8.07994858      10.12064899
V        7.58823864      10.33127145      12.53159613
V        8.49453407       8.70750745      12.31444588
V       11.62144885      12.18330262       9.92827664
V        9.97135135      10.60924589      13.65075840
V       13.67979480      12.90946597      11.04941982
V       10.00808846      15.06936556      12.84850880
V       10.98502071      13.01660407      12.36506220
V       12.75602066      10.07601851      10.34364177
V        9.90781799      10.73849754      11.24415980
V        9.50860033      11.83793158       8.78838565
V       14.46878145       8.40510182       9.58126373
V       12.08876320       7.60897158      10.42101909
V        9.03841837      13.48087704      10.04535507
V       12.27659871       9.40050272      14.47520078
V       13.78138291       8.66248219      12.28892896
V       11.18438021       8.63279662      11.97887806
V        8.01570941       9.92271553       9.91251898
V       13.16294814      13.08319536      14.02399545
V       13.33930519      13.76618122       8.76246944
V       11.72895625      12.13023492      14.83020054
V       13.07538808       8.61425023       8.32251392
V       12.37671364      11.00858237      12.53493321
V       10.61498508       9.50362146       9.17395660
V        9.24045687      13.07130936      14.35969134
V       14.88158629      10.10862393      11.76361487
V       12.58949896      11.33281832       7.74765687
V       11.61263201      13.98193294       8.13859104
V        7.49322888      11.76679995      10.32818136
V       13.78852234      10.43113158      14.29860952
V       11.80743793      14.80577063      10.66943234
36
Properties=species:S:1:pos:R:3 config_type=qcd gap_pre_relax_energy=-273.958005160016 gap_pred_energy=-276.69894641120874 gap_fmax_final=0.0009138952966181514 gap_converged=1 pbc="F F F"
V       10.11259681       8.61856947      14.77661722
V       11.68242975      11.28824740      15.49962265
V        8.74652706      10.94629132      13.91374512
V        9.45992877      12.86510353      13.90064813
V       12.80025766       8.56687949      14.29855092
V       12.02129011      13.99154489      14.85251660
V       10.56824890       7.63048210      13.23817479
V       13.58201432      13.11036962      14.64356307
V        8.87552367       9.18456754      12.45361471
V       13.68875740      10.78191419      13.20592943
V        7.62891385      12.62199805      11.99046346
V        9.92374602      11.42100895      11.50052892
V        7.32683901      10.80557212      11.69555205
V       11.95610148      12.70465945      12.74374497
V       12.99267315       8.35476636      12.40504675
V       11.24688124      15.16873641      12.41536498
V       11.20361656      10.26349787      13.23792347
V       13.07533533      15.06409148      12.61667649
V       14.14617532      15.04147677       9.65045894
V        8.27619927      11.81144298       9.47208427
V       14.87134165      12.65193255      11.63635992
V       12.25895340      13.31544804      10.49308030
V       14.52092799      12.31530887       9.70051156
V       12.63161362      10.66968734      10.93569439
V       14.85975689       9.91484622      10.96632814
V        8.65478338       9.93124847       9.56644931
V       11.44956794      15.43218038       9.63434454
V       10.71501526       8.99824599      10.87281841
V       10.71244224      11.45689437       9.18012742
V        9.83639984      13.69108983      10.90105618
V       13.00193922       8.07343116      10.12534647
V       12.48738162      11.70322699       8.40266026
V       13.28006630      14.16254805       8.25377847
V       14.38413467       9.95909510       9.09269537
V       10.71630331      14.10378076       8.49584040
V       11.86409326       8.93859219       8.79085819
37
Properties=species:S:1:pos:R:3 config_type=qcd gap_pre_relax_energy=-281.01350479727023 gap_pred_energy=-283.82431459468864 gap_fmax_final=0.0009839006125645713 gap_converged=1 pbc="F F F"
V        9.49525214      14.30782077      11.85841863
V       10.90993253      16.51579327      11.13199561
V       10.18702883      13.23013938      13.27236775
V        7.96927758      12.23609571      11.08850270
V       11.49676040      15.16813726       8.85446973
V       12.04654960      15.18898022      13.16325457
V       11.12575527      12.11175656      15.09513728
V        9.74616766      13.25976855       9.40170195
V       12.70820664      16.32211369      10.89828350
V       11.89083981      13.94815154      11.00184023
V        8.34442301      11.17406180       9.63943052
V        8.93200106       9.78425842      11.83198975
V        8.62448584      10.80213728      13.36785728
V       13.35664919      13.60651811      15.20285498
V       13.32355098      14.80609627       8.81551769
V       13.83645752      14.75367098      12.72862160
V       10.44463309      11.76765389      11.17616045
V       12.05684684      11.55617002      16.60817154
V       15.00503632      13.12676279      14.43131096
V       10.32742263       8.01575253      13.36493976
V       11.24286568      10.39940085      13.15826494
V       11.98879969      12.57938198       8.88722570
V       10.84833740      10.86027617       8.84181478
V       13.63338705      11.20495068      14.77937991
V       14.26449031      13.01579354      10.67453232
V       15.00791053      11.23088530      12.50361078
V       12.90684841      11.05539677      10.72395987
V       10.23249108       9.75859097      15.59627111
V       12.77501898      12.49820117      12.92138001
V       12.13593031       7.73949004      13.02988943
V       11.99221121       9.32529248      15.19397571
V       11.37273829       9.16173605      10.97155853
V       13.11314971       9.45835914       8.83550561
V       14.56112914      11.71675659       8.54965152
V       15.26118950      10.68401375       9.91427135
V       13.63681308       9.71804351      12.80943808
V       13.76502797       8.47720728      10.24205923
38
Properties=species:S:1:pos:R:3 config_type=qcd gap_pre_relax_energy=-289.8166362441292 gap_pred_energy=-292.08091842208523 gap_fmax_final=0.0008806484886482881 gap_converged=1 pbc="F F F"
V       13.28937539      12.09230120       7.72376711
V       14.11182396      14.20204009       9.00332913
V       11.93551875      10.86349908       8.75956640
V       12.57087108      14.63527704       7.94463473
V       14.29740831      11.72706982       9.69489996
V       10.86040676      13.21879091       7.67653564
V       10.66335890       9.16416743      10.26859990
V       13.67687086       9.07979391       9.37334757
V        9.55571261      11.75480062       8.63646718
V       11.85651376      12.96578960       9.92891226
V       14.78070007      11.44520928      12.30339664
V       13.58051318      13.72212988      11.44969808
V       10.53117526      15.24640377       9.51951293
V       14.91070114       9.30324259      10.78860585
V       12.21122900      15.52843404      10.50224419
V       12.91617220      10.78763111      11.33295846
V       12.67868530       8.15493681      11.58306508
V        8.18905553       9.87876369      10.83727593
V        9.14840289      13.48692927       9.62405123
V       10.26177934      11.43867956      11.13346295
V       13.73074427       8.92340575      13.18877225
V       10.18834029       7.38535894      12.56652556
V       11.24666099       9.83923364      12.97133710
V        8.19032759      12.34366017      11.92082838
V       14.41132275      13.37433951      13.94786317
V       12.09547048      12.50173120      13.00942363
V       10.44002100      13.98063017      11.89128133
V        8.83962113       9.70869997      12.49142059
V        8.05185144      13.71051426      12.95706121
V       11.63024540       7.32606119      13.80184020
V       13.46610704      10.89824827      14.25057536
V       12.38974682      15.07446132      13.38406357
V        9.62419060      11.86107988      13.83139445
V       11.92595343       9.12853655      15.40097905
V       10.01858846       9.16308882      14.76557922
V       11.11046852      11.59105600      15.19296227
V       10.90496472      14.56029637      14.45064155
V       13.08003456      13.30464206      15.26405371
39
Properties=species:S:1:pos:R:3 config_type=qcd gap_pre_relax_energy=-297.07138487352717 gap_pred_energy=-300.86059086625414 gap_fmax_final=0.0007873418789767543 gap_converged=1 pbc="F F F"
V       13.51028792      13.40445278      11.77718894
V       16.28929068      13.51149191      11.67900293
V       13.61080138      16.12829971      11.97299798
V       10.39972204      13.41362095      11.78429920
V        7.65038751      13.40280404      11.51662455
V       10.19106426      16.08605816      12.16227147
V       10.55207597      10.38202812      11.89375939
V        7.72975212      10.14864665      11.78848475
V       10.34107295       7.69630818      11.59532532
V       13.38761672      10.44146757      11.91679869
V       16.12257817      10.22456164      12.09428719
V       13.61978526       7.68269733      11.80498117
V       11.94446504      12.04947804      13.33947836
V       14.84824686      12.03275852      13.38252823
V        9.06629000      11.87212366      13.15664824
V       11.98395214      14.75348145      13.37565236
V       11.78483424       9.03076608      14.09509113
V       15.49902165      14.55602950      12.93917728
V        8.25900354      14.42419333      12.90733161
V        8.70756588       9.14822471      13.02471287
V       15.03916447       9.33318869      13.29230898
V       11.95369154      11.95877752      10.43752724
V       14.68748522      11.32325001       9.82521910
V        9.18662471      11.72559064      10.20255092
V       11.89077410      14.94208991      10.48433723
V       12.06453602       9.15900267      10.25127198
V       14.52992198      15.26812605      10.61120186
V        9.27674917      15.38521135      10.69280327
V        9.35806498       8.77810962      10.45475265
V       14.68476228       8.72013874      10.72516899
V       13.78497143      13.30973532      14.56693908
V       10.63081446      13.95373635      14.66021365
V       10.49807877      10.48209872      14.62321152
V       13.28101421      10.75580046      14.91533547
V       12.92603240      13.73832302       8.93058610
V       10.71501189      13.72076014       9.05907880
V       10.23260740      10.80488638       8.91475949
V       13.42902611      10.29154785       8.97044704
V       12.19478081      11.82206051      16.03757126
40
Properties=species:S:1:pos:R:3 config_type=qcd gap_pre_relax_energy=-305.8599630381439 gap_pred_energy=-308.85870020247177 gap_fmax_final=0.0009971490486825325 gap_converged=1 pbc="F F F"
V       13.49858300      13.33250552      11.97579142
V       16.15554924      13.56175332      11.81151618
V       13.62546096      16.15059512      12.20067759
V       10.44273508      13.45297130      11.84873711
V        7.64824180      13.59342094      11.61637579
V       10.34977879      16.13846210      11.83073488
V       10.44192305      10.39439431      11.99788592
V        7.64754982      10.25505568      12.22951888
V       10.34822835       7.70874837      12.01670852
V       13.49789851      10.51352579      11.87092918
V       16.15490036      10.28306789      12.03502235
V       13.62380856       7.69546428      11.64591550
V       11.89453261      11.94697318      13.41570888
V       14.82294187      11.98741294      13.69124508
V        8.98534625      11.99186549      13.37927799
V       11.92675713      14.67931837      13.40485240
V       12.24966339       9.05849551      13.42742860
V       14.68188621      15.08929721      13.34127059
V        9.22505367      15.22877092      12.96974555
V        8.72628280       9.35992578      13.44683850
V       15.07279519       9.23316714      13.14119746
V       11.89454631      11.89961852      10.43092574
V       14.82288923      11.85785753      10.15541772
V        8.98554625      11.85638839      10.46709642
V       12.25095978      14.78803358      10.41939415
V       11.92557234       9.16715705      10.44216235
V       15.07388651      14.61206548      10.70537352
V        8.72784692      14.48833829      10.39953524
V        9.22404828       8.61825783      10.87718438
V       14.68054206       8.75662394      10.50538009
V       13.65351276      13.03096085      14.82467521
V       10.06293546      13.21740155      14.59953914
V       10.55463095      10.55506387      14.87806815
V       13.26221487      10.28169308      14.72671928
V       13.26301926      13.56418889       9.11987078
V       10.55552069      13.29237062       8.96848198
V       10.06231468      10.63016941       9.24710676
V       13.65284241      10.81476323       9.02192664
V       11.62989676      11.66635124      16.05313558
V       11.63021107      12.18035869       7.79348167
41
Properties=species:S:1:pos:R:3 config_type=qcd gap_pre_relax_energy=-311.48342360643824 gap_pred_energy=-314.69472318580625 gap_fmax_final=0.0009105827846079327 gap_converged=1 pbc="F F F"
V       12.76825724      11.23177289      16.36930243
V       13.13308702      15.74898010      15.36482664
V       12.92323864      17.86695824      13.84199376
V       14.09691451      13.13044086      14.89375927
V       11.79542125      13.28129908      16.22487413
V       14.51153593      15.65905108      14.15658996
V       16.02274541      12.38618532      13.75270862
V       14.15092206      10.67043395      14.94868355
V       16.01826171      10.48716935      13.25380294
V       11.64796647       9.44578274      14.68183488
V       10.70012350      16.32874263      14.15192538
V       11.88120672      11.74482049      14.06111097
V       10.23120191      13.74534578      15.09069654
V       10.14207696      11.13343686      15.59942313
V       14.41536445      14.20660986      12.19231625
V       12.27951630      14.20760834      13.59844282
V       12.70726055      16.57264146      12.52353407
V       15.75227875      11.91171435      11.05031211
V       13.85037097      11.85776753      12.48759761
V       13.44089260       9.46459865      12.93067881
V       15.50874019       9.83147449      11.22544785
V       11.32990520      10.37748992      11.93643019
V       13.75801899      13.11704391       9.99247272
V       10.85019105       8.11569590      12.46081473
V       12.70019885       8.21037965      10.58134061
V       14.81969678      11.24917929       8.35463385
V        9.64178533      10.05774853      13.86668532
V       12.27429513      15.16462538      10.79503997
V       11.64584694      12.89733511      11.47759475
V        9.24598265       8.80559175      11.72547137
V        9.66847961      12.58965231      13.09255877
V       12.76239479      10.07051962       7.84944618
V       13.01707602      12.08036278       7.71763099
V       11.16799344       8.97243259       9.86305723
V       10.26297481      15.23607753      12.64008489
V       13.25814082      10.72834314      10.30105436
V        9.14797970      11.57874891      11.49346204
V       11.61345458      14.13058579       9.07983525
V       11.07455487      11.64152898       9.44460266
V        9.64981563      14.03077045      10.59835805
V        9.94406263      15.84328539      10.13979529
42
Properties=species:S:1:pos:R:3 config_type=qcd gap_pre_relax_energy=-320.3613977756023 gap_pred_energy=-323.6403412414527 gap_fmax_final=0.0009912545266721417 gap_converged=1 pbc="F F F"
V        9.07286742       8.52642760      10.34879186
V        8.74064080       9.60598108      12.81054100
V        7.73410639      12.01905418      13.66112829
V        8.55213374      10.93191133      11.22216714
V        9.39774930      13.08923429       9.15617602
V       10.91608653       9.51682088      11.65626981
V        9.58446109      10.95656721      15.43757035
V       11.55420004       8.03846212       9.54625203
V        7.51775464      13.14273571      12.16145058
V        9.62498673       9.75402314       9.01505561
V       12.03897945       9.06147281       8.01261524
V       11.42038910       9.99549273      14.13445529
V       11.03128224      11.72093331      10.52260062
V        9.50022172      13.66828689      10.81585554
V       13.25232652       8.25725374      12.63128206
V        9.32798789      12.77640525      15.52476676
V       12.06593465      11.80315430       8.29735324
V       10.02515880      11.87529288      12.95773032
V       11.75334989      12.81354539      14.63772878
V       11.97260965      14.17496579       9.74035743
V       13.08302179       9.92780323      10.16036642
V       11.86943880      13.61755931      12.17121913
V       13.59211723      12.44644077      10.51697568
V       14.28615840      10.54015200       8.73671580
V       10.41418322      15.76354281      11.37563738
V       12.92015048      11.08250635      12.56622653
V       12.27879869      16.17147696      11.56918406
V       11.97266745      10.89997822      16.59621878
V       13.76297279      13.04063666       7.96420920
V       14.14162060       9.27934889      13.97274200
V        9.49099882      14.17339054      13.39041007
V       13.67986769      11.20613338      15.05782655
V       12.63704038       9.13949013      15.97243587
V       13.16276617      15.09800332      13.91183875
V       15.95754963      12.33659581       9.44586422
V       14.07185100      14.92667754      11.33423833
V       11.28908052      15.42619426      13.96552418
V       15.42432011      10.42783250      11.72507053
V       15.70379460      11.43154086      13.28972144
V       14.53398554      14.54845107       9.24140788
V       14.26318599      13.13527880      13.20288109
V       15.94177976      13.21352216      11.10371441
43
Properties=species:S:1:pos:R:3 config_type=qcd gap_pre_relax_energy=-328.0474669704721 gap_pred_energy=-330.78638539116844 gap_fmax_final=0.0009852853223895916 gap_converged=1 pbc="F F F"
V       12.91616538      14.87801472       9.35002660
V       13.91556962      12.51618715       9.65627725
V       14.99387752      15.05901929       9.43135562
V       12.01096520      12.20214819       9.22571912
V       15.95929039      10.87693050       9.89235773
V       16.36505285      13.63172886      10.56223349
V       10.44083127      14.60374516       9.02573490
V       10.61198703      15.84262072      10.33810597
V       12.55506209      11.51362055      11.75513320
V       15.04638492      11.45971356      12.15827552
V       13.29767144      16.08371792      11.16848656
V       14.26517220      13.93447535      11.78626555
V       11.72736250      13.85837438      11.28548642
V       15.70627966      16.13807174      11.66862856
V       10.06575848      11.54282844      11.29517165
V       16.97045698      12.59138118      11.92085938
V       13.56230275       9.97999017      10.23044065
V       15.77437904       9.25359366      10.90227713
V        9.20370757      13.56074466      11.06709071
V       16.54080182      14.98748320      12.93340081
V       10.02810068      15.31628216      12.99319346
V       15.40713890      13.24713105      14.22799510
V       14.24747106      15.41191988      13.80932253
V       11.16077888       9.10975772      11.55626340
V       12.98193056      12.92314855      13.83093222
V       12.19408968      15.30028699      13.52408292
V       13.94361994      10.72729135      14.35006877
V       13.45233147       7.85210566      11.39847591
V        8.18096931      14.59780339      12.65759642
V       10.42277373      12.87365358      13.30491917
V       11.39114767      10.47245289      13.63480989
V        8.05836530      12.16101686      13.06924369
V       13.70539807       9.13603645      12.77549145
V       13.16383180      14.00704148      15.99033353
V       14.03667787      12.24752681      16.19510252
V        8.68521329      10.29667285      13.20142971
V       10.71299935      14.04462949      15.39061286
V       11.32761569       8.06721857      13.12668787
V        8.73001917      13.98326512      14.97932705
V       11.65615962      11.68031586      15.73809790
V       12.41459724       9.10462219      15.59524507
V        9.49338243      11.64804378      15.24296118
V       10.55162135       9.15269971      15.62979236
44
Properties=species:S:1:pos:R:3 config_type=qcd gap_pre_relax_energy=-337.2841969193462 gap_pred_energy=-340.094026451376 gap_fmax_final=0.0009649730946743791 gap_converged=1 pbc="F F F"
V       13.95456545      12.51160767      14.84329341
V       11.73661673      13.16816206      16.06977979
V       12.07823335       8.78147593      14.18010256
V       14.48460911       9.81731290      14.99626138
V       10.76504397      10.97703368      17.16073699
V        9.57741555       9.53144696      15.22395257
V       13.62784950       8.04192806      13.27085053
V       12.98553963      10.56705820      15.97440277
V       14.90644762      14.11892292      13.88160878
V       15.82134811      11.39090740      13.42184837
V       11.35111725       7.72160962      11.91055645
V       12.87893618      15.23575016      14.88155518
V       10.37570066      14.05599477      14.85307117
V       10.27234206       9.89551996      12.71194777
V       12.17319927      13.42812417      13.25604826
V       16.82461157      13.34922049      12.09349924
V       13.06151581      10.78503105      13.11696802
V        9.41528254      11.94941851      16.34242253
V       15.24607075       9.95668487      12.21884491
V       12.47224421       9.15146013      11.31349116
V        8.39953842      10.64564880      14.27505544
V       15.21845154      14.56819381      10.45579462
V        9.45247290      12.64236062      12.86295449
V       16.27071579      12.07552918      10.84319280
V       13.39781442      15.29824816      12.26927827
V       14.21433546      12.74656191      11.87699965
V       11.58533169      16.11023477      13.76689539
V       11.03652379      11.44795785      14.52444530
V       11.24729171      11.81434440      11.26858888
V       10.14792451       9.50829106      10.24517884
V       11.50174305      10.36063424       9.10422075
V       12.46618375      13.85976725      10.25899186
V       10.62919847      14.76388362      11.85991791
V       13.69040331      11.03063568      10.26729425
V        8.61187713      11.36399763      11.51684762
V       14.57373461      13.24300954       9.06668772
V       13.46309669      15.68909561       8.74018940
V       11.89412168      16.60649723      10.48517650
V        9.55859100      13.55212295      10.36513434
V       13.22055142      12.01142374       8.03770194
V        9.25530172      11.66141728       9.12328063
V       12.65643687      14.43115499       7.58375755
V       10.92554517      15.52634784       9.24058518
V       10.82545672      12.85930347       8.49192004
45
Properties=species:S:1:pos:R:3 config_type=qcd gap_pre_relax_energy=-343.5407247362859 gap_pred_energy=-347.40805635415705 gap_fmax_final=0.0007736589214977723 gap_converged=1 pbc="F F F"
V       14.01505651      13.57571382       9.28077864
V       14.84064122      11.98120897       9.24600499
V       11.63255548      13.38712487       7.78749935
V       12.41540418      11.39788175       9.07450791
V       15.97465122      11.80004556      11.62538602
V       13.93875777       9.91766361      10.38592733
V       11.37913795      10.23188819      11.28121532
V       14.40462087       7.65901474      11.62004011
V       14.38793098      14.30222933      11.92725102
V       15.87919309       8.85126154      11.77176630
V       13.05423635      12.23214300      11.42974322
V       15.24028570      12.19154704      13.34890321
V       10.16881081      14.39301641       8.34772075
V       12.26202975       8.06989104      12.00339595
V       11.50695756      10.80186715      13.60498981
V       10.44740847       9.56465846       9.19638520
V       10.38574781      12.25674788       9.88306853
V       13.12430232      16.58209097      11.29550327
V       12.07513692      14.29803064      10.20076565
V       13.81688366      10.06925613      12.81162152
V       12.06637557       8.76032673       9.24099029
V       14.96717051       8.32647119      14.14156916
V       11.25698007      16.68340886      11.32504148
V        8.98385622      10.61516547      12.05140419
V       10.45443328      12.83476780      12.31700497
V       13.00009904      12.68008500      14.04309548
V        8.40331518      13.59981358      10.67120553
V       12.54139408       8.97025370      15.00372091
V       14.11707575      16.40214289      13.59240960
V       11.45216278      11.20486462      16.02206638
V       16.04485369      14.66149593      13.56885037
V       12.18803890      14.68208988      12.79052909
V        9.71554979      14.89033360      11.00798237
V        7.62988757      12.34670019      12.85312496
V       16.16461575       9.75407806      14.17070701
V        9.55364078       9.33137285      13.29202423
V       12.17993975      17.16192654      13.77503226
V       14.67310245      14.38687214      14.72048469
V       13.77565977      10.48523241      15.23563495
V        9.28153818      11.67927437      14.41442500
V       12.61072601      12.54968719      16.61815385
V        8.51261839      14.00247595      13.35174684
V       10.71735614      13.31274364      14.80463945
V       10.16823719      15.49552659      13.56359046
V       12.34628123      15.37426634      15.05674909
46
Properties=species:S:1:pos:R:3 config_type=qcd gap_pre_relax_energy=-353.47966070948814 gap_pred_energy=-356.3010862317737 gap_fmax_final=0.0009606899177568458 gap_converged=1 pbc="F F F"
V       14.57224148      10.24948151       8.29925770
V       12.13852286       9.52362942       9.57386613
V       14.55071728       9.72254766      10.71324133
V       13.23257166       7.60814200      11.11255504
V       15.57061322      11.73072558      10.39383630
V       14.81705997      12.02163569       7.85074150
V        9.95022921      11.10628818       9.31719684
V       10.68399269       8.84574813      10.83752494
V       14.09755286       8.08919342      12.71043117
V       10.43398297      13.19944955       9.50788196
V       15.22631779      10.57103294      12.99893900
V       12.79047895      11.63665921       9.57868126
V        8.59888593      10.06861730      11.55367474
V       11.42425972       7.75032632      13.10756174
V       16.29111065      12.22142113      12.90886180
V       10.84600012      11.57973817      11.22728761
V       14.27146148      13.99565221       9.64466701
V       12.86848746      13.82820562       8.37363129
V       12.63639176       9.96215847      12.20696091
V       13.73931094      12.22874975      11.94289484
V        8.38895589      12.50529929      10.91440109
V       12.18189705       8.61783944      14.59622999
V        8.94303022       8.24425139      12.38328235
V       10.46291209      10.21066575      13.43579351
V       14.25587128      12.75172443      14.32183796
V       12.22541045      14.02684096      10.99452688
V       12.58869741      16.15305610       9.71980446
V       10.17826198      15.66244387      10.41094410
V        9.45542181       8.51565976      14.97982542
V       13.02881986      10.97642102      14.57842537
V       10.03698896      14.24404814      12.22335451
V       15.07927769      14.28410826      12.00516992
V       11.52402346      12.55182857      13.43240042
V        8.69954424      12.19674519      12.87652898
V        8.28967392       9.88191063      14.30983189
V       11.27284085      16.26465320      12.05701523
V       10.50546738      11.10860529      15.88289624
V       13.78440141      16.29660062      11.17149614
V       12.94661416      14.74120477      13.33582251
V       15.45899841      15.07911218      14.43339668
V       12.01233457      13.48806557      15.59591227
V        9.42623340      12.41543672      14.98582794
V       14.76115115      16.50385397      13.45147353
V       10.89552968      14.87033091      14.67309008
V       12.28179328      17.11974158      14.44049572
V       13.15121160      15.92570133      15.50607490
47
Properties=species:S:1:pos:R:3 config_type=qcd gap_pre_relax_energy=-360.68248786109183 gap_pred_energy=-364.6030198411091 gap_fmax_final=0.0009751449970737617 gap_converged=1 pbc="F F F"
V       15.81333781      14.59072470      13.20857418
V       13.71892724      13.21907899       8.67922624
V       16.06942493      12.60137023       9.95784614
V       13.80504573      13.58385749      14.47769432
V       11.73760645      11.79270384       8.37421144
V       11.31640891      12.65905564      14.57094714
V       11.28619969      16.73502583      12.51003974
V       11.78335593      13.43066734      10.44730145
V       11.17854925      10.00472554      13.59521483
V       15.49199507      11.77624396      12.46662570
V       11.22274709      14.36052000       8.99155337
V        7.63625470      13.15096188      11.74655241
V       14.37915846      15.85996311      13.42313469
V        8.62013359      13.12513347      14.40666844
V       15.84738771       9.88713817      10.63248884
V       15.10488288       8.93296980      13.71768729
V       11.47259864       8.27888162      11.60775654
V        9.96977126      12.47889913      12.30180979
V        9.07976800      15.17546974      12.82692304
V        9.74598445       8.78252354       9.84637273
V        9.16725832      11.25712469      14.74332041
V       13.55899604       9.76564628      11.88104086
V       14.59067752       9.16049876       9.41502434
V       11.35837170      10.71717630      16.30417960
V        9.45316993      12.62066544       9.63609273
V        8.54691217      10.94986063      10.57713324
V       12.23113950      16.10745346      10.97073327
V        7.44948990      11.53241449      12.76409595
V       12.94919636      12.09920619      12.64299617
V       12.69843675      12.05665257      16.61702085
V       13.50718035      10.97254501       7.60766874
V       11.90208203      15.20500577      15.55847467
V       13.33887957       8.17487985      13.69199749
V       14.16577386      14.16481733      11.34367492
V       15.39946728      12.16961310      14.38434032
V       15.65894315      11.47581740       8.49928882
V        9.36842701       9.77100453      12.39090811
V       10.33625479      12.99660156      16.36195714
V       11.18779528      10.82349769      10.84229016
V       11.85033858      14.51129722      12.83771954
V       13.05475404       7.52744689      11.05191340
V       10.23315006      15.21743645      14.78268649
V       13.70016861      11.60613606      10.19849043
V       13.33286538      10.67560274      14.54576535
V        9.90113285      10.15361470       8.52402174
V       12.29814549       9.34655773       9.32435916
V        9.85727880      14.89133625      11.09000089
48
Properties=species:S:1:pos:R:3 config_type=qcd gap_pre_relax_energy=-369.1791566026702 gap_pred_energy=-372.66171794379187 gap_fmax_final=0.0009715907840510635 gap_converged=1 pbc="F F F"
V       15.65721389      16.12120788      13.33501717
V       14.35200254      14.72699199      13.86064299
V       13.06319875      13.56173801      15.95889994
V       15.00001164      12.25978637      14.57566400
V       11.93752348      15.41850185      14.49473090
V       16.48503949      13.42284030      13.08636168
V       13.29755160      16.84844756      12.80970032
V       10.56866525      13.89630983      15.94902445
V       10.03881220      14.37920958      13.44080702
V       11.03192826      12.12999817      16.52630309
V       10.68921274      16.65706422      12.24820622
V       16.09667512      10.86358759      12.63932726
V       13.99049529      12.93446100      12.14233110
V       16.12134006      14.40083647      11.51782167
V       11.75253692      16.53572198      10.66977449
V       14.04232853      11.00991808      15.58035104
V       12.26002108      12.61356882      14.23469687
V       15.71248890      11.69593085      10.94395264
V       13.75675343      10.55245022      12.97278186
V        9.78195960      12.04910231      14.18478614
V       12.16316547      14.64858131      12.35010608
V       14.18503245      15.68498297      11.22085135
V       11.66148150      10.05446378      15.04084930
V        8.33383995      13.33895462      12.15588141
V       13.12619832       8.30936208      13.69920556
V       14.54378961      13.33272237       9.64293851
V       11.27831841      10.29194140      12.80637184
V       10.90966786      12.58061039      11.66663405
V       12.58035078      13.96331666       9.84495247
V       12.96440566      11.23172862      10.50810547
V       14.42338812       8.82121020      10.75949960
V       10.12872292      14.52256632      10.67025966
V        9.77752983       9.46953234      14.78457544
V        8.64726843      10.75595384      12.59923434
V       14.50148715      10.98503838       8.49058431
V       11.31796543       7.73813582      13.62862501
V       12.33992609       8.66522604      11.26741131
V        8.48342395      12.34619612      10.47929892
V       13.06052677      12.03361306       7.97591847
V       10.24675248      10.28370552      10.52241382
V       10.75213719      12.18330032       9.07242728
V        9.68609419       8.38722743      12.09394619
V       12.14183220       9.72474481       8.81418783
V        7.67408351       9.85609298      11.13216352
V       10.48560877       7.79200455       9.55743796
V        9.99121341       9.91043126       7.92152183
V        8.45222842      10.85215814       8.67697070
V        8.69412641       8.34484966       9.63277096
49
Properties=species:S:1:pos:R:3 config_type=qcd gap_pre_relax_energy=-378.2690390636408 gap_pred_energy=-381.6218825659909 gap_fmax_final=0.0007897527280000514 gap_converged=1 pbc="F F F"
V        8.39641840      12.80165171      13.12392675
V        9.75919832      11.68932096      15.73850191
V        7.77875261      10.18187460      13.55393587
V        7.87318607      10.53163876      11.76742792
V        9.45873604      14.42106063       9.20073099
V        9.74285922      14.76291275      14.55344683
V       11.57380845      10.48120817      16.86075723
V        9.71944254       8.57185349      12.23030080
V        9.22792766      12.50442257      11.12702340
V        9.21686929      14.97856340      11.87484372
V       10.38057879       8.56115067      14.48125983
V       10.04865682      10.93691106      13.04044361
V       11.32672451      13.04673215      16.07140223
V       10.43390718      15.95567181       9.65330732
V       11.15190855      12.27422066       8.56307624
V       12.04218652      14.14269312       8.34875606
V       10.18450097       9.83393837      10.62896564
V       10.93068350      15.86063248      12.42029711
V       11.81937640       7.44830477      13.38039866
V       11.31489388      13.96968643      10.78390511
V       12.19093638       9.57930686      12.49712428
V       12.16838915      11.13795427      14.46258760
V       11.78288686       7.71941632      10.74614782
V       11.06763735      13.26698672      13.35474670
V       11.91995105      11.69842244      11.34803199
V       13.15978507       9.01497151      15.26802828
V       12.87527841      15.81426719      10.39001210
V       13.23506118      11.31231387      16.82133194
V       11.70599348      15.38144761      14.68880275
V       13.56394928       7.88811383      11.34176009
V       14.31154012      12.23472822       7.81127230
V       13.75516409      13.05481076      10.17759846
V       13.07277005       9.88462915       9.52005373
V       14.21870869       9.07470581      13.69237843
V       13.29442887      14.33157024      12.58260045
V       13.35607359      13.41251847      15.12393118
V       13.86382217      11.93944246      12.88294315
V       15.44339149      11.38520149       9.06786380
V       14.28606209      14.90493598       8.29251366
V       13.45722722      16.64439910      12.95797020
V       14.87203855      11.20650533      15.07720080
V       14.48155625      10.44950054      11.20586450
V       14.86600403      15.54492679      10.79303725
V       14.13314164      15.88217945      14.59809521
V       15.86577017      13.96098190       8.90145305
V       16.04347694      11.03440534      13.49735128
V       15.53594402      13.62074532      13.95876845
V       15.80305775      12.97707171      11.34892180
V       15.85192687      15.25168126      12.75149000
50
Properties=species:S:1:pos:R:3 config_type=qcd gap_pre_relax_energy=-385.7951309783261 gap_pred_energy=-389.0756938920926 gap_fmax_final=0.0009490164847931207 gap_converged=1 pbc="F F F"
V       12.53617185      12.13885665      12.97230720
V       12.40253052      12.15961697      15.41454574
V       13.31978678       9.79002427      13.73012196
V       10.55481558      10.83815365      14.05734148
V       10.08155592      13.26575625      13.88562078
V       12.53419856      14.38206212      13.80972218
V       14.77034424      12.30651872      14.18897464
V       11.47369811      10.04720884      11.80128967
V       10.59313869      12.76535960      11.43753215
V       12.40173122      14.60102282      11.12259849
V       14.42773798      13.63084568      11.88958770
V       14.58748624      10.84764295      11.85681125
V       12.87133171      11.90120296      10.35891576
V        9.72341220      12.00846327      16.11450222
V       11.42605255      14.18359747      16.13546477
V       14.10389818      14.12910586      15.98350265
V       16.07351566      10.00332910      13.84597171
V       11.27267357       8.37426395      14.21840260
V        8.28215545      10.05572570      14.65779287
V        7.91922516      11.83503434      14.24033165
V        8.86418406      13.63516091      15.95418700
V       10.70462782      15.64653583      15.13785696
V       13.47474266      15.84214557      15.41827656
V       15.37622005      14.86841276      13.82323637
V       15.48593165       8.65621612      12.65597884
V       12.11604898       7.59268254      12.61866005
V        9.69982090       8.59704201      12.71290211
V        8.91526366      10.89434357      12.11594915
V        8.20163057      13.51842848      12.09376580
V       10.29757674      15.27343760      12.45055392
V       12.38541884      17.08204734      12.67018499
V       14.14955730      16.18337167      12.78296563
V       16.44311629      12.53111639      12.81176789
V       17.15154953      10.39178890      11.53711972
V       13.41714292       8.99491357      10.71743795
V       10.89296416       7.77993912      10.57529897
V        9.49180526       9.06621358      10.22875652
V        8.12290801      12.66162321      10.46526945
V        9.69728441      14.81688644      10.20496439
V       10.84825208      16.20175743      10.06295834
V       14.40831367      15.90484316      10.21642653
V       16.05179984      15.13093552      10.77966908
V       15.85605408      12.20335913      10.25933977
V       16.10151923       9.57720099      10.15342099
V       11.75562169       9.82538459       9.11067221
V       10.35225074      11.29046587       9.53437673
V       11.49653409      13.70795804       8.92615522
V       14.15751781      13.65531269       9.23188530
V       14.28312329      10.89538809       8.98448754
V       12.33841498      12.20395316       7.93679407
51
Properties=species:S:1:pos:R:3 config_type=qcd gap_pre_relax_energy=-393.14163105634077 gap_pred_energy=-398.7964095749875 gap_fmax_final=0.0009649668965378211 gap_converged=1 pbc="F F F"
V       13.30485505      13.54725978      11.46326194
V       13.72555645      16.40943250      11.14308173
V       10.43596622      13.79734277      11.69340860
V        7.68004641      13.98934041      12.14736226
V       10.42119056      16.55573649      11.63405472
V       10.23871139      10.83998966      11.38160643
V        7.55749115      10.66015432      11.80525496
V       10.11788833       7.95763803      11.55049470
V       13.25309969      10.66948774      11.50958969
V       13.04523017       8.04816907      11.63726023
V       11.85631176      12.14641283      13.22336455
V        9.17536964      12.04016876      13.15821585
V       12.21047782      15.22864752      12.95458237
V       11.34270657       9.64724745      13.12385057
V        9.59631154      15.75374614      13.05273401
V        8.61483767       9.53737328      12.87005223
V       11.68765248      12.22851843       9.99955995
V       14.51827387      12.19758791       9.82441687
V        8.83710112      12.53282449      10.26628933
V       11.99366027      14.99570405       9.99239671
V       11.61569320       9.30176445      10.12698582
V       14.77799554      15.03530317       9.94685050
V        8.40698024      15.02322352      10.80100401
V        9.00070356       8.95944296      10.20518939
V       14.30343036       9.40714539       9.65797484
V       10.70163779      13.88310730      14.54421586
V        9.94087930      11.14147550      14.96891999
V       12.98014661      13.86544839       8.62846773
V        9.68668066      13.75294673       9.00966720
V        9.83031855      10.37570726       8.79280844
V       13.14828486      10.51382921       8.57158878
V       12.04658157      12.55890485      15.84703848
V       13.77137428      13.62228157      14.37317801
V       13.71867088      10.86800589      14.29507922
V       15.12472266      12.17092905      12.64342192
V       14.98658113      15.04854630      12.59326969
V       15.34615001       9.51183958      12.24514027
V       11.54429084      10.17725475      15.51469044
V       13.52584017       8.37534665      13.43259765
V       12.44480020      15.18981006      15.87324420
V       13.92950966      16.51139343      14.45589943
V       16.17551515      10.52283385      10.79818933
V       16.19541441      13.80192125      10.78361321
V       14.15452432      13.66483240      17.02338569
V       14.21704794      11.78136984      16.71790861
V       15.93355262      12.62387481      15.19653919
V       15.12555759      15.39467726      15.46821165
V       16.24196013      10.23260242      14.44513317
V       17.19333283      11.24974198      13.21453395
V       16.71352329      13.85999379      14.00925715
V       11.27279221      16.45889554      15.05238922
52
Properties=species:S:1:pos:R:3 config_type=qcd gap_pre_relax_energy=-403.0409565901253 gap_pred_energy=-405.3391949089247 gap_fmax_final=0.0009207332651743909 gap_converged=1 pbc="F F F"
V       14.31566324      15.27155668      15.14179199
V       15.07218581      14.22809266      13.33400880
V       12.13643801      16.73858254      14.63023878
V       12.55099513      16.07965064      16.42963163
V       12.47537857      16.98991222      10.41228401
V       11.58924005      17.54776410      12.01133332
V       15.49898452      11.48889390      13.27408956
V       15.82315426      12.85503810      11.28087592
V       13.32515104      15.87120408      12.75662045
V       14.09205103      14.68599907      10.73535212
V       14.28938478      12.67067614      15.18771259
V       14.48760013      12.43672438       9.58490574
V       16.80756797      10.37918068      11.19773842
V       12.32807226      14.10430872      14.26709990
V       16.35958761       9.16846255      12.57336988
V       13.39881996      12.86920835      12.30264236
V       12.56242980      14.29616110       8.72198786
V       10.61374437      15.77019254       8.88377357
V       10.59041335      14.91851594      15.86911017
V       12.84718621      13.67845452      16.91390666
V       10.43197724      15.61571139      13.34135829
V        9.82070122      16.31368301      10.55571202
V       15.26635164      10.06816239      15.07735132
V       15.35903226       9.83873883       8.99085816
V       11.59881600      14.80738916      11.30965938
V       14.26224037      10.61533345      11.34172902
V        8.93815122      14.36697470      12.18390439
V       13.79970728       8.78741875      15.53286801
V       12.86299542      11.06645795      14.13469427
V        9.76936321      13.65743289      10.07717722
V       13.45416816      10.96222148      16.81714716
V       15.02291691       8.54262657      10.31460321
V       13.06301309      11.88560482       7.68714617
V       12.12496296      12.32023833      10.15599606
V       11.57351896      12.44946264      16.09914103
V       11.72157594      10.31706507      12.01138081
V        9.58129672      13.58247283      14.70726824
V       10.64839933      12.66259581      12.55438331
V       10.80687477      13.07932503       8.07077103
V       13.98554309       8.92289290      13.10797277
V       11.58756259       8.82771693      13.97219539
V        8.14219023      12.05843728      11.43358560
V       12.79570542       9.92934809       9.47029251
V       10.28726993      10.93585615      14.45535381
V        8.16536921      12.12819832      13.33032067
V       11.82049298       9.91427486      16.41014564
V       10.11415874      11.10242883      10.08740578
V       12.70132646       8.15046807      11.32107452
V       11.29353579      10.96120851       7.74666102
V       10.47137269       8.70943962      10.25484488
V        9.37793781       9.99763556      12.44763961
V       10.40286431       7.79004101      11.90632511
53
Properties=species:S:1:pos:R:3 config_type=qcd gap_pre_relax_energy=-409.36620683185276 gap_pred_energy=-413.02403660408925 gap_fmax_final=0.0009110067165398137 gap_converged=1 pbc="F F F"
V       10.29370627      16.22157145      11.62477421
V       12.18969874      12.90417311      15.14331762
V       15.40522838       9.20238746       9.88718733
V       13.21085415      15.33712297      14.36364064
V       11.89442414      13.68686335      17.65175682
V        8.18824743      13.90003005      14.11028999
V       11.86421416      10.62990676      13.68572966
V       14.10589446       9.11559385      13.97735907
V       16.30144191      10.47885496      13.27779645
V        9.18166142      15.76652637       9.91802442
V       12.63482665       8.52641111      12.32867846
V       15.35398516      12.56087281      16.86844689
V       13.58514892      11.58233300      17.06522835
V        9.90800730       9.64238819      11.32948699
V       16.86384929      10.71627031      11.33940539
V       11.15125888      15.36611906      15.74930650
V       10.92732955      14.58048418      13.33519527
V       10.04667012      12.21684647      13.13962142
V       15.92589789      14.32946356       9.89224990
V       14.38014566      15.37445780       9.42220376
V       11.84912192      11.19545978      11.26988320
V        9.92812273      13.80504778      15.71801982
V       12.97560630      13.10429206      12.82201483
V       12.85776273       8.81576196      10.45485074
V       17.10021990      11.28088894      15.49890870
V        8.77398962      14.07678455      11.78110268
V       13.47699659      14.38506469      16.89541365
V       12.48219936      10.29867274      15.75073489
V       11.78842180      12.08905182       8.68051423
V        7.16265841      12.95188149      10.10671672
V       12.15312606      14.22371438       8.14717728
V        9.35167763      14.12969584       8.80180887
V       10.84323947      11.71140192      17.18627619
V       15.08015654       9.59212471      15.67617737
V       14.17095687      10.79561907      11.74346721
V       10.60132675       9.82311808       9.47636798
V       14.43959539      12.92197430       8.31753013
V       15.30354647       8.57411902      11.70175763
V       11.04034389      13.84221336      10.73986329
V       14.79820948      14.14846762      14.59798489
V       15.62408293      11.79260783       9.67029632
V        9.58600728      11.96456756      10.24910224
V       14.49432641      11.59968371      14.45868758
V       13.31228467      10.65918543       9.16410170
V       12.78620826      15.64076641      11.69403083
V       16.85397554      12.84517591      14.53743921
V       13.45204204      13.30923696      10.33701791
V        8.98184015      15.62793381      13.97727254
V       14.66175036      15.08936944      12.06722791
V        9.98130566      11.24983563      15.54811294
V       15.57230724      12.89031796      12.14849463
V        7.42070696      11.84823714      11.50190803
V       11.86774229      15.76339944       9.35438688
54
Properties=species:S:1:pos:R:3 config_type=qcd gap_pre_relax_energy=-417.3463551763687 gap_pred_energy=-423.44840636447674 gap_fmax_final=0.0008525015206639618 gap_converged=1 pbc="F F F"
V       12.53350565      13.17610334      13.17841927
V       12.42991181      13.00393427      15.90433947
V       12.78664267      10.80808579      14.56427682
V       10.57406339      12.03248218      14.02302293
V       10.55100218      14.37398778      14.93775551
V       12.71397774      15.36855300      14.46043782
V       14.65039092      13.14558376      14.56719792
V       14.63870101      13.20401968      11.77189170
V       12.77796008      15.54382950      11.79047769
V       10.56847378      14.32219329      12.35029462
V       10.53478949      11.98074851      11.43579557
V       12.70045529      10.98346151      11.89492777
V       12.40722352      13.34842286      10.45345536
V       12.58166221      11.22862406      17.49589777
V       10.20881808      12.31607702      16.79404963
V       10.48219891      14.47314310      17.43406675
V       12.29445821      15.19776804      17.19308333
V       14.37388150      13.18618117      17.34967158
V       14.71168847      11.13027106      16.00893882
V       13.26919221       8.68210193      15.83815788
V       10.52589395      10.49723757      16.17236898
V       10.80998276      16.98693675      15.16858660
V       13.15539859      17.42021207      16.00341686
V       14.59952862      15.07980446      16.08278776
V       16.73978550      13.15390926      15.93142628
V       14.95292589      10.96027548      13.14742081
V       12.89030065       8.87297305      13.01475526
V       10.58267410       9.83547946      13.04476667
V       10.58805420      16.51919451      13.32842941
V       12.89705044      17.47882176      13.33902745
V       14.95588254      15.38894011      13.18907636
V       16.73893674      13.17347763      13.16076562
V       16.71657983      13.19310772      10.39021459
V       14.69038043      15.21925634      10.32969518
V       13.25246142      17.66919016      10.51254139
V       10.50417582      15.85755174      10.20139476
V       10.78854385       9.36749134      11.20280333
V       13.12634648       8.93129977      10.34828832
V       14.57269260      11.26988042      10.25678309
V       14.33879378      13.16376389       8.99187362
V       12.54783346      15.12357558       8.86070750
V       10.17959978      14.03909236       9.58242885
V       10.44486740      11.88172094       8.94015321
V       12.25819714      11.15479280       9.16589025
V       12.14843135      13.51156508       7.82245506
V       16.89783841      11.38514878      14.82652930
V       16.92211205      14.90135455      14.86766952
V       16.90561733      11.44540141      11.45239956
V       16.88611147      14.96162789      11.49370622
V       14.74385103       8.84386846      14.74325698
V       14.71507590      17.38968589      14.95222265
V       14.69483238       8.95985999      11.38634555
V       14.73606536      17.50561484      11.59504291
V       12.19301794      12.84115239      18.53744818
55
Properties=species:S:1:pos:R:3 config_type=qcd gap_pre_relax_energy=-428.0093001846312 gap_pred_energy=-431.38972076339513 gap_fmax_final=0.0009461802900721736 gap_converged=1 pbc="F F F"
V        8.77105587      11.18443835      14.29390924
V       14.91443062      13.12165654      11.11555462
V       12.85538201       9.30648484      15.59265278
V       10.70827258      11.04683053       9.88985959
V       14.85597352      13.23244006      14.07336537
V       12.36494831      13.08766550       7.08120205
V       10.71432069      11.17255618      12.77984324
V        8.72500504      11.16159364      11.46028263
V       12.75037965      13.17928559       9.69775808
V       12.56568372      11.54527037      16.93796402
V       10.83224532      11.40790171      15.71399179
V       12.82411457      13.29451673      12.59478256
V       10.71520405      15.25273470       9.66145573
V        8.64569738      14.94838000      10.83213376
V       12.77266872      13.55185866      15.54074443
V       10.63434518      15.31122084      12.54352720
V       12.41652376      10.97765784       8.53639686
V       17.00759168      12.57169205       9.81890280
V       14.66917104      11.09592148       9.72569221
V       12.79118279      11.10872357      11.27706242
V       16.95148647      13.15106038      12.52815598
V       14.92954566      10.99848499      12.69748293
V       12.81861565      11.26687066      14.20218834
V        8.76341321      13.28237032       9.80612640
V       14.79631968      11.47336564      15.66904507
V       12.26118635      15.38970413       8.48343134
V        8.74640094      13.49468017      15.45150561
V       14.91157413      15.03300411       9.40866317
V       12.85103658      15.21326467      11.14683905
V       10.89605081      13.61742687      17.07637596
V       14.99840286      15.20878891      12.63026736
V       12.72566029      15.40107341      13.90235793
V       12.45747353      13.82313725      18.16023186
V       10.69469838       9.12224376      11.59337835
V       16.92227114      11.06628645      10.90618932
V       17.15069664      12.93164616      15.19438758
V       10.59193867       9.26156254      14.33815242
V       16.96810228      11.31896353      14.28986063
V       15.14491035      14.36234476      16.65691490
V       10.84253508      13.09932194       8.24211431
V       17.07237527      14.80459917      11.41198307
V        8.59456566      15.05045532      14.26244790
V       10.66465843      13.21605475      11.21503103
V        8.78030039       9.27497508      13.26325289
V       10.62043404      15.53461413      15.43906158
V       10.66824943      13.36963998      14.06870321
V        8.61000503      13.05417536      12.62524305
V       12.20496153      15.86183274      16.55285252
V       14.42988619       8.87704006      11.09066287
V       12.79646504       8.98915684      10.07159393
V       14.54147947      15.61874111      15.30192093
V       14.44655560       9.10453163      14.53390799
V       12.62454013       9.13380359      12.83387438
V       16.66770074      15.12941110      14.00321567
V       14.89597782      13.48120930       8.35016907
