3
Properties=species:S:1:pos:R:3 config_type=qcd gap_pre_relax_energy=-24.501621049571643 gap_pred_energy=-24.598982439812918 gap_fmax_final=0.000707661804154026 gap_converged=1 pbc="F F F"
W        6.58203324       6.84251795       7.63299250
W        7.47395673       8.93844996       7.63299250
W        8.84298754       7.11800959       7.63299250
4
Properties=species:S:1:pos:R:3 config_type=qcd gap_pre_relax_energy=-34.709607663422034 gap_pred_energy=-35.2432271446743 gap_fmax_final=0.00046375449936604415 gap_converged=1 pbc="F F F"
W        9.41395805       8.48462148       9.97616376
W        9.64251222       7.95722766       7.78245487
W        8.26166631      10.10743638       8.88905804
W        7.40388027       8.17273133       8.07434021
5
Properties=species:S:1:pos:R:3 config_type=qcd gap_pre_relax_energy=-45.49388902226926 gap_pred_energy=-45.64906621749373 gap_fmax_final=0.00043254439027813277 gap_converged=1 pbc="F F F"
W       16.15593274      15.20012692      13.61707027
W       15.96188553      14.09832267      15.77241241
W       15.29579653      16.39544206      15.54776255
W       13.93476123      14.58177156      13.88182234
W       13.65162398      14.72433680      16.18093244
6
Properties=species:S:1:pos:R:3 config_type=qcd gap_pre_relax_energy=-56.55946868908125 gap_pred_energy=-56.93088872729705 gap_fmax_final=0.00028440870935836837 gap_converged=1 pbc="F F F"
W       13.32169881      14.99712750      14.44545438
W       14.85907514      13.24022061      15.08615942
W       15.44944434      14.99028145      13.29060965
W       14.55059418      15.00976411      16.70940044
W       15.14087838      16.75977501      14.91388327
W       16.67830916      15.00283132      15.55449283
7
Properties=species:S:1:pos:R:3 config_type=qcd gap_pre_relax_energy=-67.48379226037353 gap_pred_energy=-67.76176990224833 gap_fmax_final=0.0009452550362214984 gap_converged=1 pbc="F F F"
W       16.15082665      13.35443487      15.21211972
W       16.35638363      15.83468865      15.06678145
W       14.93332284      14.46805165      16.95139230
W       15.59148652      14.44349066      13.15085012
W       13.66492974      14.13386280      14.91228656
W       14.03160806      16.18623012      13.67714890
W       14.27144257      16.57924126      16.02942094
8
Properties=species:S:1:pos:R:3 config_type=qcd gap_pre_relax_energy=-77.82107290293217 gap_pred_energy=-78.08274258501393 gap_fmax_final=0.0006606354272333236 gap_converged=1 pbc="F F F"
W        6.82620731       6.51066733       6.35396733
W        6.12792470       6.56519389       8.66327274
W        9.19022116       6.13384041       6.37344346
W        8.52162246       6.87409835       8.59676243
W        6.50288728       8.84409321       7.11396582
W        6.65339022       8.77079606       9.49647642
W        8.81075034       8.49603601       6.28972614
W        8.83039654       9.26867474       8.57578567
8
Properties=species:S:1:pos:R:3 config_type=qcd gap_pre_relax_energy=-78.00193332666969 gap_pred_energy=-78.00612613814083 gap_fmax_final=0.0009636306606598152 gap_converged=1 pbc="F F F"
W        7.63721918       7.12866296       9.52672229
W        9.18436951       9.23521420       6.67755783
W        9.02191726       7.05271264       7.59909854
W       10.19745499       8.42863405       9.25481435
W        8.62471029       8.57378017      11.13149739
W        8.78709909      10.75628297      10.20992310
W        7.61153042       9.38042285       8.55419580
W       10.17180734      10.68039823       8.28229878
9
Properties=species:S:1:pos:R:3 config_type=qcd gap_pre_relax_energy=-88.76220012126129 gap_pred_energy=-88.8066435996585 gap_fmax_final=0.000858904828784694 gap_converged=1 pbc="F F F"
W        7.46754118       7.97638104       6.50962696
W        9.87886835       7.97679840       6.50948474
W        8.67293059      10.06549599       6.51006786
W        7.36780316       9.42639769       8.67305040
W        9.97822608       9.42677754       8.67303434
W        8.67338942       7.16614124       8.67330780
W        7.46756988       7.97688715      10.83681523
W        9.87889649       7.97730380      10.83692650
W        8.67295835      10.06600067      10.83586966
9
Properties=species:S:1:pos:R:3 config_type=qcd gap_pre_relax_energy=-88.34255007171996 gap_pred_energy=-88.6862649049117 gap_fmax_final=0.0009412089889960376 gap_converged=1 pbc="F F F"
W        6.76422285       7.65869823       8.31692160
W       10.62515201       7.52624613       8.95857462
W        7.22055037       9.41095229       9.98129119
W        8.44739410       7.13090112      10.03066505
W        9.77372026       9.32335951      10.40544048
W        8.76985757      10.97416546       8.88364744
W        7.69868945       9.60701342       7.14255663
W        8.92582849       7.32690363       7.19181480
W       10.25198550       9.51916081       7.56648879
10
Properties=species:S:1:pos:R:3 config_type=qcd gap_pre_relax_energy=-99.3353007097509 gap_pred_energy=-99.5306442328763 gap_fmax_final=0.000699029218444495 gap_converged=1 pbc="F F F"
W        6.27058032       9.22204526       7.54488166
W        8.27025860       7.91545671       7.18428149
W        7.09820939       8.46641995       9.68495480
W        8.18917417      10.55980766       8.14937930
W       10.15129345       9.51264275       7.07480809
W        8.50673746      10.28572458      10.58356248
W       10.78278253       7.61908588       8.56548261
W        8.62043305       6.57522525       9.22938000
W        9.71300087       8.12201767      10.84806287
W       10.70882515      10.03286928       9.44650171
10
Properties=species:S:1:pos:R:3 config_type=qcd gap_pre_relax_energy=-99.3548039501822 gap_pred_energy=-99.43805470919838 gap_fmax_final=0.0008734795370464783 gap_converged=1 pbc="F F F"
W       12.11068638       9.63395338      10.15555788
W       10.12321062       9.48282355      11.72789326
W        9.69830253       8.11216565       9.79852481
W       11.58216091       8.51283476       8.09334146
W       11.49125128      10.90392386       8.20812189
W        9.13193047       9.62980708       7.88446769
W        7.19938568       8.29239182       9.21537330
W        9.58870074      10.99575419       9.93700063
W        7.62115051       9.40815336      11.30490215
W        7.10853935      10.68351079       9.33013538
11
Properties=species:S:1:pos:R:3 config_type=qcd gap_pre_relax_energy=-109.72657454683929 gap_pred_energy=-110.00750166102041 gap_fmax_final=0.0008446556663653307 gap_converged=1 pbc="F F F"
W        6.80667538       7.27058297       7.18781922
W        7.82522706      10.16147632       9.47587949
W        9.03541489       6.94504123       6.01202048
W        8.02326845       7.51415478       9.44522728
W        8.65173446       9.17889258       7.24284659
W        9.72123454       8.99500231      10.70077578
W        8.91627911       5.59725810       7.83025910
W        6.12297869       9.65614436       7.26709069
W       10.37618854       7.60899861       8.36820012
W        5.77556731       8.76467418       9.36424666
W       10.53048755      10.09283055       8.89069059
11
Properties=species:S:1:pos:R:3 config_type=qcd gap_pre_relax_energy=-109.64179794624344 gap_pred_energy=-111.0766980635149 gap_fmax_final=0.0006933629881228847 gap_converged=1 pbc="F F F"
W       11.41791742      12.08169844      10.57743773
W       15.63737139      12.22536320      13.30774769
W       12.06749068      13.48487737      14.23164080
W       10.24602991      13.47270340      12.13629569
W       13.74399040      11.39043009      14.94659368
W       12.05964829      14.35501621      10.43336160
W       14.47885374      13.66467102      14.78656974
W       13.48137223      13.12007850      12.20150979
W       11.86160560      11.34988903      12.90605544
W       14.16834749      10.44450089      12.78711103
W       11.72851851      15.30191750      12.57682246
12
Properties=species:S:1:pos:R:3 config_type=qcd gap_pre_relax_energy=-120.47023556191112 gap_pred_energy=-121.57416502915885 gap_fmax_final=0.0007175058892029508 gap_converged=1 pbc="F F F"
W        7.01231377       7.70740618       9.99959608
W        9.20022650       7.70398485       8.12874635
W        6.93605295       8.74062278       7.80190254
W       10.81990460       9.19620285       6.92136644
W       11.53953047      10.84437441       8.55218639
W        9.35160799      10.84785742      10.42310924
W        7.73185419       9.35558686      11.63041285
W       11.61579778       9.81117155      10.74995439
W        8.89236290      10.29036986       8.10902372
W        6.63571309      10.26927182       9.66391057
W       11.91616983       8.28267576       8.88791368
W        9.65946264       8.26147236      10.44287447
12
Properties=species:S:1:pos:R:3 config_type=qcd gap_pre_relax_energy=-121.08563093734195 gap_pred_energy=-121.88763598059701 gap_fmax_final=0.0008454725717424453 gap_converged=1 pbc="F F F"
W        9.00692911       9.44435332       6.78542036
W       11.24927264       8.44159842       7.09438796
W       10.37082590      10.00792010       9.03449158
W        7.58393306       9.12058673      11.67836371
W        8.93054201       7.16259022      11.35253826
W        9.56621863       6.91006586       7.46898923
W       10.64530797       7.53243847       9.59621655
W        8.96398407      11.76470209       7.64769227
W        6.99512913      10.64853697       8.09103393
W        8.28891737      10.95871834      10.16638714
W        9.97425187       9.29616488      11.67380385
W        8.20464226       8.49227861       9.19062916
13
Properties=species:S:1:pos:R:3 config_type=qcd gap_pre_relax_energy=-132.0811284877094 gap_pred_energy=-132.60799015624323 gap_fmax_final=0.0006648582697209514 gap_converged=1 pbc="F F F"
W        7.86207619      11.69715316       8.50610901
W        6.87498840       9.28246115       9.02781616
W        7.16500595       6.78980968       9.08081960
W        7.66022983       9.92120032       6.71167994
W        9.11721990       8.25837357       8.03242060
W        9.33976557       6.85516832      10.40507145
W       10.06323170      11.76866229       9.31113158
W        9.06478473       9.60440374      10.28645728
W        7.18006043       7.83836824      11.16403707
W        9.74365355      10.97531699       6.92718621
W       11.18573609       9.59254615       8.68377301
W       11.34195603       8.36082340      10.86521397
W       11.36231012       7.01673150       8.95930260
13
Properties=species:S:1:pos:R:3 config_type=qcd gap_pre_relax_energy=-131.75125289716505 gap_pred_energy=-132.51389180314607 gap_fmax_final=0.0008372083268829596 gap_converged=1 pbc="F F F"
W        9.85453701      11.67901905       7.65410553
W        8.13433821       9.69831132      12.26344689
W       11.67552641      10.22238665       8.30481923
W        9.44058516       7.76020946      11.77748833
W        8.59312690       7.77870890       7.77650737
W        8.00286530       9.06414095       9.83369056
W       10.19264911       9.27811046       6.60639685
W       11.68512157       8.52643420      11.50603485
W       10.52081014       8.23296523       9.29656258
W        7.84668429      10.05257847       7.10688850
W       10.40816914      10.05544613      12.76229388
W        7.92838423      11.45938982       9.10424524
W       10.04267003      10.51776688      10.33298770
14
Properties=species:S:1:pos:R:3 config_type=qcd gap_pre_relax_energy=-143.06822370770706 gap_pred_energy=-143.68378374489544 gap_fmax_final=0.0009045108987253294 gap_converged=1 pbc="F F F"
W       11.22042587      13.11700692      10.16774537
W       13.17071634      13.31309755      12.14042328
W       11.90905166      12.43382318      14.34167733
W        8.89891131      12.25707946      10.08857382
W       13.84752092      11.34261131      13.36841207
W       11.81206772       9.83197605      13.34030622
W       12.65305356      10.90425167      10.99123226
W       12.31513002      11.49433956       8.60245764
W       10.04090548      11.79670452       8.08049401
W       10.96754653      13.96802395      12.83982357
W        9.83782028       8.81523259      12.10715072
W       10.35361786      11.59147875      12.09083892
W       10.39060291      10.09433171       9.87657940
W       11.92169429       8.37910754      11.30335016
14
Properties=species:S:1:pos:R:3 config_type=qcd gap_pre_relax_energy=-142.80407993551654 gap_pred_energy=-143.37056845951716 gap_fmax_final=0.0009198730608084137 gap_converged=1 pbc="F F F"
W       11.60954080       7.50836740       8.12985352
W       10.43052795       7.98159426      10.67815127
W       10.67781937      10.20826044       7.73806938
W        9.63525876       8.08646369       6.91345825
W       12.35198055       9.31037516       9.46553661
W        8.46228172       9.25186673       9.08468470
W       10.35796031      10.59532935      10.28578447
W        8.10909959      11.69986102      10.31130774
W       10.28300664      12.60678389       8.74054544
W        9.23701126       6.79381591       8.99997932
W        8.36748466      11.70490685       7.93012687
W        8.63163168       9.52167807      12.16859318
W        7.71438361       7.58883670      11.28065123
W        6.63395609       9.64380352      10.77520100
15
Properties=species:S:1:pos:R:3 config_type=qcd gap_pre_relax_energy=-153.4657876170787 gap_pred_energy=-153.88061534500656 gap_fmax_final=0.0009595686807465987 gap_converged=1 pbc="F F F"
W       11.56776425       7.10697873      10.03781856
W       10.33107069       9.36478830       9.52998654
W        9.69417662       6.43127578       8.91579193
W        7.80373625      11.90960344      10.80182553
W        8.13476868      10.48535515       8.27241749
W       10.21415820      10.52462678       6.69602029
W        9.31475068       8.18840222       7.12219662
W        7.83922602       8.15999028       9.53334485
W        6.32235471      10.14041086      10.02037528
W       11.65208713       8.21830238       7.72462347
W        7.50601287       9.56801117      12.07144813
W       12.02837439      10.73463108       8.07095674
W        9.40192586       7.95700364      11.34883909
W        9.62700576      10.74573099      11.91189175
W        9.88949040      11.79179167       9.26936623
15
Properties=species:S:1:pos:R:3 config_type=qcd gap_pre_relax_energy=-152.84227227382692 gap_pred_energy=-153.70726563233774 gap_fmax_final=0.0007289568121642917 gap_converged=1 pbc="F F F"
W       15.56618876      16.31018350      12.03038112
W       15.48804806      18.02912744      13.76537474
W       16.61956549      15.39904138      14.13765787
W       13.25701767      16.88936294      12.69049844
W       13.53223341      12.40531429      14.70360147
W       14.42430108      14.28273585      13.00719684
W       12.52125988      15.05313461      14.19754336
W       15.87321539      12.75299591      14.89870076
W       13.46166245      17.54487751      15.02735771
W       14.44505513      14.96344300      15.76483587
W       16.01527063      16.86985216      15.94943638
W       17.52618185      14.45213178      16.46760314
W       14.01578665      12.81227910      16.98821261
W       16.42747275      12.45407242      17.32556939
W       15.82674079      14.78144810      18.04603032
16
Properties=species:S:1:pos:R:3 config_type=qcd gap_pre_relax_energy=-164.37861388707654 gap_pred_energy=-164.96994267850545 gap_fmax_final=0.0007202250181993944 gap_converged=1 pbc="F F F"
W       11.45200184       9.67330837       7.51967029
W       11.99492257      12.10550904      13.80760759
W       13.23544887      10.61419183      12.27399798
W       11.29120764       9.53327312      13.37197230
W       10.46164162      13.31547935      12.20710953
W       12.25207119       9.31671887       9.81578600
W        8.36609787      10.90611697       9.60384966
W        9.67513271       8.91170736       9.12670549
W        8.66376207       9.43185557      11.79881507
W       10.03799065      12.81181148       9.55579369
W       12.04782261      11.78592394       8.76966984
W       10.46539615       8.00099904      11.28923929
W        9.59767725      11.21218555      13.48464311
W       12.61802337      12.84306598      11.36443007
W        9.66222359      11.26908630       7.51266525
W       10.75906397      10.84925119      11.07852884
17
Properties=species:S:1:pos:R:3 config_type=qcd gap_pre_relax_energy=-175.47344708372097 gap_pred_energy=-176.11807369794937 gap_fmax_final=0.00040065619397823077 gap_converged=1 pbc="F F F"
W       14.09279010      14.03277472      13.87292729
W       14.35926076      14.22642591      16.63361699
W       14.81790658      11.70172717      15.22095566
W       12.19388583      12.65229504      15.21446450
W       12.09913396      15.44160391      15.22096095
W       14.59732955      16.20007518      15.29386394
W       16.31004352      13.84422437      15.29386582
W       16.84264926      11.67846224      13.87325926
W       12.89977441      10.69417038      13.87292323
W       10.54902105      13.92781239      13.87292647
W       12.70154309      17.37481186      13.87323593
W       16.30983433      13.84411157      12.45181397
W       14.59716430      16.19992155      12.45181812
W       12.09913594      15.44169647      12.52508075
W       12.19387295      12.65228416      12.53143871
W       14.81800574      11.70171020      12.52509424
W       14.35903111      14.22627533      11.11213662
18
Properties=species:S:1:pos:R:3 config_type=qcd gap_pre_relax_energy=-186.9144484284216 gap_pred_energy=-187.65706635672143 gap_fmax_final=0.000889870070560285 gap_converged=1 pbc="F F F"
W       13.88216479      13.87390902      13.87390902
W       13.45837681      13.87390912      16.52376122
W       14.67195154      11.61081842      15.20905166
W       11.95468207      12.43668304      15.25127804
W       11.95468278      15.31113594      15.25127803
W       14.67195265      16.13699923      15.20905165
W       16.25920214      13.87390844      15.20297409
W       16.77971662      11.83851445      13.87390901
W       12.96162565      10.49353809      13.87390903
W       10.42381450      13.87390987      13.87390904
W       12.96162731      17.25428040      13.87390902
W       16.77971762      15.90930216      13.87390900
W       16.25920213      13.87390843      12.54484393
W       14.67195264      16.13699922      12.53876638
W       11.95468277      15.31113594      12.49654002
W       11.95468206      12.43668304      12.49654003
W       14.67195153      11.61081842      12.53876639
W       13.45837678      13.87390911      11.22405683
19
Properties=species:S:1:pos:R:3 config_type=qcd gap_pre_relax_energy=-196.91889594551282 gap_pred_energy=-198.07068111392613 gap_fmax_final=0.0009113616891976874 gap_converged=1 pbc="F F F"
W       14.10953539      13.69803851      13.87117877
W       14.37077450      13.50776050      16.56010219
W       14.74330682      11.44941143      15.27716216
W       12.12984520      12.27428929      15.13274892
W       12.20512418      15.08162632      15.24507032
W       14.85189266      16.02077120      15.13268185
W       16.44386212      13.79037795      15.27715624
W       16.80522235      11.73984858      13.87117877
W       12.91386514      10.32307464      13.87117879
W       10.33882564      14.05920757      13.87117879
W       10.34452193      16.43325223      13.87117878
W       12.60077664      17.17238702      13.87117877
W       16.95003872      15.87811482      13.87117876
W       16.44386211      13.79037795      12.46520129
W       14.85189265      16.02077120      12.60967569
W       12.20512417      15.08162631      12.49728724
W       12.12984519      12.27428929      12.60960865
W       14.74330681      11.44941143      12.46519540
W       14.37077448      13.50776049      11.18225535
20
Properties=species:S:1:pos:R:3 config_type=qcd gap_pre_relax_energy=-207.39324807370252 gap_pred_energy=-209.62354419017356 gap_fmax_final=0.0009871499402160464 gap_converged=1 pbc="F F F"
W       14.61127932      14.69890866      14.54464468
W       14.58871863      14.64687500      17.62074131
W       15.09721274      12.39464704      15.88149594
W       12.60138753      13.47177144      15.88141074
W       12.66232963      15.92607862      16.36410046
W       15.42144009      16.57652339      16.67193847
W       16.84102219      14.12276321      16.36417659
W       17.26233375      11.90307475      14.54464470
W       13.19852778      11.42522470      14.54464464
W       10.75823992      14.70994871      14.54464465
W       11.25752006      16.96767292      14.54464468
W       13.95267996      17.17619421      14.54464470
W       16.86562391      15.91915431      14.54464472
W       18.56246713      13.81539789      14.54464473
W       16.84102223      14.12276323      12.72511282
W       15.42144013      16.57652341      12.41735093
W       12.66232966      15.92607865      12.72518889
W       12.60138756      13.47177146      13.20787857
W       15.09721277      12.39464706      13.20779341
W       14.58871869      14.64687504      11.46854806
21
Properties=species:S:1:pos:R:3 config_type=qcd gap_pre_relax_energy=-219.3292946715976 gap_pred_energy=-220.6432132862015 gap_fmax_final=0.0008533004394766122 gap_converged=1 pbc="F F F"
W       11.58010547      11.22427993      12.63956185
W       11.91000495      11.59888773      15.22805103
W       12.00603849       8.91511071      13.77736753
W        9.93225002      10.48500964      14.85128503
W        9.75908575      12.92834595      13.54036360
W       11.94382634      13.75872222      13.61734580
W       13.86623179      10.50618139      13.76789544
W       11.24913375       9.22071237      10.65769684
W        9.37974628      11.52766356      11.21563328
W       11.17168943      13.81633747      11.16353410
W       13.67012301      12.39557827      11.93204450
W       13.66665759       9.54161828      11.50088732
W       11.97785713      11.62116509       9.90368293
W       11.28799288      11.51393305       7.52181035
W        9.82066543       9.18766777      12.68116994
W        8.82138952      13.94974083      11.29165836
W        9.52247817      10.55395083       8.97141014
W       13.20335676       9.74059645       8.77768616
W        9.41219611      13.06430748       8.93822265
W       11.60214372      13.75563986       8.47376329
W       14.65100158      11.12852533       9.98290404
22
Properties=species:S:1:pos:R:3 config_type=qcd gap_pre_relax_energy=-231.45296193496904 gap_pred_energy=-232.50123816104957 gap_fmax_final=0.0008514594440926896 gap_converged=1 pbc="F F F"
W       10.36563931      11.00612658      14.47958922
W        9.19588869      13.45578440      14.17016929
W       13.76089395      12.44390801      12.52478216
W        7.97728415      11.49602009      13.87285920
W       13.29790788      13.76346897      10.56187109
W        9.16119605       8.85671977      13.98810597
W       10.62443807      13.91275591      10.28366164
W       11.42390316       8.48884154      14.38615574
W        8.61050801      12.99861884      11.85525865
W       11.19158021      12.89309955      12.59443594
W       12.38332875      10.23579665      12.70997111
W       11.90939870      13.01356080       8.04025593
W       14.50001951      11.08246491      10.67849985
W       11.94011630      11.53047430      10.29454123
W        9.74486876      10.61566764      11.90065489
W       10.76780870       8.18805259      12.06447617
W       12.84051863       8.97036313      10.49839583
W       14.23023466      12.48542763       8.64224387
W        9.51422664      11.92964050       9.38218050
W       13.09829053      10.36186689       8.15557333
W       10.65217871       9.39159687       9.49255855
W       10.84747856      10.91745234       7.46146776
23
Properties=species:S:1:pos:R:3 config_type=qcd gap_pre_relax_energy=-242.17422968079194 gap_pred_energy=-243.98171522919552 gap_fmax_final=0.0009040616150798375 gap_converged=1 pbc="F F F"
W       11.90020999       8.66407923       9.98766984
W        9.61973919       7.90251296      10.38689373
W       10.73126091       7.96490015      12.51426006
W       10.15587994       9.98357709       8.79546195
W       12.56161909      10.15675067       7.57970474
W       14.44507550       9.93262930       9.68683525
W       10.17886034      10.30268469      11.78854716
W       12.96711689       9.65224681      12.12560254
W        7.87553231      10.05341338      10.84832221
W        8.66334460       9.61947125      13.67456802
W       11.24148077      12.06137227       7.70880972
W       11.98955466      11.51324821      10.19354701
W       13.92256377      12.02722096       8.69525387
W        9.07333087      12.04996960       9.82579504
W       11.39472052       9.96264534      14.44805961
W       14.62397516      11.42311085      11.48548767
W        7.74035297      11.93972553      12.37056911
W       10.94724094      14.06086216       9.80542190
W       12.27898818      11.83424854      13.02892644
W        9.69908556      11.60085730      14.37276763
W       12.97289107      13.67160681      10.97680197
W        8.15093911      13.87966405      11.08384467
W       10.27924110      13.15620631      12.02985331
24
Properties=species:S:1:pos:R:3 config_type=qcd gap_pre_relax_energy=-253.52800933954356 gap_pred_energy=-255.04304684608556 gap_fmax_final=0.0008810210237162523 gap_converged=1 pbc="F F F"
W       13.75304426      14.36450481      11.76638415
W       13.31545658      10.29464546      14.68353301
W       12.18106263      11.26551521       8.25124442
W       10.25925665      10.74830594      10.33364194
W       11.15626370       8.98578306      14.24438462
W       11.76380733       8.68542147       8.95501040
W       13.97069197      12.09454349      12.60111400
W       13.77910645       9.24267877      12.76873474
W       11.45177601       8.66854796      11.74350865
W        9.00356155       9.58172029      12.26138119
W        9.30115841      12.45791474      12.40067097
W       13.93963837      12.90943616       9.76189148
W       11.94390159      13.80144361      13.14427292
W        9.85028186       9.63268795       8.07307106
W       13.01880286      10.70645305      10.65107146
W       12.17207568      13.61508285       8.20376007
W       11.51805648      13.19462396      10.71967136
W        9.40937086      10.72003744      14.34262475
W       11.56786985      11.22492697      13.00077495
W        8.84593710      13.97722183      10.40621090
W        9.70364332       7.68759090      10.13810751
W        7.97986132       9.21171548       9.90396723
W        9.82210602      12.59012846       8.63808228
W        7.79722324      11.84302423      10.51084004
25
Properties=species:S:1:pos:R:3 config_type=qcd gap_pre_relax_energy=-263.8021340170118 gap_pred_energy=-264.99942985675466 gap_fmax_final=0.0009609190758208761 gap_converged=1 pbc="F F F"
W       11.15848108      13.03946510       7.93673053
W       13.20246643      11.69388614       8.11833984
W        9.36371614      11.67124467       9.29250827
W       11.42829859      10.17012373       9.06447373
W        8.68544522       9.20117204       9.98364979
W       11.50613964      15.06098883       9.35333248
W       13.73228221      13.90842496       9.17291024
W       10.68002359       7.89251190      10.15192848
W        9.62235526      13.95903365      10.40499008
W        8.15276748      11.78108875      11.60961329
W       11.82770857      12.44727468      10.40390542
W       14.10005871      11.20745587      10.43534667
W       12.59883746       9.11343277      11.46926033
W       10.38226733      10.45735115      11.59944504
W       14.32337924       9.87872873      13.08600926
W       10.25832851      12.91564268      12.72634720
W       12.77263244      11.79265070      12.87679477
W       14.38170490      13.43341600      11.46644977
W        9.78690633       7.96437227      12.38108885
W        7.81151775       9.44999551      12.30955253
W       11.62202936       9.23699781      13.85476697
W       12.24803449      14.58120015      11.71285112
W        9.37457308      10.55044899      13.98622326
W       13.22295829      10.32700667      15.20830135
W       11.33201148      11.84100977      14.97010425
26
Properties=species:S:1:pos:R:3 config_type=qcd gap_pre_relax_energy=-275.78921943042957 gap_pred_energy=-276.92689875454334 gap_fmax_final=0.0008137478841633137 gap_converged=1 pbc="F F F"
W       14.52365712      13.59861024      15.44797755
W       14.76703306      14.39688877      17.90963078
W       15.61255416      11.21993762      16.09255770
W       12.77737981      11.93739031      16.26668971
W       12.63654039      14.90298196      16.61031564
W       15.34696606      16.08390403      16.37583175
W       16.66902146      13.28681377      16.66554555
W       13.77426999      11.32864185      13.93543595
W       12.00632700      13.87215801      14.05394098
W       10.65966629      12.93165225      12.02526729
W       13.93424440      16.06441117      14.13517010
W       13.04268607      17.22837549      11.86921603
W       16.66221101      14.67072180      14.08370149
W       16.39511758      12.04245812      13.97400344
W       14.50308347      13.66390256      12.78143445
W       14.71146525      13.72995567      10.18383322
W       10.65030848      12.84567605      15.89878302
W       11.07033136      11.43129376      13.92391636
W       13.03339900      17.21166404      16.13373267
W       11.59310831      16.62761182      13.59234582
W       16.41738057      16.95133779      13.79047558
W       12.79340584      12.04932631      11.62183443
W       15.53896301      11.39598609      11.54508834
W       12.47615943      14.90280548      11.59339475
W       15.34111892      15.94573340      11.82258148
W       16.75441378      13.37057347      11.35810774
27
Properties=species:S:1:pos:R:3 config_type=qcd gap_pre_relax_energy=-287.22656072102296 gap_pred_energy=-289.4794132778859 gap_fmax_final=0.0008732256092091219 gap_converged=1 pbc="F F F"
W        8.58121332      11.90123509      14.33152835
W       10.77111045      11.19271390      14.47606734
W        9.85030928      13.91983646      13.65393564
W        9.08309892       9.60869724      12.85825748
W       11.26687319       8.37638989      14.11641932
W       12.06097318      12.77977957      12.82849382
W        8.87477793      14.55826252      11.54663602
W        7.71078336      10.25362036      10.71202954
W        9.41861232      12.07746602      11.83406680
W       11.58540190      10.27653837      12.13354375
W       11.23152731      14.41814929      11.06091859
W       13.15365582       9.69328679      14.39810522
W        8.51759967       8.12167772      10.98084301
W       14.10884200      13.88434539      11.43755334
W       11.05807233       7.97310818      11.26079287
W        9.65424266      12.96376039       9.36369743
W       13.57113133       8.31915056      12.57780370
W       13.14792378      14.32380861       9.33219338
W       10.01708012      10.09302256       9.75452035
W        9.69399887      11.41456946       7.32798603
W       14.05691829      11.09842129      12.10566544
W       11.67758272       8.13204010       8.87243631
W       12.11145448      12.08828877       9.98421789
W       13.22257601       9.52939932      10.12247745
W       11.44860208      12.97781483       7.52436294
W       14.73928400      12.10014302      10.02704861
W       11.86888021      10.40699984       7.86092488
28
Properties=species:S:1:pos:R:3 config_type=qcd gap_pre_relax_energy=-298.6496860175379 gap_pred_energy=-300.54820571543866 gap_fmax_final=0.0008701691687283818 gap_converged=1 pbc="F F F"
W       11.99068927      13.35103570      13.79009800
W        9.74806322      11.49748984      13.63232203
W       14.32578670      13.43165718      13.05300257
W       11.10393440       9.21399048      13.63680609
W       14.65847479      10.90539498      14.35066989
W       13.76171540       8.80939480      13.82051736
W       12.75536564      14.31806205      11.23140599
W       10.43046583      13.07159576      11.60533057
W       14.62637975      12.28036132      10.69889504
W       10.45234708      10.33687476      11.29257706
W       14.89000719       9.79325390      11.83568088
W       12.62091825       8.88367808      11.19729195
W       10.98547565      13.96122488       8.89593434
W       13.65077388      13.90828067       9.08497195
W        9.30807015      11.70378536       9.22778831
W       11.18834888       9.53442021       8.83665605
W       13.98594566       9.79906553       9.37611972
W       12.28453540      10.95868741      15.03368015
W       12.79659425      11.37816799      12.49392995
W       12.29628269      11.78014580       9.68321954
W       10.86829765      11.51026959       7.50524951
W       10.35604462      15.45779646      10.59864128
W        8.37387592      14.06594135      10.37728580
W        8.10435014      13.30653090      12.74830116
W        7.93011116      11.36264918      11.45567725
W        8.42017909       9.18916576      13.00747348
W        8.72983308       8.98256219      10.15407063
W        9.90518984       7.75657344      11.92445902
29
Properties=species:S:1:pos:R:3 config_type=qcd gap_pre_relax_energy=-308.25283100374213 gap_pred_energy=-311.08011965444723 gap_fmax_final=0.000923593669129288 gap_converged=1 pbc="F F F"
W       12.63355108      12.26230907      13.09883577
W       12.68719261      12.05724317      15.70208153
W       13.11239588       9.70657308      14.17864954
W       10.62563825      10.64050207      14.10913584
W       10.53385389      13.43978750      14.24925323
W       13.26770441      14.50524034      14.32403487
W       14.70483375      12.04055987      14.64046181
W       11.90430200      10.14256015      11.75194762
W       11.32581394       8.00743634      10.43632051
W       10.18668475      12.40294114      11.69957024
W        8.13753303      10.90622770      11.08137083
W       12.04312640      14.67218768      11.97563216
W       10.81924038      15.86590350      10.03609110
W       14.79038706      13.26437670      11.94958973
W       14.53491127      10.43222554      12.15498777
W       12.91352388      12.35989498      10.25679730
W       11.96701122      11.44444354       8.09354458
W       11.54891485       7.91762659      13.38451696
W       13.26972445       7.83909610      11.79030420
W        8.43478245      11.60173698      13.36784907
W        9.46221878       9.31305503      12.19130663
W       11.11066963      15.68469487      14.16316937
W        9.53868811      14.88059487      11.81449589
W       14.45783663      15.60443476      12.08877171
W       10.37777357      10.65916279       9.66626285
W       13.28633233       9.81358474       9.53130411
W       10.79306912      13.56126301       9.43655974
W       13.52498468      14.98463377       9.98242260
W       15.27385737      11.25625988      10.11128821
30
Properties=species:S:1:pos:R:3 config_type=qcd gap_pre_relax_energy=-320.78015158490433 gap_pred_energy=-322.9029378883664 gap_fmax_final=0.0009362718206964961 gap_converged=1 pbc="F F F"
W       12.53271638      13.09272414       7.58088882
W       13.17577425      10.82155090       8.20262805
W       10.48583435      12.30802944       8.75544446
W       14.71397782      13.27387442       8.86816927
W       10.86060547       9.88538500       9.30482890
W       14.98348199      11.01552691       9.93117456
W        8.92465853       8.51968736       9.91788128
W       12.20353809      14.74175111       9.37788585
W       12.64615719      12.29130155      10.29116065
W        8.36525627      10.85861354      10.04814992
W       12.96202592       9.56846815      10.88851292
W       10.18347440      13.85115758      10.83534072
W       14.23338380      14.78127032      10.74092861
W       10.44246811      11.27085943      11.68299023
W       10.72683698       8.55298418      11.78880929
W       12.28508457      14.10566525      12.32040967
W        8.43231625       9.58788410      12.23417483
W        8.34343652      12.57856807      12.32197844
W        9.68184164      15.00922066      13.12056901
W       14.75403784      12.68008247      11.89975677
W       11.59675281      15.04353321      14.43496381
W       14.78250428       9.80420431      12.47397126
W       12.90144075       8.46843597      13.56716059
W       12.81195045      11.32170164      13.06159348
W       10.82508897       9.91215995      14.16677373
W       10.51949716      12.74618718      14.15014204
W       13.74158996      10.11902272      15.11507736
W        8.47789829      11.09068859      14.17051361
W       13.36387466      13.07165924      14.72520258
W       11.94022452      11.52553086      15.92064753
31
Properties=species:S:1:pos:R:3 config_type=qcd gap_pre_relax_energy=-332.8355779105505 gap_pred_energy=-335.0206998055483 gap_fmax_final=0.0009782423650263501 gap_converged=1 pbc="F F F"
W       14.55833549      10.74769387      13.61395000
W       14.37374551       8.58141895      11.55577513
W       11.82434212       7.44969422      12.61502540
W       12.36043307      10.42632575      14.63203562
W       14.64541751      13.32970655      13.32359596
W       13.07154740      12.68708736      15.17503365
W       14.59914376      11.50969974      11.25205441
W       12.57318410       7.43537714      10.38523170
W       12.31426428       9.86801468      12.05703920
W       13.72446254       9.79505264       9.45127947
W        9.83614150       9.52169201      13.46841979
W       12.32957818      12.58955273      12.73638022
W       12.75552659      15.16744780      12.29687558
W       10.20071981      11.99413666      14.34599913
W       10.05810371       8.36748232      11.18592287
W       10.94174443      14.30726761      14.06635773
W        7.71440996      11.45972676      13.51857007
W       14.46906355      12.21116730       8.45893222
W       12.24264397      11.94734275      10.09085074
W        9.95499023      11.37716257      11.58693906
W        7.74185624       9.56635132      12.18261824
W       13.83122898      13.96231691      10.55300388
W       11.09936942       9.78952971       9.36864765
W        8.94105616      13.68434007      12.51431880
W        8.52022012      10.19382699       9.44642574
W       10.90051281      14.17378021      10.88358147
W       12.44318780      11.64159933       7.47158347
W        7.63001934      12.04357341      10.77568159
W       12.14716405      13.84071517       8.28805106
W        8.51463818      14.15311054       9.93345501
W        9.84156449      12.33642221       8.92498045
32
Properties=species:S:1:pos:R:3 config_type=qcd gap_pre_relax_energy=-345.0673862798496 gap_pred_energy=-346.63390803335005 gap_fmax_final=0.0007641632202794219 gap_converged=1 pbc="F F F"
W       11.37127994      11.95556456      13.44054686
W       14.08376742      12.18372201      13.32346312
W        8.76346404      11.71683914      13.54657664
W       12.86990620      14.59542169      13.39698946
W       10.42236064      14.39482868      13.57653604
W       12.37639292       9.42748942      13.29260613
W        9.67587527       9.43918659      13.33921050
W       14.88976267       9.78091595      13.01344194
W       14.81006818       9.87351906       9.13914401
W       11.17990197      12.12421384       8.96854321
W       13.87345612      12.30775298       9.04570959
W        8.66208936      11.89547975       9.32671056
W       12.71536743      14.78502575       9.07536536
W       10.25964554      14.47432448       9.35551061
W       12.21451919       9.62977946       9.01572544
W        9.48057373       9.56312632       9.01690423
W       13.13746671      10.88745563      11.12175989
W       10.41589900      10.74668892      11.19164946
W       15.77994617      11.01545444      11.04130944
W        7.77430142      10.59502241      11.25703485
W       11.46836048       8.35519734      10.98592300
W        8.86134834       8.43934056      11.07042423
W       14.20075087       8.46609183      11.01285392
W       12.05053678      13.38552848      11.22121332
W       14.66240295      13.51143892      11.04368220
W        9.33509396      13.23983173      11.39052462
W       11.00904790      15.81691362      11.31547341
W       13.42500058      15.80655043      11.15293789
W       10.70555670      10.57974138      15.60143787
W       13.16364966      10.82457710      15.27949139
W       12.28486291      13.12905379      15.63000748
W        9.87905013      12.85562896      15.61299850
33
Properties=species:S:1:pos:R:3 config_type=qcd gap_pre_relax_energy=-355.32220098602045 gap_pred_energy=-358.17698942864894 gap_fmax_final=0.0008419349929652774 gap_converged=1 pbc="F F F"
W       13.43759001      12.13178369      14.25691193
W       12.37891563      12.79342529      16.39018805
W       12.95597223       9.52353660      14.69859558
W       10.96505359      10.97610948      15.13199404
W       10.57112996      13.72536687      14.95918294
W       12.89793996      14.73368044      14.95345377
W       15.94642493      12.04487662      13.90026661
W       11.75803255      10.65777206      12.58747899
W        9.43428399      12.44657826      12.83152595
W       11.92159596      13.98075122      12.52477125
W       14.82423200      14.08233204      13.09506022
W       14.68065935      10.33228643      12.37545638
W       13.59817080      12.47593239      11.20607325
W       13.21921507       8.08001264      12.48523218
W       10.95776878       8.21955948      14.10696385
W        9.34183452       9.93349773      13.43182753
W        8.56901427      14.86918564      13.52173721
W       10.62826971      16.07650788      13.56848710
W       13.22973632      16.66619146      12.95708439
W       14.69744489       8.64117054      10.48234255
W       11.06433004       8.15707065      11.53218958
W        9.54248376      10.17750294      10.93767824
W        8.47890208      12.37058295      10.59321419
W        9.65043698      14.67629433      11.32925294
W       11.52901239      16.70673826      11.33043876
W       13.93673793      15.30764842      10.99766296
W       16.09829089      12.29371783      11.45341405
W       12.61475576       9.90689509      10.26264004
W       10.92170655      12.26184895      10.36023352
W       12.07236640      14.40714805       9.73347111
W       14.84002732      13.50522888       9.07772672
W       15.16737709      10.78045253       9.52453539
W       13.14312028      12.13114637       8.47574067
34
Properties=species:S:1:pos:R:3 config_type=qcd gap_pre_relax_energy=-366.7354148788709 gap_pred_energy=-368.47777522350935 gap_fmax_final=0.0009101408027553285 gap_converged=1 pbc="F F F"
W       11.20262988       9.80333985       8.43550659
W       11.24030412       9.72155586      13.03430543
W       13.69180042      10.81488733       9.42358464
W       13.94160584      10.73747269      12.08372040
W       11.73377544      11.70541455      10.72091206
W       11.62610806      12.02066699       7.93502116
W        9.59134529      12.02025617       9.35475922
W       13.27818927      13.67402067       9.72210856
W       10.94978950      14.38794871       9.26457367
W        9.36705199      11.96100368      12.11788884
W       13.91270276      13.58872017      12.26141095
W       11.12362060      14.15755825      11.88183034
W       11.34663507      10.22507528      15.61306451
W       13.71997994      10.58946005      14.75170801
W       11.91265346      12.18336526      13.57473960
W       12.02685869      12.42055627      16.38805033
W        9.64202660      11.69841375      14.69383968
W       13.77615003      13.30287313      14.96357851
W       10.87523212      14.16886772      14.86332728
W       15.75758116      11.87634941      13.55751084
W       15.38983954      12.37994304      10.62489314
W       12.61481896      15.42355120      13.67811902
W       12.62673030      16.03485980      11.00089866
W       12.34030659       8.91847442      10.69337247
W       13.71177138       8.20534561      13.14381538
W        8.78391841      14.36257383      13.28089232
W        8.77751419      14.58110794      10.87501320
W        8.78580848       9.75759271      12.85193633
W        9.73649668       9.66318796      10.59854987
W       14.81947163       8.54832876      11.07694693
W       15.89050488       9.15583457      13.73878251
W       10.38026403      16.60993566      10.48857126
W       10.20362139      16.36574748      12.89225919
W       16.68904247      10.40186038      11.88065830
35
Properties=species:S:1:pos:R:3 config_type=qcd gap_pre_relax_energy=-378.093311662684 gap_pred_energy=-381.04489343341623 gap_fmax_final=0.0009134334985358319 gap_converged=1 pbc="F F F"
W       10.67958722       9.77448720       9.06811412
W       10.20194827       9.62588730      12.09800515
W       13.30210861      11.30311933       9.84128047
W       12.91772394      10.78084912      12.71149341
W       10.81001552      11.85638830      10.76704355
W       11.52333008      11.98241559       8.21835704
W        8.97749816      12.14163900       8.82908934
W       13.60468263      13.88889267       9.13286374
W       11.08446726      14.22229646       9.49617225
W        8.50983947      12.15677911      11.87401330
W       12.87692423      13.45135381      11.62604484
W       10.29887053      14.59157334      12.16891572
W       11.08771217      10.01396213      14.82806926
W       13.65582428      10.55151990      15.29607177
W       10.67460240      12.26002123      13.51761400
W       11.51517003      12.22963961      16.21739132
W        9.12998603      12.15896157      15.81889240
W       13.23638086      12.99420376      14.41885076
W       10.85631217      14.41691651      15.09925066
W       15.56799509      11.66755415      13.53985899
W       15.55200210      12.68577488      10.83451086
W       12.72345313      15.41547902      13.18871759
W       12.35839491      16.12550825      10.91849017
W       12.40632289       9.10189413      10.86807038
W       12.40335889       8.34570077      13.39309466
W        8.74103852      13.92808699      14.08495661
W        8.72324569      14.09516082      10.28907304
W        8.77826618      10.45852831      13.99604047
W        8.57677237      10.15756624      10.22164282
W       15.23254945      10.09085524      11.48595521
W       14.77235014       9.06299087      13.78449916
W       14.65719507      15.40953279      10.74048656
W       15.25922037      14.27949529      12.89794920
W       17.45028364      13.32182539      12.23302502
W       17.44348165      11.04205483      12.08501011
36
Properties=species:S:1:pos:R:3 config_type=qcd gap_pre_relax_energy=-390.6706976274763 gap_pred_energy=-392.91541682199573 gap_fmax_final=0.0009675651397189603 gap_converged=1 pbc="F F F"
W       10.27350215       9.25094642      15.97134226
W       11.35573616      11.86171788      15.53700320
W        9.11730481      11.06507535      14.14413076
W        9.82662022      13.51866718      13.67663148
W       12.62818389       9.72270902      15.86113355
W       11.86040983      14.62130045      15.10660446
W       11.51924056       7.76935896      14.57550742
W       13.63874710      13.11624355      15.14964656
W        9.50096062       8.71390802      13.35833019
W       14.12751605      10.71557039      13.68507826
W        7.52076909      12.73547971      12.31773536
W       10.05972839      11.48850552      11.64930871
W        7.72445639      10.39987419      11.88491890
W       12.19577135      12.66852925      13.10824584
W       13.32290701       8.57077578      12.24478089
W       11.52801020      15.34333999      12.46852392
W       11.64534469      10.02620020      13.46954038
W       13.82417375      14.82699954      13.10931480
W       14.85747439      15.11948052      10.46327184
W        7.91395679      12.59738810      10.01024948
W       14.69682392      12.65803958      12.14594412
W       12.47018254      13.72138528      10.64801576
W       14.89346790      12.61485984       9.58909761
W       12.80800217      10.94389867      10.83689974
W       15.15438601      10.08100889      11.08878640
W        9.11417851      10.04679739       9.68005229
W       12.68084037      16.19192792       9.95902352
W       11.04698570       8.92542969      10.97189083
W       10.41814045      12.13017167       9.08238218
W        9.66005225      14.06443276      10.96982189
W       13.45788557       8.18368235       9.67543363
W       12.87949800      12.28710646       8.32307245
W       13.89576322      14.87454613       8.26466236
W       14.61007515      10.02085132       8.75120976
W       11.14970865      14.58980744       8.71623393
W       11.81633938       9.72712782       8.69931849
37
Properties=species:S:1:pos:R:3 config_type=qcd gap_pre_relax_energy=-402.2847092623018 gap_pred_energy=-404.1872420198339 gap_fmax_final=0.000741828225566392 gap_converged=1 pbc="F F F"
W        9.71559949      14.95961180      11.56695173
W       11.37028943      16.97769986      11.18588624
W       10.51033055      13.55659558      13.71434537
W        8.15845448      12.83679821      11.92882671
W       11.37798136      15.77380824       9.09867746
W       12.11748251      15.66489310      13.38854962
W       11.40240564      11.92074236      15.81187158
W        9.73900975      13.61767923       9.47371834
W       13.69254049      16.49289014      10.79113626
W       12.21209302      14.32547570      11.14685879
W        8.34760143      11.54945474       9.94257711
W        9.13856467       9.95630117      11.76808486
W        9.07050272      11.22874932      13.89187291
W       12.98130456      14.17905099      15.43405786
W       13.72153132      14.86859111       8.88294022
W       14.52536103      15.13326907      13.01343955
W       10.63364393      12.10807225      11.45753589
W       12.92667190      10.87203035      17.36294055
W       15.30708867      13.84369935      14.93911532
W       10.16280421       8.36390448      13.73111938
W       11.58539141      10.58127185      13.51123877
W       12.25992249      12.80342574       8.88449854
W       10.74029388      10.71137185       9.27521587
W       14.05946700      11.49536808      15.37986837
W       14.81807729      13.60180254      10.79220105
W       15.57496690      12.26673307      12.95128925
W       13.23929153      11.39201998      10.99859322
W        9.92937351       9.66019495      15.70238354
W       13.09048337      12.88345569      13.27922334
W       12.62733806       7.99071416      13.17556093
W       12.38223267       9.23475516      15.62957292
W       11.68957655       9.15417692      11.20046021
W       13.35303677       9.95717482       8.81509617
W       14.75302774      11.99377771       8.75754093
W       15.71655185      10.69919303      10.62673030
W       14.18335076       9.95733528      13.09993706
W       14.24509678       8.74665183      10.74882352
38
Properties=species:S:1:pos:R:3 config_type=qcd gap_pre_relax_energy=-413.7441285534531 gap_pred_energy=-414.84025437949083 gap_fmax_final=0.0005208369350140973 gap_converged=1 pbc="F F F"
W       13.83159966      13.83158856      12.26226894
W       16.60618783      13.85096969      12.26224936
W       13.85060576      16.60627158      12.26225997
W       10.69293634      13.83158054      12.26226930
W        7.91827223      13.85087667      12.26225061
W       10.67366509      16.60625357      12.26224935
W       10.69293852      10.69291969      12.26227120
W        7.91825139      10.67390940      12.26226273
W       10.67357210       7.91833563      12.26225576
W       13.83163239      10.69289440      12.26228168
W       16.60622968      10.67378474      12.26228543
W       13.85075788       7.91830612      12.26228977
W       12.26227766      12.26224885      13.93074303
W       15.37147971      12.26227314      13.86886282
W        9.15314933      12.26229219      13.86896580
W       12.26223637      15.37136295      13.86897120
W       12.26226127       9.15305244      13.86888414
W       15.30330148      15.30347734      13.81641627
W        9.22111616      15.30340363      13.81638066
W        9.22103988       9.22123319      13.81641315
W       15.30344547       9.22110254      13.81645808
W       12.26228401      12.26224201      10.59381174
W       15.37147425      12.26224622      10.65566906
W        9.15316956      12.26227924      10.65555153
W       12.26223495      15.37135042      10.65554996
W       12.26228088       9.15304555      10.65567619
W       15.30326687      15.30348193      10.70811436
W        9.22114273      15.30340075      10.70812580
W        9.22105877       9.22124298      10.70810835
W       15.30341478       9.22110413      10.70808527
W       13.81313724      13.81303238      15.25918315
W       10.71146763      13.81303644      15.25928878
W       10.71149115      10.71137588      15.25917226
W       13.81321262      10.71131701      15.25911921
W       13.81312874      13.81296293       9.26531410
W       10.71150499      13.81300272       9.26521966
W       10.71155176      10.71138529       9.26532521
W       13.81320264      10.71133702       9.26537583
39
Properties=species:S:1:pos:R:3 config_type=qcd gap_pre_relax_energy=-426.01527599030624 gap_pred_energy=-427.3437508964934 gap_fmax_final=0.000994884530030555 gap_converged=1 pbc="F F F"
W       13.80145390      13.80148697      12.07623671
W       16.56008006      13.80852955      12.13688405
W       13.80844267      16.55998556      12.13669746
W       10.67725999      13.80151743      12.07624125
W        7.91869424      13.80866928      12.13690760
W       10.67013179      16.56012480      12.13693935
W       10.67730262      10.67732346      12.07621214
W        7.91878582      10.67030082      12.13675742
W       10.67030155       7.91876728      12.13680986
W       13.80149610      10.67726676      12.07627871
W       16.56017311      10.67009431      12.13703791
W       13.80861297       7.91871773      12.13687073
W       12.23936075      12.23940177      13.72878385
W       15.31678275      12.23936185      13.73635812
W        9.16197423      12.23944284      13.73635239
W       12.23932555      15.31680952      13.73636381
W       12.23940368       9.16199528      13.73637785
W       15.29829590      15.29836067      13.62989061
W        9.18036729      15.29843667      13.63003048
W        9.18044173       9.18044918      13.62988009
W       15.29837536       9.18036452      13.63006729
W       12.23938730      12.23939515      10.37951611
W       15.34722532      12.23934193      10.47858820
W        9.13165602      12.23944846      10.47840063
W       12.23934652      15.34710498      10.47841204
W       12.23945118       9.13168276      10.47842859
W       15.30840045      15.30826977      10.56308463
W        9.17046527      15.30837298      10.56312952
W        9.17054448       9.17049716      10.56299484
W       15.30848057       9.17043478      10.56324843
W       13.74510971      13.74513672      15.26045431
W       10.73363693      13.74514115      15.26050716
W       10.73364299      10.73367641      15.26046968
W       13.74511517      10.73366578      15.26050805
W       13.85617134      13.85604894       9.14290632
W       10.62259942      13.85608443       9.14274426
W       10.62264646      10.62274962       9.14273484
W       13.85622029      10.62268798       9.14293779
W       12.23939009      12.23940632      16.58350851
40
Properties=species:S:1:pos:R:3 config_type=qcd gap_pre_relax_energy=-438.24253602205164 gap_pred_energy=-439.86460683217103 gap_fmax_final=0.0008553664862174353 gap_converged=1 pbc="F F F"
W       13.77646379      13.77646380      12.21609735
W       16.51374558      13.77797106      12.21609830
W       13.77796980      16.51374241      12.21609967
W       10.65575077      13.77644098      12.21609649
W        7.91851644      13.77786818      12.21609463
W       10.65432431      16.51367384      12.21609590
W       10.65572842      10.65572807      12.21609617
W        7.91844996      10.65422210      12.21609761
W       10.65422273       7.91844690      12.21609626
W       13.77644056      10.65575134      12.21609499
W       16.51367283      10.65432562      12.21609292
W       13.77786827       7.91851661      12.21609189
W       12.21609587      12.21609564      13.84600139
W       15.28848607      12.21612097      13.87048804
W        9.14370594      12.21606991      13.87048826
W       12.21612134      15.28848511      13.87048956
W       12.21607098       9.14370497      13.87048687
W       15.28957883      15.28957585      13.73428555
W        9.14264195      15.28954827      13.73427667
W        9.14261614       9.14261268      13.73428332
W       15.28954804       9.14264206      13.73427416
W       12.21609567      12.21609696      10.58619086
W       15.28848578      12.21612294      10.56170353
W        9.14370585      12.21607073      10.56170398
W       12.21612178      15.28848648      10.56170505
W       12.21607028       9.14370642      10.56170248
W       15.28957838      15.28957689      10.69791177
W        9.14264255      15.28954913      10.69791404
W        9.14261593       9.14261391      10.69790991
W       15.28954729       9.14264409      10.69791060
W       13.73604062      13.73603922      15.36777827
W       10.69615757      13.73603234      15.36775959
W       10.69615162      10.69615011      15.36777773
W       13.73603303      10.69615710      15.36775803
W       13.73603990      13.73604148       9.06441487
W       10.69615811      13.73603409       9.06443264
W       10.69615117      10.69615254       9.06441352
W       13.73603164      10.69616072       9.06443104
W       12.21609465      12.21609465      16.66326683
W       12.21609361      12.21609788       7.76892333
41
Properties=species:S:1:pos:R:3 config_type=qcd gap_pre_relax_energy=-446.5124357389748 gap_pred_energy=-450.2330540191491 gap_fmax_final=0.0008769480971927797 gap_converged=1 pbc="F F F"
W       14.42142756      13.77230740      12.62236803
W       14.46366536      13.91664373      15.27984052
W       17.13963914      14.54143499      12.62287394
W       17.37531000      14.47433691      15.48120819
W       15.48032960      16.21003750      14.07787191
W       15.44223441      15.78227034      11.33563391
W       13.00494631      15.77536440      13.24730294
W       17.19582332      17.38825187      12.34655778
W       14.24534375      17.88192410      12.56410167
W       13.11461161      16.16088686      16.05250265
W       17.33511504      17.81885382      15.34588151
W       14.47666996      18.46121037      15.42918204
W       14.20615265      14.17130157      18.03684076
W       16.99060054      14.53902602      18.46674651
W       15.75005270      16.20700598      16.95417200
W       15.01255614      15.92742532      19.67028231
W       12.32734607      15.95721907      18.67070999
W       17.13571567      17.28474232      18.94675320
W       14.07906821      17.79079546      18.18908880
W       18.77125838      16.15270949      17.08757301
W       18.98989636      16.08829278      13.95504400
W       16.20177540      18.97439825      17.52039138
W       16.09388962      19.20567369      13.44155981
W       16.31761858      12.38280261      13.99125452
W       16.13824457      12.52323109      16.93505070
W       11.66732256      18.20732526      16.81105176
W       12.18785776      18.16303635      14.41747877
W       11.74286814      14.08813350      16.81762797
W       11.95380660      13.62670095      14.38608299
W       19.14677932      13.13648062      14.10909185
W       18.99122249      13.19764782      17.07311110
W       19.08668877      18.85410136      13.97409921
W       18.93746832      18.66966948      17.03386800
W       13.43751338      11.63165321      14.11288072
W       13.32897696      11.88930608      16.47777465
W       10.72177115      16.10423479      14.94136315
W       10.28325818      16.28772118      17.27338874
W       20.34709701      14.75427895      15.59756651
W       20.49011909      17.68702833      15.44442309
W       18.29048863      11.46242125      15.59382993
W       15.48600359      10.66064785      15.47410236
42
Properties=species:S:1:pos:R:3 config_type=qcd gap_pre_relax_energy=-459.86984232556784 gap_pred_energy=-462.61828039765817 gap_fmax_final=0.0008603375269656141 gap_converged=1 pbc="F F F"
W        9.20641147       8.37691804      10.79335039
W        8.41050321      10.75798886      13.79041975
W        7.71394979      12.86311914      14.76467293
W        8.69959636      11.00690154      11.07620133
W        9.55775121      11.97631548       9.00238622
W       10.57649535       9.62389861      12.35604778
W        9.81432494      11.60511207      16.14273501
W       11.44818396       7.69001125      10.49044120
W        7.61929005      13.15362595      12.38874356
W       10.69221035       9.79096865       9.34051158
W       13.19973724       9.84143501       8.14744361
W       11.64549233       9.97497938      14.94537231
W       11.34072741      11.92973967      10.97702277
W        9.59824375      13.76790244      10.94226972
W       12.57989043       8.19639975      12.86810611
W        9.99866539      13.92981979      15.54137159
W       12.33447879      12.00364249       8.62524901
W       10.26977559      12.28888501      13.46410503
W       12.31250917      12.83477702      15.26905531
W       12.03889847      14.50424402       9.79387321
W       13.23002010       9.87602858      10.61778129
W       12.05423523      14.25810074      12.64126516
W       13.96416025      13.04417859      10.89798712
W       14.94324761      11.46061547       8.79851713
W       10.32715708      16.39738733      11.19552950
W       12.99183095      11.21192891      12.94575876
W       12.71287170      16.49186083      11.09557991
W       12.06760383      11.18442022      17.02401610
W       14.12515159      13.92292948       8.09759299
W       14.89730766       9.29217833      13.10789667
W        9.31774807      14.90024830      13.31634483
W       14.20591987      10.70838365      15.27403432
W       13.69262016       8.31086844      15.06370642
W       13.30487073      15.12237444      14.65751576
W       16.57622977      13.37614025       9.53966433
W       14.62393936      15.27972531      12.50042998
W       11.24142083      16.53523840      13.40909753
W       15.68295910      11.27487011      11.44806176
W       16.43760676      11.19822182      13.83325762
W       15.00468388      15.23124667       9.88036182
W       14.70961801      13.05699686      13.79960545
W       16.60808943      13.52580034      11.91304441
43
Properties=species:S:1:pos:R:3 config_type=qcd gap_pre_relax_energy=-470.5637401237329 gap_pred_energy=-473.51032250925664 gap_fmax_final=0.0009627563653863314 gap_converged=1 pbc="F F F"
W       14.97425052      14.45077149      13.01355380
W       14.92688212      14.17181374      15.96015875
W       17.65566428      15.30819732      13.01992419
W       17.84280199      15.10402260      15.96782960
W       15.78530763      16.52586653      14.53822980
W       15.83913314      16.37892903      11.77608688
W       13.38773167      16.67305938      13.20010184
W       17.65750608      18.03939182      13.21152568
W       15.07295089      18.76171343      13.36545950
W       13.28507031      16.60398660      15.95289143
W       17.76941941      18.03799585      15.96560474
W       15.02644022      18.88665441      15.95646976
W       14.95774291      14.45574793      18.90692262
W       17.63957527      15.31267623      18.91344917
W       15.77686445      16.52803082      17.38307246
W       15.81532922      16.38542015      20.14554726
W       13.37217249      16.67872286      18.70655187
W       17.64307761      18.04264288      18.71838148
W       15.05869953      18.76596261      18.54804147
W       19.73153191      16.62762861      17.42805168
W       19.73876688      16.62541800      14.51492075
W       17.09833138      20.05350493      17.43463341
W       17.10665049      20.05141577      14.49195902
W       16.87316271      13.12226018      14.43258118
W       16.86465140      13.12481858      17.50066634
W       12.65342532      18.63256402      17.41888140
W       12.66176180      18.63005293      14.47805478
W       12.49828016      14.31589619      17.40975881
W       12.50614004      14.31285721      14.49678072
W       19.71606875      13.97381891      14.55470824
W       19.70864460      13.97611375      17.39266763
W       19.70446195      19.29008117      14.74076837
W       19.69808298      19.29170010      17.19852450
W       14.06283741      12.16637627      14.54054474
W       14.05475271      12.16915537      17.37852629
W       10.98750975      16.50430704      14.71776776
W       10.98058962      16.50698079      17.17548199
W       21.52215394      14.98669875      15.97741463
W       21.48607680      17.47639786      15.97514770
W       18.73526388      12.18701922      15.97278262
W       15.89182221      11.27808081      15.96549874
W       10.58310931      13.99132734      15.94849246
W       11.99766050      11.94227674      15.95394013
44
Properties=species:S:1:pos:R:3 config_type=qcd gap_pre_relax_energy=-483.13771026962013 gap_pred_energy=-485.41593933506914 gap_fmax_final=0.0009442305592399802 gap_converged=1 pbc="F F F"
W       14.33384935      12.70370181      15.34459515
W       12.13803507      13.57870935      16.68198916
W       12.34611601       8.90285370      14.69721468
W       15.19209563       9.85713990      15.08819796
W       10.79944645      11.46568412      17.62263523
W       10.09851512       9.85949684      16.01232263
W       14.43618388       8.30611609      13.43597672
W       12.97792780      10.68145338      16.48572942
W       15.57191374      14.67309211      14.08217814
W       16.37162235      11.78531944      13.72759738
W       11.59879096       7.49834364      12.59968777
W       13.53298718      15.55726860      15.59805406
W       10.57272526      14.79953693      15.22192709
W       10.55414099       9.99589833      13.02151211
W       12.58564470      14.00409560      13.74176524
W       17.47500985      13.77434761      12.40415481
W       13.48809169      10.98021210      13.45430505
W        9.19714955      12.66982487      16.24684102
W       15.54968967      10.20573604      12.06017241
W       12.77544347       9.23739850      11.52237444
W        8.62315148      11.18407243      14.34052624
W       15.91527490      15.20570134      11.14634670
W        9.56885247      13.18591568      13.28833935
W       16.68305082      12.29779829      10.75949637
W       13.89721532      16.13109842      12.67698230
W       14.68358116      13.11949360      12.20229224
W       11.95823567      16.74104216      14.22239101
W       11.32814074      11.87939405      14.86980549
W       11.63454797      12.20535080      11.74946179
W        9.95251556       8.55048995      11.15086805
W       11.06329239      10.36229261       9.85775291
W       12.82502204      14.51992804      10.76161265
W       10.80043444      15.43414269      12.29249139
W       13.81815047      11.44523049      10.15698636
W        9.00607087      11.29663370      11.29377062
W       14.90421145      13.72948627       9.21877724
W       14.02423912      16.62988511       9.67820420
W       12.15250124      17.24903001      11.13170189
W        9.83488416      13.75245130      10.44480255
W       13.81266129      12.14413324       7.76930115
W        9.24379601      11.87312760       8.96294574
W       13.04707677      15.05663875       8.05949900
W       11.13017547      15.91237093       9.33395306
W       11.79138848      12.85191265       8.87631029
45
Properties=species:S:1:pos:R:3 config_type=qcd gap_pre_relax_energy=-494.1085815598783 gap_pred_energy=-496.94567158636863 gap_fmax_final=0.0009615316250365964 gap_converged=1 pbc="F F F"
W       14.98433384      14.11259558      13.59233532
W       15.14974483      13.98356092      16.34424156
W       17.62299401      14.80348329      13.24622122
W       17.94116126      14.70117744      16.25721555
W       16.05495870      16.24582916      14.79271776
W       16.12191328      16.25648036      12.01940016
W       13.59681890      16.41326646      13.44834958
W       17.67550999      17.68422247      13.26417291
W       15.12299893      18.53880044      13.49234705
W       13.53781198      16.26774064      16.25163033
W       17.95995311      17.77989634      16.24449121
W       15.17805012      18.53155911      16.15831981
W       15.09569731      13.97705793      19.01027293
W       17.65934969      14.80023005      19.23746110
W       16.05558982      16.25804254      17.70952494
W       16.12371039      16.24632617      20.48281732
W       13.59616928      16.12146311      19.05486293
W       17.64175780      17.68137134      19.25536023
W       15.01243578      18.40458451      18.91031800
W       19.47543906      16.23421398      17.81735900
W       19.47456605      16.22847677      14.68358868
W       16.94766146      19.96617181      17.68471182
W       17.04693333      20.01497290      14.75575722
W       16.90098861      12.52794914      14.81720044
W       17.00085917      12.47793211      17.74639684
W       12.71595959      18.49242311      17.68317851
W       12.84665183      18.75350988      15.08423325
W       12.81608577      13.79096561      17.41929106
W       12.68756875      14.05363748      14.82042423
W       19.49336776      13.22682035      14.79885161
W       19.56239004      13.23636658      17.66316275
W       19.59818118      19.22458981      14.83776032
W       19.53066590      19.23517405      17.70216507
W       14.31938243      20.80742191      14.89302988
W       14.17740811      20.65286803      17.25212709
W       14.12173661      11.87502392      15.25096718
W       14.26263648      11.71879024      17.61003140
W       11.56134031      16.35697725      14.76554960
W       11.56094978      16.20371131      17.73857607
W       20.90633017      14.73294572      16.20428331
W       20.92504216      17.71355221      16.29623661
W       19.07596417      21.20868120      16.26363994
W       16.60863626      21.86658938      16.23725228
W       19.01537677      11.26038349      16.23758920
W       16.53741645      10.63266114      16.26507397
46
Properties=species:S:1:pos:R:3 config_type=qcd gap_pre_relax_energy=-504.4101245345972 gap_pred_energy=-507.860065034501 gap_fmax_final=0.0006953285776816808 gap_converged=1 pbc="F F F"
W       15.01522973      10.31739375       8.68846349
W       12.75882776       9.27805842       9.63315779
W       15.16737668       9.95658956      11.14580352
W       13.76861948       7.80091151      11.40795443
W       16.11664053      12.36523645      10.48717134
W       15.60939143      12.53330127       8.15451426
W       11.04647469      11.04872690       8.88925144
W       10.37896260       9.55454503      10.89644876
W       14.42678314       8.37082496      13.62265779
W       10.76748661      13.62010657       9.17212457
W       15.57135873      10.68700401      13.64877674
W       13.29557921      11.91959880       9.72243918
W        8.57954499      10.98128917      11.82435017
W       11.32370907       7.91026484      12.79753979
W       16.66239595      12.91403273      13.12942394
W       10.89226573      12.10444221      11.36971858
W       14.75217250      14.52631949       9.76778882
W       13.08925964      13.95874081       8.12447701
W       12.77387229      10.08827509      12.26016897
W       14.11417603      12.51259383      12.31194266
W        8.84628003      13.60227013      11.04810221
W       12.31745426       8.58253388      14.96182068
W        8.82622189       8.47999418      13.26225954
W       10.45441047      10.36243603      13.66703651
W       14.75077376      13.23852080      14.83897722
W       12.46390939      14.41662915      11.10017481
W       12.41621936      16.21094088       9.23762799
W       10.21923308      15.87722309      10.14747216
W        9.76129589       8.27190198      15.43989076
W       13.41676339      10.88738883      14.91071340
W       10.27247267      14.69412510      12.75972039
W       15.43409026      14.90046664      12.28346428
W       11.74843307      12.78838129      14.01960415
W        8.97418932      12.60196127      13.71559955
W        8.72551413      10.44102081      15.51579413
W       11.56529610      16.82751842      12.08099551
W       11.08023202      10.83360917      16.24220579
W       13.91585874      16.79909057      11.37229734
W       13.11568783      15.19626464      13.66794691
W       15.91346590      15.43182226      14.77417255
W       12.52609803      13.37619999      16.37342198
W        9.85767379      12.96496673      16.13576298
W       14.76486119      17.35435502      13.86776434
W       11.07330998      15.13338326      15.39177679
W       12.44129476      17.30325986      14.81708812
W       13.85308137      15.81972812      16.15838412
47
Properties=species:S:1:pos:R:3 config_type=qcd gap_pre_relax_energy=-517.5775368234558 gap_pred_energy=-520.4302022306041 gap_fmax_final=0.0009408073478533513 gap_converged=1 pbc="F F F"
W       16.38328392      14.76522952      12.78550621
W       13.97557085      13.80326429       8.90138764
W       16.54760154      13.08172867      10.45038653
W       14.49389432      13.94054409      14.51349460
W       12.13716603      12.03468088       8.47529062
W       11.78380853      13.03856465      15.13810440
W       12.15474589      17.25854582      14.59106781
W       12.12225977      13.72498352      10.71718802
W       11.65913396      10.38409980      13.94961202
W       15.73741509      12.16519243      13.01839688
W       11.12253741      14.70282016       8.67931035
W        7.89421760      13.75874111      11.63660629
W       14.22050610      16.51416713      13.58122012
W        8.12500264      13.65864929      14.67482971
W       16.63567438      10.73019665      11.07105469
W       15.92937392       9.72431407      13.60803939
W       11.54399260       8.33880349      12.06874844
W       10.07315606      12.82149788      12.64456316
W        9.21017628      15.35227034      13.20940827
W        9.65514917       8.70349597      10.16009564
W        9.41314280      11.56121342      14.95941834
W       13.99909866       9.83639984      12.12795087
W       15.25261598       9.21044741       9.55049941
W       11.96466508      11.13635518      16.64209194
W        9.78713644      12.94963078       9.62471950
W        8.54777598      11.04693248      10.75144404
W       12.73334011      16.43705555      11.62487241
W        7.32399875      11.94731784      13.04433428
W       13.01071044      12.39916057      12.80002359
W       13.66056059      12.88264872      17.06228763
W       13.99921747      10.24788640       7.83314007
W       12.92903494      15.51448290      15.97030271
W       13.18336115       8.45295434      14.00554264
W       14.41917963      14.49503042      11.54260116
W       15.73474238      12.35139994      15.94032461
W       15.92551951      11.83799650       8.46009563
W        9.35596013       9.97084422      12.73403498
W        9.83940760      13.18994480      16.76813825
W       11.32653061      10.99932703      11.07593975
W       11.85389595      14.98647538      13.30342682
W       13.63010262       7.63067303      10.96007504
W       10.37320403      15.31990882      15.62873620
W       14.11906026      11.72484982      10.28793243
W       14.04556161      10.92897952      14.99738374
W       10.09123789      10.27779384       8.54846051
W       12.41547115       9.25728599       9.54446752
W       10.19281850      15.43723187      10.86946146
48
Properties=species:S:1:pos:R:3 config_type=qcd gap_pre_relax_energy=-530.8294671609971 gap_pred_energy=-532.8354315193344 gap_fmax_final=0.0008843619262922274 gap_converged=1 pbc="F F F"
W        9.79344485      11.88735892       9.02757472
W       11.21112126      11.78470095      11.28544726
W       12.63553524      12.30474494       9.07996503
W       13.87631329      11.39798011      11.41669016
W       10.52572721      14.34413925       9.96946508
W       11.24170024      13.67498928       7.64845128
W        7.98865642      13.49213482       9.50896951
W       13.12631646      14.80559515       8.71485152
W        9.86975709      16.78707639      10.35956983
W        8.42998515      12.27645247      11.51348540
W       12.78152067      14.13581247      11.51967472
W        8.64025808      15.11526600      11.62978815
W        9.69518448      11.01377502      13.47769860
W       12.57222318      12.09346075      13.86085909
W       10.44283354      13.74288437      12.90814000
W       10.45033767      12.96329538      15.52913385
W        8.33025158      13.38093348      14.07869974
W       12.68631274      14.65043588      14.62824685
W       10.28232942      15.34968949      14.95882840
W       14.87130804      13.53776948      12.91161397
W       15.09999361      13.36632782      10.03666328
W       11.08479737      16.20348988      12.54399070
W       12.34507934      16.55330136      10.37167293
W       12.44016973       9.66958946       9.96456553
W       12.23800276       9.60002887      12.97184549
W        7.67259693       9.76956959      11.90465531
W        7.47816416      10.55777298       9.77514995
W       15.08259297      10.64865070       9.40053216
W       15.27050854      10.57227117      13.49520464
W       15.00930329      15.68819428      10.85964229
W       13.79447331      16.22752866      12.96970415
W        9.83926926       9.59009365      10.85000812
W       10.05372825       8.34554425      13.35459644
W       16.73801067      12.09648826      11.49241638
W       17.00502726      14.56010275      12.11369222
W       14.13079924       8.63544268      11.47905488
W       11.34768475       7.66180389      11.44563213
W       16.36318455       9.67541429      11.14297640
W       17.12508590      12.60979751      14.21877037
W       16.40898616      10.82642032      15.61257491
W       15.62035276      15.25100043      14.62262390
W       14.86574446      12.76967813      15.53128041
W       14.18767495      14.95062062      16.53091835
W       12.63714788      12.55936258      16.68580326
W       13.59343269      10.26760868      15.62354300
W       11.06640246      10.30275649      15.54355321
W       14.14066195       8.26351846      14.23947882
W       11.88922577       8.01834521      15.17151520
49
Properties=species:S:1:pos:R:3 config_type=qcd gap_pre_relax_energy=-539.9627800632081 gap_pred_energy=-544.3844509261776 gap_fmax_final=0.0008495205824054236 gap_converged=1 pbc="F F F"
W        8.72154853      13.40430110      13.69618017
W        9.59734266      12.13427669      15.66158774
W        9.16397807       9.42123139      14.78572193
W        8.54205080      10.10828989      11.85137675
W        9.48836848      14.93549965       9.31348985
W        9.84208803      15.23473330      14.92323089
W       10.79825514      10.07634957      16.99919235
W       10.06677803       8.24704788      12.50982004
W        9.49761215      12.66709072      11.23715192
W        9.37187091      15.31884532      12.08715629
W       11.54133872       8.84740157      14.88222723
W       10.29005483      11.02945109      13.34225932
W       11.29233708      13.84348937      16.53676064
W       10.48177156      16.83825630      10.06769143
W       11.34621728      12.59692012       9.23522560
W       11.90912867      15.04821866       8.45666308
W       10.59328799      10.20826141      10.61661797
W       11.59014991      16.49707488      12.70010041
W       12.19383130       7.17826317      12.75239299
W       11.55976656      14.49453511      11.03651542
W       12.80729910       9.60529353      12.50690202
W       12.18387038      11.46297089      15.32292954
W       11.95888235       7.84351201      10.40832241
W       11.39330528      13.68231647      13.73664099
W       12.23187202      12.06207457      11.71225092
W       13.13701460       9.52501848      17.28021370
W       13.22710440      16.26404588      10.36943650
W       12.90611699      11.80490864      17.83286294
W       12.50753197      16.00218622      14.99365346
W       14.21889336       8.56368263      10.72819321
W       13.47137306      12.75447565       7.77502014
W       14.08934925      13.37208754      10.20703773
W       13.09681917      10.44296376       9.54150795
W       14.22639605       9.73248289      14.77152556
W       13.90991718      14.71201597      12.80237938
W       13.63836141      13.83763832      15.65637633
W       14.16320900      12.06473208      13.52913045
W       15.30088784      11.42539781       8.84563403
W       14.61598438      15.04819311       8.25081716
W       14.31612765      17.18103261      12.87614890
W       14.84896536      11.55029278      16.26598959
W       15.09864266      10.94189798      11.32949398
W       15.74929110      15.81173490      10.74974259
W       14.99660448      16.32901057      14.92207633
W       16.49517729      13.89130802       9.38868912
W       16.53332058      11.38520527      13.97724025
W       16.03785540      13.63589692      14.66095784
W       16.26462673      13.44016653      12.02064780
W       16.80853346      15.61903004      12.96792640
50
Properties=species:S:1:pos:R:3 config_type=qcd gap_pre_relax_energy=-551.7928513517257 gap_pred_energy=-554.7129342155919 gap_fmax_final=0.0009161256705388284 gap_converged=1 pbc="F F F"
W        9.34691284      12.86679757       7.95128950
W       12.41572756       7.86591138      13.82973388
W        9.71598700      13.81375453      10.36753452
W       16.47088761      14.18464677      10.27801670
W       11.49560952      16.48268521      10.04080951
W       15.59698293      11.17122379      15.74902581
W       11.41759089      11.89133892       9.74457598
W       15.18358140       9.45010395      10.88307160
W        8.95184238      13.72966046      14.04225319
W       12.72026864       8.81383499      11.54432390
W       14.84320155      16.14858070      13.60967706
W       14.89259707      12.84504542      17.32850856
W       13.02133980      14.24635477      16.37986306
W       11.70087151      10.18015513      14.25374333
W        8.79891015      10.99147351       9.63485747
W       14.04741870      13.40969316       9.26371217
W       14.75087443      13.83016535      12.21312800
W       10.24661303      10.73310946       7.48084751
W       13.90654164       9.34750511      15.92424219
W        8.39727728      12.14817123      11.91700767
W       14.41535484       9.49068790      13.54940125
W       17.18297721      13.54560047      12.54501560
W        8.85942825       8.47550376      10.35278524
W        9.00980793      11.02810952      14.27391302
W       12.30279897      14.34385871      10.94058088
W       15.52149952      13.85613707      14.89021342
W       14.43544955      15.99088033      10.73822796
W       14.90826121      15.79690880      16.39706461
W        7.66952070       9.68762128      12.15287864
W       13.40848896      15.84245615       8.55357726
W       10.90770188      12.68753953      12.68375098
W       13.31444473      11.52992161      11.72258322
W       15.91533194      11.82260453      10.48942493
W       13.12871554      16.88265097      15.14987137
W       13.64873168      10.49197107       9.33487715
W       10.33974814      15.34852845      12.60867952
W       12.85506701      11.40516881      16.78486497
W       11.49948476      14.32405644       8.25472884
W       10.87036287      12.78508513      15.41992792
W       12.34271152      12.16798330       7.45103634
W       11.13097799       9.17456522       9.42567184
W       10.63335303       7.28458600      11.64046982
W       10.82723648      15.41040336      15.31006728
W       12.58206161      16.88051598      12.23653898
W       10.31162245      10.56183757      16.28074736
W        9.49571027       8.52604273      13.38949567
W       10.38000018      10.22889584      11.74050016
W       12.60302731      14.64660459      13.74862460
W       15.96784359      11.47760290      13.02136051
W       13.56602845      12.11024512      14.43168356
51
Properties=species:S:1:pos:R:3 config_type=qcd gap_pre_relax_energy=-564.176925818144 gap_pred_energy=-566.6575407258262 gap_fmax_final=0.0009259155149688347 gap_converged=1 pbc="F F F"
W       13.71304152      14.24030659      11.37888816
W       13.96343294      17.31503719      11.76588911
W       10.60606273      14.23868819      11.76668055
W        7.76430674      14.17436504      11.96160082
W       10.31300529      17.12052893      12.09761451
W       10.55072536      11.12683850      11.85826774
W        7.79656443      11.21960485      12.13269076
W       10.33149670       8.26974338      12.07187778
W       13.60163359      10.96441944      11.54776411
W       13.48503246       8.12457339      11.93580357
W       12.31127794      12.66378722      13.30261111
W        9.22111695      12.75150951      13.58029414
W       12.37129067      15.83128590      13.21227375
W       12.13225406       9.49976964      13.50557616
W        9.16058684      15.64326893      13.54966534
W        9.16520515       9.75729752      13.60340706
W       11.95572485      12.51536236       9.88937496
W       14.85083605      12.36530484       9.64401339
W        8.96498815      12.66967333      10.29255475
W       12.01764473      16.09077518      10.32424113
W       11.85223916       9.32753385      10.29603257
W       15.04907614      16.10168086       9.98065038
W        8.89623864      15.79016011      10.49699644
W        8.82860705       9.56797838      10.57631741
W       14.88698704       9.32093654      10.03380718
W       11.03042559      14.29240834      15.02017491
W       10.95228064      11.27385509      15.08768018
W       13.39031163      14.59560887       8.85521287
W       10.46891424      14.49730225       9.08986388
W       10.26842312      10.81534779       8.98568223
W       13.34033867      10.56481385       8.65967231
W       12.77887767      12.74245816      16.40902854
W       14.16144166      14.22385231      14.62290149
W       14.12527557      11.06745276      14.70440372
W       15.43597864      12.59643282      12.78656236
W       15.52033207      15.76172384      12.84882709
W       15.47954720       9.49768866      12.91841664
W       12.54098499       9.79567905      16.37740102
W       14.23902869       8.44759533      14.82206215
W       12.92458012      15.68111761      16.44630530
W       14.04470566      17.05170994      14.79496233
W       16.49845086      11.06129552      11.00130741
W       16.37961372      14.07636764      10.95827206
W       14.81641968      14.21596798      17.39804719
W       14.46708221      11.18591569      17.32451354
W       16.05195618      12.66804077      15.84128687
W       15.96398714      15.65365390      15.80208166
W       16.22349234       9.77347305      15.78084801
W       17.18417070      11.06853451      13.99742517
W       17.10912198      14.09143820      13.98371097
W       11.10658298      16.90153554      14.97015632
52
Properties=species:S:1:pos:R:3 config_type=qcd gap_pre_relax_energy=-575.218648320151 gap_pred_energy=-578.682070653059 gap_fmax_final=0.0009222802012456548 gap_converged=1 pbc="F F F"
W       13.34504159      13.28075020      11.63689994
W       12.59096514      15.95009988      11.71273730
W       10.51480248      13.88092831      11.29489569
W        7.80819555      14.31666276      11.73190338
W        9.87860289      16.37859326      11.64968822
W       10.61349149      10.98325289      11.18359423
W        8.07563861      10.63866120      11.92556089
W        9.86868167       8.27196603      11.45032636
W       13.49667480      10.60044181      11.14630002
W       13.42012851       7.59782782      11.02111138
W       11.70007413      11.83432185      13.42921747
W        9.13842656      12.63946475      13.34313718
W       11.49780823      14.54515855      13.79851358
W       12.18500334       8.90246016      12.77294242
W        9.06746800      15.44429389      13.89665631
W        9.77686916       9.80453228      13.63337731
W       12.07577563      12.64312206       9.27344948
W       14.98014825      12.03316219       9.44543823
W        8.55752895      12.44024023      10.17312691
W       11.27179573      15.54046343       9.45711267
W       11.65130674       8.95884653       9.83409082
W       13.84604338      14.67888486       9.46147137
W        8.49282255      15.45478746       9.77290230
W        8.62064185       9.48610957       9.81386885
W       14.71255824       9.08321529       9.57862955
W        9.97522595      14.06768520      15.89237026
W        9.72331827      11.47308536      15.45487819
W       13.71292386      12.69849117       7.46392673
W        9.84955068      13.76379988       8.48166897
W       10.32035711      10.87889283       8.54109940
W       12.98050979      10.47620136       8.03077966
W       12.23231763      12.60787458      15.91042683
W       14.14108732      13.77786160      14.24452532
W       14.17909052      10.93211945      13.90462424
W       15.89221060      12.50282210      12.21913877
W       15.10812191      15.26393169      12.10937559
W       15.13337242       8.85909799      12.57176015
W       12.03609703       9.96376806      15.35827478
W       13.93293554       8.29030481      14.81452214
W       12.52677125      15.44217097      16.12890360
W       13.83808340      16.41373601      14.28217969
W       16.47784175      10.11565010      10.90309732
W       16.08643957      14.17512822      10.14892225
W       14.34177496      13.50109779      16.98926468
W       14.26546061      10.66303848      16.55275554
W       15.99781430      12.25698630      15.38680468
W       15.49728513      15.32586436      15.94121178
W       15.97713577       9.28702740      15.50790096
W       16.88524486      10.59615394      13.57115865
W       16.68219619      14.29128152      13.98145304
W       11.39826045      17.14046879      13.92106705
W       10.31191420      16.53704731      15.94079240
53
Properties=species:S:1:pos:R:3 config_type=qcd gap_pre_relax_energy=-585.0450403221654 gap_pred_energy=-589.5947894808609 gap_fmax_final=0.0009642849407566095 gap_converged=1 pbc="F F F"
W       13.58488738      14.38995341      11.57051258
W       13.83783716      16.89358563      12.22827533
W       10.83189400      13.79217933      11.54518153
W        7.99042182      13.76444909      11.61996469
W       11.28889556      16.54864085      11.78639953
W       10.82287677      10.91239311      11.45560305
W        8.19573227      10.88434252      11.82760254
W        9.60464974       8.49201246      12.05627522
W       13.55153095      11.74016282      11.79384244
W       13.72704463       7.87657265      11.10607025
W       11.89697078      12.15427848      13.87538117
W        9.34702303      12.80289657      13.59060518
W       11.93839859      14.92858875      13.86453172
W       12.49492397       9.21966212      12.80067230
W        9.40818914      15.62083381      13.27969700
W        9.98435302      10.21732553      14.04863797
W       12.02462655      12.62325279       9.47076969
W       14.70645254      12.88007059       9.45001967
W        9.15829960      12.32367728       9.93277920
W       12.00570181      15.48375230       9.47990202
W       11.31937742       8.41165308      10.31047756
W       14.59268882      15.76614241       9.78764627
W        9.20744945      15.41411037      10.34210363
W        8.61860598       9.45747037       9.97246714
W       13.47118561      10.02687716       9.86631741
W       10.24917505      14.11403135      15.65130955
W       10.68139575      11.66591438      16.21187840
W       13.29632195      14.14904593       7.77501569
W       10.21258177      14.21435201       8.46183346
W       10.78602536      10.32702367       8.72496593
W       12.91242902      11.22818413       7.71956585
W       12.87538428      12.86260370      16.28738685
W       14.47272319      13.85225803      14.17594144
W       14.43638335      11.12342295      14.38083164
W       16.02281059      12.60313088      12.18690833
W       15.89894448      15.48546707      12.63751622
W       15.19578644       9.57444076      12.28813034
W       12.30678100       9.83299430      15.63471014
W       14.43433728       8.66803728      14.88035364
W       12.18904379      15.72258861      16.37020469
W       14.05957546      16.45815757      14.73995843
W       15.90481916      10.86289007      10.32215378
W       16.48542244      14.47140916      10.43817740
W       14.63794128      14.67043406      16.96798746
W       14.27004216      10.81488007      17.08205371
W       15.89814236      12.59383618      16.11046141
W       16.29175765      15.58723544      15.46869314
W       16.25007318       9.79368379      16.13029348
W       16.97293899      10.94704739      14.09299609
W       17.27100641      13.56388548      14.33317037
W       11.61015801      17.54098428      14.11221066
W        9.91088209      16.64736872      15.45838013
W       10.92271272       8.06542110      14.36078849
54
Properties=species:S:1:pos:R:3 config_type=qcd gap_pre_relax_energy=-598.5607293329646 gap_pred_energy=-601.4660438355276 gap_fmax_final=0.000918473554817771 gap_converged=1 pbc="F F F"
W       12.92253693      13.49395845      13.55457696
W       12.78911766      13.50594932      16.43766551
W       13.11575253      11.07053808      15.05349310
W       10.74068853      12.29747486      14.41145016
W       10.66955870      14.78354050      15.47389321
W       13.05084427      15.94095317      14.86746011
W       15.22238149      13.51921311      15.17736166
W       15.27538023      13.36041385      12.03769488
W       13.13445740      15.91823026      12.01278032
W       10.77871011      14.83909990      12.79641455
W       10.77852403      12.30968086      11.74146613
W       13.28820922      11.15573663      12.13846504
W       12.89665476      13.53657034      10.61865536
W       12.67936221      11.25549654      17.98377598
W       10.61435709      12.23094388      17.10616672
W       10.56754633      14.69380023      18.01940168
W       12.69715145      15.85436599      17.72741977
W       14.58770632      13.69079196      18.23982259
W       15.10413227      11.44624771      16.89580360
W       13.20214422       9.08581225      16.49369264
W       10.91060991       9.97727064      15.94251587
W       10.86104650      17.28253580      16.46597655
W       13.04883002      18.15153084      16.08001517
W       15.11776818      15.88717513      16.55980794
W       17.12028785      13.72612801      16.95809945
W       15.61163172      11.12552180      13.77980965
W       13.80389743       8.86355348      13.70992808
W       11.33459549       9.84196681      13.15405462
W       11.02869978      17.30304330      13.96707559
W       13.24743120      18.29954903      13.24648853
W       15.48834527      15.64073046      13.51394421
W       17.47650685      13.47504850      13.89543025
W       17.11146751      13.40110682       9.74229070
W       15.16536405      15.56582898      10.29240288
W       13.27294642      18.18650006      10.69988118
W       11.11648735      17.38115656      11.23205382
W       10.82732746       9.78973945      10.76919253
W       13.06386638       8.98063344      10.89498891
W       15.08715664      11.36547441      10.16501511
W       14.50376223      13.55336980       8.59984526
W       12.77411782      15.95066587       9.16089243
W       10.77268385      14.96609930      10.16249775
W       10.47449437      12.34341643       9.29584686
W       12.60845027      11.29572323       9.27313417
W       12.24891263      13.84311426       7.89102840
W       17.42522870      11.72375179      15.67823338
W       17.34932194      15.57222303      15.38602295
W       17.21111768      11.84276726      11.54926974
W       17.31057485      14.94851722      11.53205538
W       15.55805328       9.36790278      15.64806516
W       15.39902011      17.75391798      14.85489039
W       15.41746544       9.46252424      11.79497070
W       15.57609441      17.46646191      11.84237729
W       12.33619839      13.45121126      19.24941686
55
Properties=species:S:1:pos:R:3 config_type=qcd gap_pre_relax_energy=-613.2032104713008 gap_pred_energy=-615.137419660581 gap_fmax_final=0.0009255103094803158 gap_converged=1 pbc="F F F"
W        8.49952505      11.05576652      14.32262822
W       15.07069615      13.04556512      11.10720953
W       12.69104383       9.33923301      16.18754819
W       10.49633162      10.95124778       9.65244394
W       15.10458145      13.27080584      14.10964610
W       12.68601019      13.47796862       6.69399125
W       10.60350094      11.05265616      12.79684935
W        8.47857023      10.83961632      11.29787955
W       12.75992732      13.20964148       9.55018930
W       12.70971666      11.75011854      17.43977075
W       10.56165723      11.36928615      15.92332654
W       12.77802972      13.34478619      12.61953477
W       10.44357014      15.30164724       9.53126982
W        8.33609822      15.06020571      11.02028572
W       12.82392064      13.62573093      15.68225143
W       10.49614757      15.53384190      12.50686606
W       12.59028174      11.14343040       7.99024673
W       17.11772359      12.92807976       9.47131627
W       14.80002389      10.93722982       9.31793803
W       12.79828968      10.91726476      11.16593569
W       17.32904356      12.75795443      12.61320036
W       15.13007383      10.76039583      12.83284936
W       12.81807100      11.19358471      14.38678737
W        8.33574182      13.06543555       9.70946558
W       14.92597344      11.36270229      16.07996922
W       12.71628346      15.37734942       8.05387943
W        8.40414150      13.43054132      15.65429623
W       14.99767265      15.19014520       9.51784894
W       12.73361429      15.49738558      11.01455817
W       10.62097416      13.84761979      17.13714849
W       14.97205863      15.45998648      12.45355835
W       12.77109646      15.68973519      13.93884587
W       12.81128095      14.18764682      18.47126282
W       10.74341139       8.83975697      11.40717981
W       16.80429220      10.91462692      10.80971648
W       17.19629048      13.35898149      15.69284984
W       10.65725151       9.02083496      14.49010683
W       16.96235660      11.16236451      14.66860887
W       14.96889032      13.86066542      17.19280048
W       10.52671123      13.27165958       8.14230436
W       17.07399921      14.81998132      11.00862698
W        8.38562809      15.25008747      14.09607184
W       10.49380513      13.22220195      11.11412912
W        8.77385557       8.86936509      12.86598959
W       10.53229596      15.68116905      15.49846510
W       10.52552077      13.41854506      14.17873611
W        8.25106072      13.11536654      12.68954020
W       12.81851677      15.94812294      16.91434330
W       14.44053629       8.98026093      10.90513474
W       12.53943933       8.96786152       9.36769045
W       15.04902784      15.58803729      15.42341170
W       14.66784364       9.10964776      14.88211691
W       12.79715210       8.89124674      13.10972735
W       17.09394041      15.03241056      13.91278305
W       14.86117285      13.27687106       7.95353948
